# HZ S RI R 50
500000 -0.858954995170137 0.4293663902957354
500103 -0.8589722033410851 0.42914008836188106
500206 -0.8589793453439158 0.4294206573563518
500310 -0.8589615038897163 0.42946844340943685
500413 -0.858995886595581 0.4295524928220806
500517 -0.8587407597458177 0.42964234057448847
500620 -0.8587967586490898 0.4296750618278686
500723 -0.8586466752095877 0.4297760986619738
500827 -0.8587499772272268 0.4299020554022052
500930 -0.8586265010076897 0.4300642147767053
501034 -0.8586980490091388 0.4300413572007638
501137 -0.8585148791760154 0.43003326323643504
501240 -0.8585010125350488 0.43003430347047594
501344 -0.8584401971594355 0.430090313838355
501447 -0.8585502398152371 0.4301106436532856
501551 -0.8584669739124777 0.4301224066097795
501654 -0.8583480758569823 0.4303504182606539
501757 -0.8581861176659623 0.43034158185345184
501861 -0.8581507090609046 0.43060471699828495
501964 -0.8581598912666862 0.4306186014172946
502068 -0.8579648135518043 0.4307281639094718
502171 -0.8582129615767822 0.43081530836217985
502275 -0.8579237497916743 0.4309862301244217
502378 -0.8579280062226653 0.4311202729523231
502481 -0.857999278242494 0.43118175689462807
502585 -0.8579116673523203 0.43129332552427496
502688 -0.8579569377047502 0.4313457814664482
502792 -0.8578152648819564 0.43136764983269166
502895 -0.8577796999860261 0.43146328728249117
502998 -0.8577132996900111 0.4314305859122546
503102 -0.8577531774136877 0.4316330512637134
503205 -0.8577736493452447 0.4317036633322177
503309 -0.8576646904371382 0.43166729717302416
503412 -0.8575387885888494 0.43167285087690543
503515 -0.8575211815192719 0.43178365232559374
503619 -0.8574050477625821 0.43197598564691186
503722 -0.8576083030652251 0.43221464749494726
503826 -0.8575095053518307 0.4321144882709447
503929 -0.857426923157961 0.43224156611169867
504032 -0.8574308981266825 0.4323212911345236
504136 -0.8574054682460959 0.43232894313968767
504239 -0.8573904806622767 0.43235806331985915
504343 -0.8573619943589977 0.4324211961156083
504446 -0.8572891936329322 0.4324940054987679
504550 -0.8571262104139313 0.43271750069685433
504653 -0.8570611801149413 0.43272290031779037
504756 -0.8569452120822305 0.4327132170125388
504860 -0.8569306179009671 0.4329005922505556
504963 -0.8571208046590901 0.4331496999896994
505067 -0.8568427340502889 0.4330567690713965
505170 -0.8567828448974777 0.43328095683195234
505273 -0.8567872373493022 0.43341486235612775
505377 -0.8569311622813023 0.43341211349988046
505480 -0.8566141271466058 0.4333266509750163
505584 -0.8567881490061408 0.43340179762336595
505687 -0.8565662164252376 0.43348243537363323
505790 -0.8565382090717258 0.43357161072194106
505894 -0.8564456580411576 0.4335892592577732
505997 -0.8563701659872136 0.43362667212116796
506101 -0.856321518211152 0.43373099828090733
506204 -0.8562579965469732 0.4337341101598695
506308 -0.8562319184807797 0.4338666151435481
506411 -0.8561963992932426 0.43406876495957364
506514 -0.8562235067647126 0.43411092202513235
506618 -0.8562308682065217 0.4341497405748237
506721 -0.8561391781224141 0.4341025675692849
506825 -0.8560851806280181 0.43424306733226054
506928 -0.8562042362359912 0.4343168608944114
507031 -0.8560807433116774 0.43441751523699146
507135 -0.8561497080728838 0.43445627252076024
507238 -0.8559118592455046 0.43444644160426155
507342 -0.8559515805714681 0.4345455127456714
507445 -0.8559350591925411 0.43473779965239245
507548 -0.8557818876499901 0.4347778674706715
507652 -0.8556834339797874 0.43497971910634436
507755 -0.8557386256653803 0.43510100126987505
507859 -0.8555514298318244 0.43507829006556387
507962 -0.8555582454673698 0.435262671862118
508065 -0.8556503371892134 0.43532206318906597
508169 -0.8556431915850139 0.43539505246357457
508272 -0.8556281358824692 0.43553770843562206
508376 -0.8555110857056112 0.4355746297061189
508479 -0.8555236006087821 0.43558056968994174
508583 -0.8554181645806717 0.4357072968852824
508686 -0.8554203253836808 0.43583454115494963
508789 -0.855362498486408 0.4360431042647125
508893 -0.8552597238829406 0.4360804822681073
508996 -0.8553852389708866 0.43609305495254086
509100 -0.8551911845540355 0.4362564929920758
509203 -0.8551287136097329 0.43631262161215684
509306 -0.8551716502105822 0.4363667991734336
509410 -0.8550511927550294 0.43634661650057904
509513 -0.8550404789419791 0.4364859284262275
509617 -0.8551306750872637 0.4365408568424838
509720 -0.8548686828318969 0.4364541393479832
509823 -0.8549808237592336 0.4364317700179086
509927 -0.8549503658803261 0.43663100305823943
510030 -0.8548869026201067 0.4366415604905913
510134 -0.854881963661912 0.43684793211340966
510237 -0.8545846524048046 0.4368641577889719
510341 -0.8546802372553791 0.43707932264425575
510341 -0.8545553520413682 0.4369380069294412
510446 -0.8544793540449069 0.4369836209766292
510552 -0.8545098869032128 0.4371325445176758
510657 -0.8546102056855552 0.43727756749417707
510763 -0.8544779509616726 0.43726284679200333
510868 -0.8544848676708285 0.43735558992997037
510974 -0.8544483489988205 0.43742925408612293
511079 -0.854437237245754 0.43746450794854763
511185 -0.8544106471550316 0.43749123935646456
511291 -0.854237456624326 0.4376232676341592
511396 -0.8543237294954061 0.43772495142170303
511502 -0.8540496489303792 0.4376911173329258
511607 -0.8540033575998172 0.4378938540929192
511713 -0.8540104256859893 0.4379864078941088
511818 -0.8539360114845107 0.4380426060281933
511924 -0.853789653363246 0.43814712706645664
512029 -0.8539560805511283 0.4381343183213057
512135 -0.8538608535843556 0.4382949556555344
512241 -0.8539594602503329 0.4384531185883992
512346 -0.8539215245910609 0.4383878916455321
512452 -0.8537525837825883 0.4383323639939488
512557 -0.8537022501139724 0.43850449126686913
512663 -0.8536927372901749 0.43858191579656336
512768 -0.8537790527921569 0.4386127314561076
512874 -0.8534943506196786 0.4388204145419249
512980 -0.8535966644406262 0.43888413907425394
513085 -0.8535088690876089 0.4390637509991445
513191 -0.8535479583608205 0.4391588829180686
513296 -0.8534410432199622 0.4392354436706687
513402 -0.8534461174669754 0.4393105661480495
513507 -0.8534142113068166 0.43941278564040065
513613 -0.8533581645220194 0.4395786483798845
513718 -0.8532099017220743 0.439462423743701
513824 -0.8533171993263772 0.4395606799814162
513930 -0.853256962707657 0.4395535236656632
514035 -0.853330951148215 0.4396512182356479
514141 -0.8532518045148096 0.4397983889920416
514246 -0.8529430858863726 0.4397093968660252
514352 -0.8531337858473101 0.4399613798881177
514457 -0.8528098632334739 0.44000655427405344
514563 -0.8528565218934804 0.4400408982368714
514668 -0.8532022972261738 0.4403080606444224
514774 -0.8529509992067361 0.4403486311714448
514880 -0.8529051113142507 0.44044515587942923
514985 -0.8528292765318223 0.4405017301665179
515091 -0.8528310491888398 0.4405012591002404
515196 -0.8528107503081449 0.4407180139994106
515302 -0.8527111149428258 0.44055133332431584
515407 -0.8526113313487096 0.4405497023072091
515513 -0.8524810045031617 0.44071206412689146
515619 -0.8525003861949604 0.44081270249208937
515724 -0.8523946653412856 0.4409531007591611
515830 -0.8523176290004972 0.4409953961769714
515935 -0.8523806010339813 0.4412094098260116
516041 -0.8522857931142834 0.4413737211637263
516146 -0.852229199128812 0.44145300640100554
516252 -0.8522593226004435 0.4414836364757069
516357 -0.8523303755520225 0.4415805251755393
516463 -0.8522197813229309 0.4416122159912298
516569 -0.8521739321569745 0.4416991176278406
516674 -0.8521591870785489 0.44177792118380194
516780 -0.8522150181519123 0.4417044029453668
516885 -0.8520886861363116 0.44183935802872326
516991 -0.8519948822662102 0.4420159721483594
517096 -0.8518509011982853 0.44209249882306295
517202 -0.8518019180500398 0.44205895485756214
517307 -0.8518117909272829 0.4422643209481594
517413 -0.8517782213271138 0.4423452117615027
517519 -0.8518555024406355 0.4424604359995907
517624 -0.8516926472080526 0.44239737927256156
517730 -0.8516661086374718 0.44243621445377074
517835 -0.8516295046213996 0.44255446045775143
517941 -0.8515422767838091 0.4425271186799289
518046 -0.8514076001777399 0.442526369967774
518152 -0.8514567963871921 0.4426086771951625
518258 -0.8512609778828159 0.44273211303169296
518363 -0.8512607435908406 0.44291222475528136
518469 -0.8511296385091919 0.44294047024965466
518574 -0.8510362185068701 0.4430337235983342
518680 -0.8509576803184038 0.4430914539563801
518785 -0.8509693727449342 0.4431770606833965
518891 -0.8508373336414101 0.4433027590463152
518996 -0.8508983268669349 0.44332981008514344
519102 -0.8509210802242841 0.4433847582463013
519208 -0.8509247547598034 0.44342132748857904
519313 -0.8508876729664259 0.44347216583457083
519419 -0.8507668599519559 0.4435490123082983
519524 -0.8508614109727684 0.44370493676793565
519630 -0.8507374989205876 0.4436960843482381
519735 -0.8506902287011023 0.44379203330174627
519841 -0.8505009547541497 0.4439425709326763
519946 -0.8506133547646686 0.44410435558521927
520052 -0.8504847992149935 0.4441025376310824
520158 -0.8505768373621427 0.444222106454203
520263 -0.8507248506971162 0.444376955652684
520369 -0.8505264732067 0.4443845529923847
520474 -0.8504964721035692 0.4444807546756319
520580 -0.8504614255116595 0.44452349069500613
520685 -0.850409792302344 0.44452267191529743
520791 -0.8503567492169342 0.4445877651199859
520897 -0.8503027123968655 0.44465371659516534
520897 -0.8501791759332062 0.44439384499543705
521004 -0.8501655393721427 0.44464255344297504
521112 -0.8502004093536955 0.4448962574030066
521220 -0.8500069519282579 0.44500730627562424
521327 -0.8499109696054514 0.4450500814458706
521435 -0.8499177958231676 0.4452280613109663
521543 -0.8498101222164368 0.44523442793711304
521651 -0.8498523622486472 0.44537618251795463
521758 -0.8498864730513722 0.4455104069900528
521866 -0.8498477279316248 0.4455588919942089
521974 -0.8497290839218345 0.4454664510569967
522082 -0.8499455198143535 0.4455391463051658
522189 -0.8499126303818243 0.4457436693840681
522297 -0.8496726969166474 0.44571195017095744
522405 -0.8497595948829381 0.44585272602265275
522512 -0.8496904443430398 0.4460223702198388
522620 -0.8495507903945362 0.446061008195435
522728 -0.8495748595203522 0.4461284877219022
522836 -0.8493424782819371 0.44624890134146245
522943 -0.8494263400522951 0.44635958930699654
523051 -0.8493949090894318 0.4464506280863131
523159 -0.8493802792196659 0.4465775766909662
523267 -0.8494604503436644 0.44652462559976575
523374 -0.8494454806205676 0.44669017067596717
523482 -0.8493079933106963 0.44666593014760125
523590 -0.8491282658996099 0.4467305606712572
523697 -0.8491542376476385 0.446871952542634
523805 -0.8488491391493426 0.4468735866292175
523913 -0.848750437752576 0.4469341637978034
524021 -0.848835738432838 0.4470706557245739
524128 -0.8488608709376507 0.4472235977085376
524236 -0.8486948912591411 0.44729868843169496
524344 -0.8487901030585722 0.44740590373773687
524452 -0.8485838035444366 0.4475105058273317
524559 -0.8486485799071307 0.4476047316748068
524667 -0.8487321397181677 0.44761576733426167
524775 -0.8485457766608504 0.44762385773351543
524883 -0.8484779250419147 0.447780581506538
524990 -0.8485036132188153 0.44771086066256893
525098 -0.8485121075581801 0.4477805003521678
525206 -0.8484247176593103 0.44788221351239155
525313 -0.8482150757918319 0.44800287627950397
525421 -0.8481510368862508 0.44802716367987805
525529 -0.8480279709060567 0.44810695112231724
525637 -0.8481397526680735 0.4482484098477639
525744 -0.8480108775933932 0.44824825797438056
525852 -0.8480294448271991 0.4483592695465034
525960 -0.8480241084739748 0.44854727847235054
526068 -0.8479401640732851 0.44848553356703824
526175 -0.8480669864271669 0.4485488726029926
526283 -0.8479043675233507 0.4485503754958228
526391 -0.8478674585599115 0.4486448745151837
526498 -0.8477286697863513 0.44863013143746083
526606 -0.8477170095241919 0.448751513309238
526714 -0.847543391730382 0.4489184639641672
526822 -0.8474319525170325 0.448912032632203
526929 -0.8474522971252154 0.44911109672487076
527037 -0.8474067453483753 0.4491830646823127
527145 -0.8474139588327264 0.4493355959625037
527253 -0.8475093916694311 0.44946404142081464
527360 -0.8474786098307531 0.44946051492646927
527468 -0.8473653713482465 0.4494521521168861
527576 -0.8473145820388481 0.44958141973279186
527683 -0.8473658382715088 0.4495537980630634
527791 -0.8474150832095358 0.4497463837549246
527899 -0.8471137660195499 0.44978465440755144
528007 -0.8472256566693488 0.4497739010839739
528114 -0.8472789052833115 0.4499108907187292
528222 -0.8470937609901187 0.45004828761860516
528330 -0.8470030519178088 0.44999078326898795
528438 -0.8471417147751055 0.4502664816740737
528545 -0.8470557069927456 0.45016710275578575
528653 -0.8470434590179066 0.4503480681153145
528761 -0.8469085821776883 0.45044055968020286
528869 -0.8469684920984268 0.45044037764340406
528976 -0.846970442751708 0.4505080466342233
529084 -0.8468205069502311 0.45051951970965415
529192 -0.8467390384622472 0.45055210386228345
529299 -0.8466784985677922 0.4507635535014219
529407 -0.8466545790238312 0.4508272211428809
529515 -0.8465856575487267 0.4510153213054162
529623 -0.8464129135975951 0.4511081568507623
529730 -0.8464851192164587 0.45122113702967354
529838 -0.8464593169155277 0.4513692436507087
529946 -0.8464334812252928 0.45140640177574964
530054 -0.8466303622858362 0.4514963550303184
530161 -0.8464393021765373 0.4516381619313574
530269 -0.8465306757473409 0.4515834175933291
530377 -0.8463201497187673 0.4516192965391493
530484 -0.8461764636267902 0.4517346427585593
530592 -0.8461640299261229 0.45171484329222655
530700 -0.8459706142509579 0.4518573395027899
530808 -0.8461690116984144 0.452062505897941
530915 -0.8459850759446006 0.45210566207213426
531023 -0.8460402576335592 0.452251701098806
531131 -0.8459320879666558 0.4522917642539116
531239 -0.8459866165793727 0.45235713133638084
531346 -0.8458181475814213 0.45240036686351015
531454 -0.845863367556847 0.45246911888313257
531562 -0.8457849877991563 0.4524996417312447
531670 -0.8457213701770258 0.4524892440168666
531670 -0.8457483963093457 0.4521795750322628
531779 -0.8455290946724303 0.45238448400172054
531889 -0.8454669696293011 0.4525995571180871
531999 -0.8453132639493128 0.45259172614895105
532109 -0.8453234409245111 0.45277074615482127
532219 -0.8453815252756482 0.45290361906504345
532329 -0.845330462700001 0.4530700281676875
532439 -0.8453757356078866 0.4532908822363369
532549 -0.8450717747673832 0.45329833353391535
532659 -0.8453150733446325 0.45347243598939774
532769 -0.8452770042841865 0.4534424178094224
532879 -0.8453457296781585 0.45363497774311695
532989 -0.8451380108082869 0.45366521126437165
533099 -0.845119276844505 0.4537240587310943
533209 -0.8451624727360433 0.45371352131164633
533319 -0.8451731213852066 0.45391542616883496
533429 -0.8450770557278988 0.4541099239114495
533539 -0.8450154744513351 0.4541154876611329
533649 -0.8450545268378862 0.4542434145904703
533759 -0.8448797779774814 0.45424762860362744
533869 -0.8447561649074345 0.45438828737412973
533979 -0.8447344655535678 0.4544758282012059
534089 -0.8447995919855693 0.4545607397432047
534199 -0.8448751876973085 0.4545883237436974
534309 -0.8448087068473925 0.4545546548661631
534419 -0.844459201854624 0.45463604469361296
534529 -0.8446610193994061 0.45475819348347424
534639 -0.8444070676793097 0.4547262514548739
534749 -0.8443312334264724 0.45484196758256995
534859 -0.8443238118341164 0.45501463203081427
534969 -0.844248634488914 0.4550606145369072
535079 -0.84407339446049 0.45520234461154646
535189 -0.8441057016567741 0.455198429523825
535299 -0.8439780182186503 0.4553301792065604
535408 -0.8440958006285826 0.4554473747481564
535518 -0.8440159453635757 0.4554091976253399
535628 -0.8440290999532456 0.4556342950962929
535738 -0.8438234827212471 0.4556550191649515
535848 -0.8438987914812486 0.45561925390822466
535958 -0.8437774561393847 0.45574889386363204
536068 -0.8437214853900156 0.4558287059575178
536178 -0.8436243859291515 0.4560341140823235
536288 -0.8434771891015032 0.45606748166231664
536398 -0.8434410914046045 0.4561453642508374
536508 -0.8433688883711563 0.4562609838782077
536618 -0.8433740492796918 0.4563391646445495
536728 -0.8433900051140861 0.4564435260701487
536838 -0.8432585590218546 0.45645154918114234
536948 -0.8433059200283313 0.456478126670789
537058 -0.8433652973445256 0.4566460536370367
537168 -0.8432235168186005 0.4566849753218797
537278 -0.843048985383385 0.4565911752636082
537388 -0.8430220092314793 0.45669946190938265
537498 -0.8430192630276745 0.456792359914419
537608 -0.8428393611875519 0.45682880655900165
537718 -0.8429300206226364 0.4569918519684881
537828 -0.8426930000188958 0.4570727766068324
537938 -0.8427770324845283 0.4571352565628694
538048 -0.8426881708840903 0.457240992835503
538158 -0.842638730063811 0.45730787795571354
538268 -0.8427242508050297 0.45745316731599894
538378 -0.8428458841572787 0.45772796098746016
538488 -0.8427156692963683 0.4575326769248466
538598 -0.8426812700029527 0.4576987317750543
538708 -0.8425021182201275 0.457756075054429
538818 -0.8423912014293907 0.4577386432819784
538928 -0.8422593676253842 0.4578699598354088
539037 -0.842281547998274 0.4581196057337729
539147 -0.8422095862825513 0.4580883205775667
539257 -0.8422599390910172 0.45830298496358535
539367 -0.8420944553401393 0.4584064428010002
539477 -0.8421620280930342 0.4584946105719207
539587 -0.8421542111529454 0.4585779369945852
539697 -0.8422416821307843 0.45863699424182064
539807 -0.8421616483785049 0.45866054150570656
539917 -0.8418950680723895 0.45867637180903853
540027 -0.84168967297249 0.4586215401875284
540137 -0.8416684075805008 0.4588602809988345
540247 -0.8417589041504308 0.45878644576217353
540357 -0.841697324131326 0.4590051182601888
540467 -0.8415620240399344 0.459074301487944
540577 -0.8413418179012647 0.4589884055835827
540687 -0.8415133425208626 0.459264678672877
540797 -0.8414157771748363 0.4593134602027723
540907 -0.8413548905782862 0.4592544035671927
541017 -0.8412547678370339 0.4593850325141867
541127 -0.8412009028708725 0.4594324912295199
541237 -0.8413703890985202 0.4596095165585027
541347 -0.8412549321162647 0.45955285044025934
541457 -0.8412132445690852 0.45970240534435003
541567 -0.841134663193323 0.4596848797001505
541677 -0.8411014435420039 0.45986921823871224
541787 -0.8410527052503742 0.45997153651785305
541897 -0.8410898576024994 0.45997185853086026
542007 -0.840926124816698 0.46013469980190186
542117 -0.8409569651098208 0.4602102385918751
542227 -0.8409692895745527 0.4602667576871438
542337 -0.8410344495662565 0.46043064781989074
542447 -0.8408761414625843 0.4604988569082562
542557 -0.8409310840160734 0.4604857637952877
542667 -0.840782480648085 0.4604828755693086
542667 -0.8408061946131219 0.46027475672848983
542779 -0.8407273518064597 0.4605221386603018
542891 -0.8407101530243491 0.46080107038951956
543003 -0.8405390125914717 0.4607270939788502
543115 -0.840530469269185 0.4609355499850966
543228 -0.8406608345767504 0.4610616506489739
543340 -0.840377116940878 0.4611715833727489
543452 -0.8405087926886471 0.4613300414670232
543564 -0.8404116223250775 0.46142874383606125
543677 -0.8403444960253413 0.461449470803882
543789 -0.8404362172000799 0.46157865346368654
543901 -0.840445499292312 0.46169305368663555
544013 -0.8402595517886123 0.4617803703273055
544125 -0.840297134266355 0.4618313015136956
544238 -0.8402565506419247 0.4619188180938828
544350 -0.8400593375225938 0.46195650067438676
544462 -0.839950310081117 0.46198095274571754
544574 -0.8399029715059326 0.4621638604589275
544687 -0.8399690112344902 0.4622835205768255
544799 -0.8398635555375337 0.4622693836746701
544911 -0.8397797718011405 0.46242927738079015
545023 -0.8398127950024757 0.4624437278779536
545136 -0.8397846524532743 0.4625164106355393
545248 -0.8396543451757827 0.4626143579492624
545360 -0.8396587471189839 0.4626486131698254
545472 -0.8395654942698761 0.4626155978909202
545584 -0.8395246170133035 0.4628466574038782
545697 -0.8393384358637793 0.46278386767253826
545809 -0.8393016627186833 0.46279532305132304
545921 -0.8391594310512228 0.4629465713200785
546033 -0.8391391891837228 0.4630908040817622
546146 -0.8388704038894124 0.4631790933467847
546258 -0.839067470461986 0.4633613152954058
546370 -0.838865521721247 0.46330147305640496
546482 -0.8389208815481036 0.46336769949478235
546595 -0.8389080448497942 0.46343067340500305
546707 -0.8387351850930184 0.4634421618220007
546819 -0.8387723097654523 0.4635728709703021
546931 -0.8388166121490315 0.46378880929841515
547043 -0.838447919293278 0.4636230540951499
547156 -0.8384645692419096 0.4637928695376176
547268 -0.8386193128396691 0.46400725206590276
547380 -0.8384430815435325 0.46403658132136644
547492 -0.8385632480514505 0.464212408466124
547605 -0.8383184820539697 0.46420683177395977
547717 -0.8384135492657289 0.4642905769473145
547829 -0.8383849510043476 0.46439796471264844
547941 -0.8384918822193372 0.46445372243635497
548054 -0.8383214213281976 0.4644802331462309
548166 -0.8381343023564859 0.4644484663772613
548278 -0.8381721628566402 0.46464154229768717
548390 -0.8381918864281089 0.464709647585698
548502 -0.8380891316534185 0.46483670649538905
548615 -0.8380976483980506 0.4649585759807349
548727 -0.8379619236127548 0.465075888791562
548839 -0.8378992654673081 0.46510613552916497
548951 -0.8379387884806915 0.46523972639402283
549064 -0.8378775391009454 0.4652964699237281
549176 -0.837867779450354 0.46533798662172177
549288 -0.8378471262688355 0.4653950716244011
549400 -0.8378892585556698 0.4654969849514035
549513 -0.8376894735240589 0.46544864681825665
549625 -0.8375623273857177 0.4654616699980084
549737 -0.8376514504513833 0.46558092573383647
549849 -0.8375841448026609 0.4656752839754558
549961 -0.8375893436257331 0.46581743897352423
550074 -0.8375424844149953 0.4659936264472437
550186 -0.8372954643500327 0.4659527542429357
550298 -0.8374739300560949 0.4662624442960592
550410 -0.8372832805362431 0.46613792659153447
550523 -0.83733465945906 0.46634040364391655
550635 -0.8374724915250163 0.46636729967767543
550747 -0.8373429377046381 0.4663999643478585
550859 -0.8371138049658046 0.4664128591572449
550972 -0.8372277822905828 0.46651427934698253
551084 -0.8369574944421507 0.466498299549879
551196 -0.8370013158789642 0.4667273842170246
551308 -0.8368344403568146 0.4667390524937309
551420 -0.836848895444021 0.46684376490427976
551533 -0.8367323826682769 0.466850371502524
551645 -0.836562319444923 0.46703142060352326
551757 -0.8367521747564963 0.46722551977806265
551869 -0.8365893182978652 0.46715997267590526
551982 -0.8366013379571197 0.46723354648676707
552094 -0.8362075630247142 0.467242652538479
552206 -0.8365152085488846 0.4673188312663946
552318 -0.836374107533421 0.46738944730258825
552431 -0.8363083401458764 0.4673430750649672
552543 -0.8361799036071387 0.4674121381398514
552655 -0.8361248728285859 0.4675155139042475
552767 -0.8360741259714647 0.4676775499937439
552879 -0.8360731224256092 0.467768778174972
552992 -0.8359684170282897 0.46794015981334885
553104 -0.8360541903347015 0.4681420021388943
553216 -0.8359026128174697 0.46807036722246964
553328 -0.8360545630914153 0.4682256949254197
553441 -0.8359338860568301 0.4682686188189725
553553 -0.8359136083228242 0.46822451787635005
553665 -0.8359394375638821 0.46845729008409387
553777 -0.835770977158897 0.4684416973711821
553890 -0.8357484285291467 0.46858983214736105
553890 -0.8355733944762691 0.46813240465246825
554004 -0.8356723913182925 0.4685669508962928
554119 -0.8357340378743553 0.46880311058478685
554233 -0.8355118337986197 0.468785033538893
554348 -0.8355148763568556 0.46905928549231374
554462 -0.8356748490576478 0.46914690198678966
554577 -0.8357281843960079 0.46933531103954634
554691 -0.835593228908074 0.4692918839446624
554806 -0.8356350659412278 0.4693268637602509
554921 -0.8354670977555689 0.4693306334588441
555035 -0.8355112564190079 0.46951848990574
555150 -0.8352432988450145 0.46941675750425593
555264 -0.8351736072857799 0.46957403474891796
555379 -0.8353281037103987 0.46966727058022495
555493 -0.8350673224259094 0.46974380239035346
555608 -0.835008208589134 0.469812102511185
555722 -0.8348662402956357 0.46998005881187443
555837 -0.8349201700544672 0.4700842672553829
555952 -0.8348907376936265 0.4701413603831235
556066 -0.8348745100212562 0.4701743465386407
556181 -0.8348915841627209 0.4703365985389667
556295 -0.8348460762019685 0.4702815631360177
556410 -0.8348421228268029 0.470420150832501
556524 -0.8346314920867093 0.4705071856610861
556639 -0.834425074843991 0.4705666420308334
556754 -0.8344908635147765 0.47059214119317994
556868 -0.8342653635188005 0.4707352312502337
556983 -0.8341655929278621 0.4708657124827812
557097 -0.8342135829615375 0.4709783407753142
557212 -0.8342887536244815 0.4711837897717747
557326 -0.8342490854551423 0.47122093981752056
557441 -0.8343428944165354 0.4713053677088852
557555 -0.8342134024568244 0.471415528645429
557670 -0.8341038639460707 0.4713475904230916
557785 -0.8339975711732602 0.47141771513214475
557899 -0.8340091698130386 0.4715380855545694
558014 -0.8339361015970855 0.47158320337562776
558128 -0.8338243036992079 0.47168122708970256
558243 -0.8338433354301266 0.47184886302667534
558357 -0.8337284504730257 0.47192082647697237
558472 -0.8337834340244558 0.4720846461134907
558586 -0.8335824359593457 0.4721436522891393
558701 -0.8336597235879468 0.4722904672695072
558816 -0.8335630503603063 0.4721893836834892
558930 -0.8335444124151054 0.4723623846219275
559045 -0.8336485555399822 0.4723519938884224
559159 -0.8334505720384756 0.4723990530938653
559274 -0.8334283891883152 0.4724807210043044
559388 -0.8332895561115744 0.4724823086426243
559503 -0.833289635171165 0.47256989769451696
559618 -0.8330420308229621 0.47263747235472564
559732 -0.833157426067873 0.47284620156607926
559847 -0.8330738056960195 0.4729234586363616
559961 -0.8329814454001158 0.47297426490527733
560076 -0.8330221167008481 0.4731511247332673
560190 -0.8330117641749706 0.4732397220953232
560305 -0.832967662018182 0.473262557149461
560419 -0.8329620810857622 0.4733572068252939
560534 -0.8329385734590895 0.4733496586386331
560649 -0.8327487926859398 0.4733719495777841
560763 -0.8326849351347716 0.47341925440582816
560878 -0.8326548091067449 0.4736322577174406
560992 -0.8325741517052812 0.47366542790379484
561107 -0.8325491294148699 0.4738317677688223
561221 -0.8325074467936417 0.47400460047057263
561336 -0.8323767409577449 0.4741106676512342
561450 -0.8323149242454958 0.4742064999156972
561565 -0.83237131979156 0.47423209731931804
561680 -0.8323170597251248 0.47430039826950554
561794 -0.8321362385093203 0.4742224056441536
561909 -0.8320684004578461 0.4742621473053264
562023 -0.8320603261114973 0.47429807450659606
562138 -0.8320178484098543 0.4744426994715242
562252 -0.8319563817680354 0.4746215885039937
562367 -0.8317597354605158 0.4745754484218566
562482 -0.8316219342968348 0.47464082765928417
562596 -0.8316686152234237 0.47488829259049425
562711 -0.8317911227553633 0.47499135524956204
562825 -0.831556200953632 0.4750419798059407
562940 -0.8317461503145018 0.47525197545408704
563054 -0.8317026036970502 0.4752156936431313
563169 -0.8315720901816793 0.47517526919650577
563283 -0.8315527378937841 0.47523193349382215
563398 -0.8313927464792827 0.47530197361738197
563513 -0.8314112926653195 0.4753222689066043
563627 -0.8313939742444062 0.4755636234342311
563742 -0.8311147667565094 0.4756511481066988
563856 -0.8311112477312561 0.4756823173163028
563971 -0.8308816931981875 0.47583258938603573
564085 -0.8311561810087719 0.47596971654576486
564200 -0.8311793389485717 0.47612041324837495
564314 -0.8310996684573485 0.4762671791868479
564429 -0.8310246247939681 0.476210675918486
564544 -0.830939241172998 0.47623434615909743
564658 -0.8309032839034401 0.4762494764671293
564773 -0.8307403861564429 0.47629996527267204
564887 -0.8307287181372911 0.4764614598521604
565002 -0.8305979052841191 0.47651255463194336
565116 -0.8305016803977734 0.4765456514354976
565231 -0.8304098146665008 0.47660867376290766
565346 -0.830539532054932 0.476867781806406
565346 -0.8301658271047534 0.47688002801206186
565462 -0.8303847543037107 0.4770068961564804
565579 -0.8305337238420012 0.4770466211659838
565696 -0.830588375392293 0.47720525655534657
565813 -0.8304737857986877 0.4770910906734872
565930 -0.8303265886520109 0.4771876549441358
566047 -0.8303778434092066 0.4773512167454478
566164 -0.8302544886819002 0.47732887120037504
566281 -0.8301501562080741 0.4774264040274779
566398 -0.8300152220822862 0.4776003302904732
566515 -0.830004301740646 0.4777197504208847
566632 -0.8299980311289457 0.47785197830722476
566749 -0.8299043128622404 0.4780423660125194
566866 -0.8299768864714133 0.47817606774269833
566983 -0.8299233861017262 0.4782213461384731
567099 -0.8298569060587654 0.47835696464366856
567216 -0.8298851431718823 0.4783044426106374
567333 -0.8297944509624762 0.47841968345751107
567450 -0.8297311631546761 0.4785036821912727
567567 -0.8297473092858485 0.47855546521496667
567684 -0.8295359305914511 0.4785744675847316
567801 -0.8295281623017496 0.4787772546601475
567918 -0.8296538975874519 0.4788992190488762
568035 -0.8293453191254907 0.4788691175405762
568152 -0.829265451667557 0.47902294641863613
568269 -0.8293586496250347 0.4791576176065421
568386 -0.8293896830596275 0.4792640759156612
568503 -0.8294434046613106 0.47925658675704114
568620 -0.8292789763567252 0.47916082863663656
568736 -0.8291148466196563 0.4792850712455756
568853 -0.8291776707729855 0.4794141462233018
568970 -0.829096815226674 0.4793968304481865
569087 -0.8291317294371097 0.47961268093218845
569204 -0.8289033493093769 0.4797065240268265
569321 -0.8288584967316065 0.4796937459703331
569438 -0.8288186963095453 0.4799505911463671
569555 -0.8286700627849427 0.4799483777521645
569672 -0.82868533977204 0.48000975289107434
569789 -0.8286493137647652 0.48011142061772033
569906 -0.8285910049442394 0.48010118017877135
570023 -0.8285819631338247 0.480246173648412
570140 -0.8282316821572164 0.48023833440188296
570257 -0.8282671073982674 0.4802926009825395
570373 -0.8282550642048208 0.4804158508667756
570490 -0.8281934273274277 0.4803737314492628
570607 -0.8280525520688881 0.4805014955357121
570724 -0.828059068430159 0.4807483706638131
570841 -0.8280935858169486 0.4807922020114518
570958 -0.8280994375648818 0.4809281497625032
571075 -0.8281832137665665 0.4811130821401014
571192 -0.8280526885253251 0.48111204781607614
571309 -0.8281755990284176 0.4812527585262643
571426 -0.8278992203453561 0.48115445520286937
571543 -0.8280423466987014 0.4812836760169648
571660 -0.827838517403191 0.48125666060338745
571777 -0.8278682480240017 0.4815303574513168
571894 -0.827605469980558 0.4815002227533219
572011 -0.8275443410961999 0.4815558197566025
572127 -0.8276419311126507 0.4816375520327101
572244 -0.8275566457549562 0.4818374462241466
572361 -0.8274728918682772 0.4819537336813589
572478 -0.8273444983843282 0.48187084117750284
572595 -0.8275594488197827 0.4821578621169677
572712 -0.8273985454414664 0.48223103343480306
572829 -0.8273392811659125 0.48221815050342975
572946 -0.827249423888658 0.4823027031148236
573063 -0.8272477288935501 0.482314827714451
573180 -0.8270395568588474 0.4824509544896066
573297 -0.826995550037446 0.4825195701639638
573414 -0.8267295011349494 0.48254479328288474
573531 -0.8266877762268551 0.48269141142189664
573648 -0.8268360367786225 0.4828664564537634
573764 -0.8267080870741993 0.4828383662961992
573881 -0.826676022789527 0.4829423317798336
573998 -0.8268108707470069 0.4830345732578334
574115 -0.8268458266518574 0.48317432384876113
574232 -0.8266709919309962 0.48310258889016106
574349 -0.8263602975015139 0.48310336262514586
574466 -0.826466837765116 0.4832253343463234
574583 -0.8264147261327773 0.4833454324010258
574700 -0.8263979487710412 0.4835119821560406
574817 -0.8263203878565814 0.48359003820337726
574934 -0.8263551018705881 0.4837598308269062
575051 -0.8262260185884998 0.48380884099590615
575168 -0.8263000392188911 0.4839714244778998
575285 -0.8263173910932126 0.484109337473655
575401 -0.8262501879674893 0.4841317114943369
575518 -0.8262926756923891 0.4841635278373606
575635 -0.8262086539490525 0.48436329542808376
575752 -0.8262219225814121 0.48434179059077903
575869 -0.8260014098818218 0.4844104384738539
575986 -0.8260205379982943 0.4846086080926501
576103 -0.8258652459900236 0.4846648104126688
576220 -0.8256314961490399 0.48475031433680105
576337 -0.82559293901689 0.4848393255047126
576454 -0.8255473520254617 0.48492715593329094
576571 -0.8255718238662184 0.48508373871323446
576688 -0.8254949569123581 0.4850889342068666
576805 -0.825277896396638 0.4849211657433621
576922 -0.8253020445889976 0.4850594895046573
577039 -0.8252239341902659 0.48512658326494185
577039 -0.8254227023318292 0.4858295590354047
577158 -0.8253289642617199 0.48550870225810944
577277 -0.8253492273809336 0.48534503687692265
577397 -0.8250967664160714 0.48537091386142367
577516 -0.8249427632575557 0.4854562177188412
577635 -0.8247593624288124 0.4854337957619118
577755 -0.8248312893106327 0.48558629325397074
577874 -0.8247332831641114 0.4856352606937458
577993 -0.8248792253294679 0.4859426721199202
578113 -0.8248618222527746 0.486014239577733
578232 -0.8247564487525392 0.48607585906376194
578351 -0.8248105156306236 0.4860472929132904
578471 -0.8245608074068971 0.48618424068508764
578590 -0.8244635398827337 0.4861948915824455
578709 -0.8245152174016626 0.4862214150205613
578829 -0.8243677461010017 0.48632047376202986
578948 -0.824273457047735 0.48652525053706913
579067 -0.8242573251052067 0.48662528934472676
579187 -0.824253349502821 0.4868243428522436
579306 -0.8243525162592088 0.4868481385095504
579426 -0.8243045150126752 0.4869502548392958
579545 -0.8243820568585233 0.48710948824688644
579664 -0.8242350851703952 0.48729594788617986
579784 -0.8242182422767581 0.48720792486465814
579903 -0.8240272242572891 0.48721635272656044
580022 -0.8240503255195624 0.4871907151272058
580142 -0.8238846673448296 0.4871817388479108
580261 -0.8238903557909635 0.48740399227864406
580380 -0.8237296199653551 0.4875032582597285
580500 -0.8237731397887076 0.4876324709960705
580619 -0.8237364481904902 0.48773004071522147
580738 -0.8236896264315814 0.4878128024282878
580858 -0.8237593441202385 0.4879925971885282
580977 -0.8234789695490086 0.4879759459756476
581096 -0.8234755429494619 0.4879929495103752
581216 -0.8235717087099791 0.48811617037868543
581335 -0.8233190990825248 0.4882614833130416
581454 -0.8232641207796694 0.48837130213356955
581574 -0.823111863954878 0.48844901283520875
581693 -0.8231008846965696 0.488702050777652
581813 -0.8231661793576561 0.4886924760098794
581932 -0.8230798839121661 0.48889093481069906
582051 -0.8230902002775801 0.48902841083341075
582171 -0.8228959504685875 0.48898496351686155
582290 -0.8229775280356172 0.48901470149574144
582409 -0.8229962618155141 0.4890777927323215
582529 -0.8229099508960617 0.4891188167751834
582648 -0.8228682137857118 0.48917816733048974
582767 -0.822805500836454 0.4892042896275979
582887 -0.8227147483520708 0.4892880153423815
583006 -0.8224746049853471 0.48934087099724716
583125 -0.8224163705561877 0.48939455363132023
583245 -0.8224106713361476 0.4895012089169737
583364 -0.8224686489994739 0.48975401371975696
583483 -0.8225060852412067 0.4897417318487591
583603 -0.822439939069051 0.489885518137233
583722 -0.8224000914527505 0.4897756798685431
583841 -0.8222570331638458 0.48990089443490364
583961 -0.8221582081519094 0.48986581559943404
584080 -0.8221501511743206 0.49011416153774434
584200 -0.8221616921682917 0.4903181848084549
584319 -0.8218515995044107 0.4901953782776611
584438 -0.8218564631532692 0.4903205572532535
584558 -0.8218366176097146 0.49047974815772183
584677 -0.8218921603624058 0.4907129679336425
584796 -0.8217383064838923 0.4907663055263885
584916 -0.8217338528633035 0.4908770775499119
585035 -0.8218108824535777 0.49091347722302714
585154 -0.8217271110567151 0.49100753378456713
585274 -0.8215308708311372 0.490936388605237
585393 -0.821546657696981 0.49098625545736324
585512 -0.821524273242324 0.4910883836036561
585632 -0.8213179371411347 0.49123462282275365
585751 -0.8212890604843395 0.49132071217207607
585870 -0.8211952261406915 0.4913563425510105
585990 -0.8211927152886529 0.4915011791583162
586109 -0.8210944627300863 0.4916940733244115
586228 -0.821106222740605 0.4917972637880074
586348 -0.8210588753770307 0.491800814580508
586467 -0.8211920387899742 0.49189718351220435
586587 -0.8208477849894281 0.49194310833616356
586706 -0.8209152648222374 0.4919124093932927
586825 -0.8207578996122844 0.4921063088971937
586945 -0.8206004730783866 0.4919829846242126
587064 -0.8206073347771566 0.49225058636105484
587183 -0.8205886459887268 0.4924183433309429
587303 -0.8204360314877431 0.4924773390237804
587422 -0.8204248640525793 0.4925904458913262
587541 -0.8205326749630735 0.49267391441109293
587661 -0.8203565954995252 0.49271897656688507
587780 -0.8204829260659845 0.49287684844813556
587899 -0.820348779822088 0.49284268941167686
588019 -0.8203598761117963 0.49296859964485945
588138 -0.820212185025436 0.49298730443192496
588257 -0.8201070811605633 0.49301467378955677
588377 -0.8201218336009943 0.49311885829425495
588496 -0.8199820867407676 0.49324307249207217
588615 -0.81994636965555 0.49332553944069696
588735 -0.8198477862456413 0.4933962343631133
588854 -0.8198412593537916 0.49354276185764273
588974 -0.8197965931323001 0.4935975195740147
588974 -0.8199291533254992 0.4934446325750086
589095 -0.81986702073195 0.49356324870224616
589217 -0.8197696780556523 0.4937279027461577
589339 -0.8196353088998095 0.49371493043877485
589461 -0.819581336172725 0.49376873653692205
589583 -0.8196239436431593 0.4938891579914028
589704 -0.8194189661095108 0.4939445128385093
589826 -0.8192411918581258 0.49413133686160277
589948 -0.8192218475537735 0.49429162537489446
590070 -0.8192406417981243 0.49445358814707346
590192 -0.819147428530169 0.49457479446087443
590313 -0.8191684283432659 0.4945177598937006
590435 -0.8192486516367892 0.49472733754978504
590557 -0.819149980597683 0.4947962352615049
590679 -0.8191092669731249 0.4946805518290599
590801 -0.8189185713661751 0.4948324770622649
590922 -0.8189138556860455 0.4949034476031692
591044 -0.8188848123924566 0.49506872178119
591166 -0.8186344927619381 0.4950956803499064
591288 -0.8186094467773953 0.4951833801680977
591410 -0.8186326490463023 0.4952800592243678
591532 -0.8185452850262127 0.49542799318091824
591653 -0.8185086286694179 0.49542725241558555
591775 -0.8184663125646495 0.49558779405564496
591897 -0.8183695563001866 0.4955660328348706
592019 -0.8182434337287635 0.4956156732551245
592141 -0.8182554611917455 0.49574689190691146
592262 -0.8182294923112194 0.4957436965809924
592384 -0.8180475920398543 0.4958000724643491
592506 -0.8180009087925677 0.49598347184587516
592628 -0.8179359734482866 0.4960988384244073
592750 -0.8177665947980687 0.49616550407371185
592871 -0.817664066204259 0.4962594395378828
592993 -0.8177769088742385 0.496437118075066
593115 -0.8177904503625744 0.4965977448039019
593237 -0.817812668688163 0.4965862000426904
593359 -0.8177041491507466 0.4966628322272516
593480 -0.8176665745266722 0.49661294150049645
593602 -0.8174720247508561 0.4966849730880858
593724 -0.8174188714178625 0.4967190388927959
593846 -0.8173412235846492 0.4968746203503067
593968 -0.8173728060874887 0.49702421850929374
594090 -0.8173000393481883 0.4971044102077191
594211 -0.8173348479655465 0.4972425629870496
594333 -0.8172205434091158 0.49735837817661543
594455 -0.8171206889347442 0.49745600652194555
594577 -0.8172401890383664 0.4975705079033508
594699 -0.8171582280919968 0.4974359428886142
594820 -0.8170195515290862 0.49768191417211066
594942 -0.8168795183689288 0.49763474106982786
595064 -0.8170317566039852 0.49779508256227223
595186 -0.8168137122105696 0.4977466221954144
595308 -0.8166714869086861 0.49783793299624557
595429 -0.8166841990890966 0.4981696765373135
595551 -0.8165266726662525 0.49824911109451087
595673 -0.8165743778597302 0.4983621920818907
595795 -0.8164890746898683 0.49842360469323915
595917 -0.8165700158153132 0.4984586535702314
596038 -0.8165429227549355 0.49867699914959324
596160 -0.8164743252134525 0.4986174355427671
596282 -0.8163041360769824 0.49862824055307203
596404 -0.8165603207113675 0.4988580229284976
596526 -0.8164124128870407 0.4988436800804717
596648 -0.8161272730919352 0.4988338177174598
596769 -0.8160053179276665 0.49886919659513634
596891 -0.8161086058179862 0.4991894945747854
597013 -0.8160241185432523 0.4992781876999804
597135 -0.81612828844464 0.499361531546855
597257 -0.8159497385140974 0.49934204788458725
597378 -0.8159534125809484 0.49951275583565186
597500 -0.8159016926921473 0.4995983472385349
597622 -0.8155784647509988 0.49966142825160476
597744 -0.8156878647835369 0.49972013509339147
597866 -0.8155143473999384 0.4997404244573909
597987 -0.8154267095766976 0.4997752701363017
598109 -0.8154152655239988 0.5000168387124113
598231 -0.8152774953442674 0.5000010960601494
598353 -0.8151207839364925 0.5000536340292193
598475 -0.8151960735772209 0.5002087485826532
598596 -0.8151674472921514 0.500335315701425
598718 -0.8151868929688134 0.5004129812882098
598840 -0.8151709534241111 0.5004580376227042
598962 -0.8150685022261833 0.5005099215467268
599084 -0.8148892759223313 0.500485460937658
599206 -0.8149511417750855 0.5005351732087205
599327 -0.8148725574270653 0.5006549585837016
599449 -0.8148377008402664 0.5007257039650678
599571 -0.8146824976509568 0.5008363612829776
599693 -0.8146268388285681 0.5009792891786384
599815 -0.8145986726334632 0.5012046545185642
599936 -0.8146290669085896 0.5011982168266325
600058 -0.8145726763218822 0.5011951232968942
600180 -0.8145252904320404 0.5013797389705887
600302 -0.8144539632411455 0.5013989627795681
600424 -0.8141682467517315 0.5014652875940082
600545 -0.8144447623591168 0.501558150952577
600667 -0.8140118742732012 0.5016472286994385
600789 -0.813999887283327 0.5018209274173437
600911 -0.8140885655832417 0.5019992656519177
601033 -0.8139035370811288 0.5019708195295735
601155 -0.8136603472316495 0.5020422309910088
601155 -0.8136434362054559 0.5022734915453726
601279 -0.813817687051458 0.5023739315833629
601403 -0.8138888410357782 0.5022555753545751
601528 -0.8140031208229833 0.5024915522344685
601652 -0.8138930664390814 0.502413679955638
601776 -0.8137084990070782 0.5024716124379842
601901 -0.8136559479526441 0.5024897301339089
602025 -0.8135705901298623 0.5025841881674117
602149 -0.8136205528732513 0.5027504104702721
602274 -0.8133028937937813 0.5026808018601009
602398 -0.8134122241419744 0.502887168673974
602522 -0.8132973984655685 0.5029090115497963
602647 -0.813197502950952 0.5030467769941105
602771 -0.8132397887655413 0.5032184527280651
602895 -0.8132091347659843 0.5032728499909528
603020 -0.8130358075265702 0.503458073364178
603144 -0.8132206039236244 0.5035458111784965
603268 -0.812964187639042 0.5035224795252393
603393 -0.8128394717765521 0.5037101364555429
603517 -0.8125617343705388 0.5036759891379857
603641 -0.8126043587517098 0.5039084027527049
603766 -0.8125536774242229 0.5039977363703495
603890 -0.8125168665678926 0.5041206313151184
604014 -0.8125168846548071 0.5042145916346127
604139 -0.8126831862686001 0.5043701330250272
604263 -0.8125620308470648 0.5043180944447638
604387 -0.8125023414073883 0.5043946371894563
604512 -0.8125643774670149 0.5044920092920779
604636 -0.8123249981344848 0.5044714198249105
604760 -0.8123836234245895 0.504573534815112
604885 -0.8122429165225912 0.5046722735317675
605009 -0.8122605745709001 0.5048096124009557
605133 -0.8120215696813373 0.5049123009738443
605258 -0.812195863438456 0.5049823190577588
605382 -0.8120665090010619 0.5050373537717951
605506 -0.8119968708761998 0.5050848760093473
605631 -0.8120616829364383 0.5052285903193678
605755 -0.8120962755220122 0.5052462395518401
605879 -0.811989683494262 0.5054140766690319
606004 -0.811722155374254 0.5054157917535618
606128 -0.811691900444117 0.5054515309204507
606252 -0.8115526426974076 0.5056574422356578
606377 -0.8114222661482214 0.5057089957255629
606501 -0.8113953882086313 0.5058561961828649
606625 -0.8113709684552908 0.5058484300108912
606750 -0.8113867570956425 0.5059970346976107
606874 -0.811365191859438 0.5061025096987491
606998 -0.8113786367597012 0.5062118468242559
607123 -0.8115021175356917 0.5063607399445689
607247 -0.8111542041538369 0.5062559732550265
607372 -0.811165833749103 0.5062617733437954
607496 -0.8112050075387783 0.506463289782261
607620 -0.811028617373289 0.5066154869594705
607745 -0.810983053989102 0.5066862352520466
607869 -0.8110568196614529 0.5068135802848502
607993 -0.8107607062410251 0.5067752013467708
608118 -0.8108659569828308 0.507049469537025
608242 -0.8107951083235687 0.5070727454383368
608366 -0.8108885889619865 0.5071425447659986
608491 -0.8107905596543763 0.5071925076460064
608615 -0.8107104737597328 0.5071494934127021
608739 -0.8105375101708863 0.5071997608057357
608864 -0.8104289395143093 0.507362286744043
608988 -0.8104230703661847 0.507432230579787
609112 -0.8101953345222914 0.5076224692900118
609237 -0.810169671557698 0.5076128785231333
609361 -0.8101679446052931 0.5079517350607969
609485 -0.8101864281814458 0.5080032387428727
609610 -0.8100151915429953 0.5080318268486179
609734 -0.8099037079577968 0.5080588990979124
609858 -0.8099896628145598 0.5082160173194653
609983 -0.810002173454053 0.5082228057086993
610107 -0.8098813529048029 0.5083325402623013
610231 -0.8098018890284286 0.5084877525779422
610356 -0.8096798863416169 0.5084690320416569
610480 -0.809618248973131 0.5086612573962322
610604 -0.8094992611161984 0.5087395379061199
610729 -0.8094147484005051 0.5088461155278361
610853 -0.8094846665653398 0.508854026979018
610977 -0.8094598024807667 0.5090135980867825
611102 -0.8092331673344163 0.5090561631103031
611226 -0.8093394794147666 0.5092509429840922
611350 -0.8093038826544413 0.5091223576196985
611475 -0.8091296307694527 0.5092363664762436
611599 -0.8091716763901009 0.5092176425424458
611723 -0.8089751006257969 0.5093795616609683
611848 -0.8089090018680634 0.5094321828393521
611972 -0.8089365206343951 0.5095688641703012
612096 -0.8088206009151288 0.5096357102741388
612221 -0.8089427011054465 0.5097759391780193
612345 -0.8087988566343598 0.5098459327017149
612469 -0.8087980495043645 0.5099415919533357
612594 -0.8085840287207953 0.509872380928109
612718 -0.8086153205754002 0.5099094688136742
612842 -0.8085949798259585 0.510087677923651
612967 -0.8084449099145118 0.510120348944936
613091 -0.8084647817883038 0.5102098258457078
613215 -0.8082749315330143 0.5102786333849819
613340 -0.8082401784396689 0.510439863281122
613464 -0.8080950677670057 0.510524633469965
613589 -0.8082605936214061 0.5107059977939813
613589 -0.8085530102176942 0.5104057055330004
613715 -0.8082555361337249 0.5105629048872212
613842 -0.8081540576741987 0.5108147141643924
613969 -0.8082238509329929 0.5109162973168728
614096 -0.8080807647747704 0.5109656280321421
614223 -0.8080580422896305 0.5110903427571419
614350 -0.8080023676756256 0.5112090051269572
614477 -0.8077332842112668 0.5112115684164029
614604 -0.8076828095344332 0.51140390960197
614731 -0.8077851072751229 0.5115708958807907
614858 -0.8076732433103325 0.5117133860252878
614985 -0.8077006464010524 0.5118043321147429
615111 -0.8076279324330711 0.5119238600779756
615238 -0.8074698388127277 0.5118911056479669
615365 -0.8074797048768915 0.5119873544423393
615492 -0.8075821330799884 0.5121523818588471
615619 -0.8073690370607123 0.5121162388732677
615746 -0.8072701511971233 0.5121639089719537
615873 -0.8071511265646479 0.512371021742019
616000 -0.807089585076234 0.5124807193084054
616127 -0.8070179300453348 0.5126015385609302
616254 -0.8069271880233757 0.51264017623214
616381 -0.8068669511746406 0.5126929447247619
616507 -0.8069058325185426 0.5127422553309559
616634 -0.8066832599731045 0.512791747697677
616761 -0.8067111820427535 0.5127931239018123
616888 -0.8066467288594829 0.5127679349657647
617015 -0.8065633471871205 0.5129988748986702
617142 -0.8064618124984989 0.5130890246003293
617269 -0.8062417354658447 0.5131802322509605
617396 -0.8062385261955736 0.5133674730111628
617523 -0.8061846909395612 0.5133704258976122
617650 -0.8061893918176992 0.5135692311279864
617777 -0.8060131779917467 0.5136141667791511
617903 -0.8059779488762708 0.5137248540654356
618030 -0.8060451354425417 0.5137158442100555
618157 -0.8058678262653466 0.5138659326841669
618284 -0.8057777237529141 0.5139235024970753
618411 -0.8057960436816038 0.5138747966518463
618538 -0.8056447554286594 0.513999515808936
618665 -0.8056135923105537 0.5142056007581131
618792 -0.8054585370336702 0.5142395452518882
618919 -0.8053940464200409 0.5143735990976741
619046 -0.8053708937634397 0.5144687710646368
619173 -0.8054274292170042 0.5145911458947178
619299 -0.8054504761840184 0.514687077348818
619426 -0.80531524924504 0.5146635766247115
619553 -0.8052964357331911 0.514933621675255
619680 -0.8051509984567022 0.5148270206988543
619807 -0.8051964977182968 0.5149140445024264
619934 -0.8050702851555527 0.5149314980092218
620061 -0.8049735067939788 0.5149959956073353
620188 -0.8047811302160969 0.5152037194199093
620315 -0.8048555215237693 0.5153573420126358
620442 -0.8047799552128935 0.5154069230009951
620569 -0.8047855570098391 0.5153786511312102
620695 -0.8047893561768295 0.5154657122885833
620822 -0.8046989392317646 0.5155751221773102
620949 -0.8047139159474879 0.5156354033610051
621076 -0.8045835763713258 0.5157284910994313
621203 -0.8046614451951847 0.5157409264238833
621330 -0.8042404630281257 0.5157787466802538
621457 -0.8042102953268563 0.5159434823844212
621584 -0.8042519264493174 0.5160077527049381
621711 -0.8042352233167788 0.5161786650118699
621838 -0.8040362381225864 0.5162432284695226
621965 -0.804016155445505 0.5163167970958048
622091 -0.80396697599514 0.5163300719643104
622218 -0.8039504938118085 0.5164888556990715
622345 -0.8039652702729003 0.5165549360131358
622472 -0.8038596721713896 0.5166553321751134
622599 -0.8037524617680457 0.5168306595052046
622726 -0.8036183165610077 0.5167644299566216
622853 -0.8036102399439874 0.5169101856725751
622980 -0.8034882439166791 0.5171144764674159
623107 -0.8035031120582681 0.5172706371847774
623234 -0.8035412926695832 0.5174770809940272
623361 -0.8033751137251128 0.5173947382808131
623487 -0.8034428144223688 0.5175826358029101
623614 -0.8034549793394131 0.5176363574193317
623741 -0.8033018560199008 0.5176161766797495
623868 -0.803178094596083 0.5177272015367651
623995 -0.8031425497484337 0.5177952978380177
624122 -0.8030537365005933 0.5179078371989622
624249 -0.8031122920809262 0.5181512933498962
624376 -0.802870977957216 0.5180886739241729
624503 -0.8028219136768051 0.5181488269926223
624630 -0.8028623459678417 0.5183526753278388
624757 -0.802900749887078 0.5184048096811114
624883 -0.8028094836575017 0.5185705278174971
625010 -0.8026165089453601 0.5183977087865583
625137 -0.8024289898192821 0.5185115784200235
625264 -0.8023996843270862 0.5185013571276629
625391 -0.8023624283747516 0.5187387018724384
625518 -0.8021253677506571 0.5186477754876545
625645 -0.8022005768968612 0.5189839264308264
625772 -0.8020024944265404 0.5190294493254224
625899 -0.8020713727487905 0.5191688413053267
626026 -0.8019838257226798 0.519329723399222
626153 -0.8021286442724348 0.5193729471382151
626280 -0.8019440279159761 0.5195167459008624
626280 -0.8018005572401286 0.519966652298163
626409 -0.8018858541383614 0.5196652793110875
626539 -0.8017135859147726 0.5196477378158588
626668 -0.8017186346275088 0.5196345066591911
626798 -0.8016124115931528 0.5198058283208941
626927 -0.8015764891345345 0.5198678988172433
627057 -0.8013717731370643 0.519998465147253
627186 -0.8013773565212935 0.5200605314754833
627316 -0.8013088468231889 0.5202202824121482
627445 -0.8013267701239706 0.5202981640435022
627575 -0.801105480803416 0.5202106245495891
627704 -0.8013865993190659 0.5203117884273115
627834 -0.8010837272224975 0.5203811498921723
627963 -0.8011361386290986 0.5206368137138395
628093 -0.8010072430256983 0.5205305221987051
628222 -0.8008730859774819 0.5207003781079572
628352 -0.8007720784345591 0.5207466882581204
628482 -0.8006953944253711 0.5208279756947195
628611 -0.8007718547731929 0.5209291376655151
628741 -0.8007466167293625 0.5211406813128944
628870 -0.8008397286967364 0.5212063900754488
629000 -0.8006398380270523 0.5212838698704342
629129 -0.8006568867782942 0.5212805978990672
629259 -0.8007012938438779 0.521455645001121
629388 -0.8005517634358538 0.5215093093543944
629518 -0.8005472557215687 0.521618236856903
629647 -0.8003726375645149 0.5218682102856994
629777 -0.8002627482248194 0.5218948672738126
629906 -0.8002710021584795 0.5219755443706472
630036 -0.8001771167453441 0.5221607875477335
630165 -0.7999579900533936 0.5220740036865449
630295 -0.8001941172563667 0.5223172532427913
630424 -0.800096669889624 0.5223396741297534
630554 -0.7998270281093331 0.5223597890863926
630684 -0.7998137382974141 0.5224656612902389
630813 -0.7997072792140031 0.5224927626042979
630943 -0.7996647566714259 0.5226966299622823
631072 -0.7996277078045152 0.5228606237301562
631202 -0.7994269550127884 0.5229717900915443
631331 -0.7993286033593987 0.5231292234229186
631461 -0.7994791164108074 0.5232079230364052
631590 -0.7995127722489588 0.5234128838366446
631720 -0.7994064213203296 0.5234308823579037
631849 -0.7994761434644133 0.5235066549688177
631979 -0.7992065445653339 0.523402260643116
632108 -0.7991651777084335 0.5234765057318805
632238 -0.7990853018078848 0.5235637502140399
632367 -0.798940188142616 0.5237375450118019
632497 -0.7988699042409747 0.523714608135838
632626 -0.7987237656663564 0.5237849988196824
632756 -0.798829599792796 0.5238909928683356
632886 -0.7987046821311369 0.5241291184587988
633015 -0.7987829118036196 0.5240530699319298
633145 -0.7987233248626534 0.5241455657752465
633274 -0.798622259513775 0.524207577736134
633404 -0.7986177864755268 0.5243274209411195
633533 -0.7984852071063755 0.5243410738407883
633663 -0.7984766357307039 0.5245711018787027
633792 -0.7982997588053515 0.5246468054226296
633922 -0.798160036288933 0.52470509803199
634051 -0.7981397082624168 0.5247207753144986
634181 -0.7980789377335165 0.5250120575340085
634310 -0.797924581274629 0.5250120847842485
634440 -0.7980366811147442 0.5250492337508379
634569 -0.7980454237626788 0.5252322581104705
634699 -0.7979102139427996 0.5252011410657158
634828 -0.7979267917873432 0.5252572938286723
634958 -0.7978392723576115 0.5252226506621979
635088 -0.7976257265805139 0.525313938417743
635217 -0.797329016070308 0.5254576958375418
635347 -0.7974273779591096 0.5255230542620883
635476 -0.7973618810032035 0.5256375662590452
635606 -0.7975251892332645 0.525839922147763
635735 -0.7975082535558126 0.5259260891348931
635865 -0.7973949371889497 0.5258814840271848
635994 -0.7973597844458621 0.5259678430536835
636124 -0.7971466169189224 0.5259540007617931
636253 -0.7970884318905571 0.5260319243478356
636383 -0.7968867652876557 0.526016456932014
636512 -0.7968758184301006 0.5262011706825316
636642 -0.7967414370362117 0.5263134753689482
636771 -0.7968216583018295 0.5264971904134119
636901 -0.7966124222520724 0.5266257072573103
637030 -0.7966529651685945 0.526678096806995
637160 -0.7965521117620638 0.5266737698124125
637290 -0.796629887293109 0.5268524451437377
637419 -0.796472088587171 0.5267814455373238
637549 -0.7964888974462598 0.5269599518432101
637678 -0.7963410678552091 0.5270108343514269
637808 -0.7962619126441407 0.5270906339205024
637937 -0.796068181412822 0.5271119013048219
638067 -0.7959874473911371 0.5272649110203121
638196 -0.7959939315162589 0.5274506884182733
638326 -0.7959472202821071 0.5275385358992544
638455 -0.7959045603848306 0.5276018290522163
638585 -0.7959872681840491 0.5277542561528843
638714 -0.7960306454494631 0.5277683069235043
638844 -0.7959275228510837 0.527851251481479
638973 -0.7956967915085537 0.5278970991866855
639103 -0.7956861339167244 0.5279596848055552
639233 -0.7955349722176466 0.528145447556414
639233 -0.7953071792297037 0.527962855014827
639365 -0.7954724362361093 0.5282030680193803
639497 -0.7952931155712224 0.5283361498548484
639629 -0.7952706557055849 0.5284856632808013
639761 -0.7953275709647906 0.5285834864668159
639894 -0.7954005028280816 0.5286786894764909
640026 -0.7953734469353659 0.5287220297269793
640158 -0.7952231183823971 0.5287765254405473
640290 -0.7951990856348918 0.5288299230623599
640422 -0.7951437339345191 0.5289023353084995
640555 -0.795024857988936 0.5290649655715456
640687 -0.7949611077479352 0.5291551683052216
640819 -0.7946367383523771 0.5291344452112574
640951 -0.7947194860497441 0.5293813278963143
641083 -0.7947217004758921 0.5295659223535072
641216 -0.7946070155162236 0.5296593399501458
641348 -0.7945405200035642 0.5297163039151154
641480 -0.7945569755270068 0.5297473570973039
641612 -0.7944606547848351 0.5297967213615028
641744 -0.7943687841379741 0.5298632385369845
641877 -0.7942536786726074 0.5299426748355299
642009 -0.7943871096297378 0.5301998938075606
642141 -0.7941499344137779 0.5302125181292031
642273 -0.7941171760290715 0.5303262451879267
642406 -0.794200239427636 0.5305734266771684
642538 -0.7939797523703677 0.5305529517197702
642670 -0.794106391470606 0.5305589260011369
642802 -0.7940015976373073 0.5306110427768189
642934 -0.7939055456790193 0.530775079436253
643067 -0.7938806670767198 0.5307893736259157
643199 -0.7938079182685054 0.5307962115386774
643331 -0.7937727279331007 0.5310063551960467
643463 -0.7936503156231075 0.5310739213503183
643595 -0.7934671705981299 0.5311248147731603
643728 -0.7934260845644435 0.5312400887042544
643860 -0.7934876460332231 0.5313566521901625
643992 -0.7935031798224368 0.5313378008624225
644124 -0.7933127332750647 0.5315278855288689
644256 -0.7933826665333616 0.5315382359857164
644389 -0.7932395205083176 0.5314942625921408
644521 -0.7929403159745662 0.5315540159995343
644653 -0.7929545534235246 0.531797125975467
644785 -0.7927964575087167 0.5318325917029654
644918 -0.7927797618421586 0.5320107390101869
645050 -0.7927226939760605 0.5321444765938073
645182 -0.7926714261767991 0.5322497951697277
645314 -0.7927866521336729 0.5323304879579694
645446 -0.7926987528665699 0.5325159596744561
645579 -0.7926690816119575 0.5324798260631586
645711 -0.7925953018753552 0.5325655635492664
645843 -0.7923679314148526 0.5325059049275174
645975 -0.792350469211408 0.5327353982769628
646107 -0.7922240364164095 0.5327957950557497
646240 -0.7921674255781306 0.5330435309005342
646372 -0.7919142810859534 0.5329852659793332
646504 -0.7919347963588482 0.5331121505984115
646636 -0.7918651087292503 0.5332086757399103
646768 -0.7919252067818576 0.5333334615042208
646901 -0.7917803775741715 0.5332924465757549
647033 -0.7917218920828143 0.5333402562290877
647165 -0.7914513847891419 0.5332672962452457
647297 -0.7915177142538156 0.5334517263287617
647430 -0.7913098164812408 0.5335894869661697
647562 -0.7913549904564773 0.5337298793833041
647694 -0.7913269067362582 0.5338799046512556
647826 -0.7911760616230593 0.5338610984776164
647958 -0.7911914695512599 0.534107449486122
648091 -0.7912188582777172 0.5341699416939785
648223 -0.7910615264038697 0.5340837232012801
648355 -0.7909681274993755 0.5341004126477927
648487 -0.7910558556142429 0.5342352068092818
648619 -0.7909121147733498 0.5343103978553133
648752 -0.790953020488388 0.5345051318322381
648884 -0.7909053658932901 0.5345374543977636
649016 -0.7907452637138267 0.5347150748016013
649148 -0.790853881460963 0.5349227033889554
649280 -0.7906610359329659 0.5350159168576041
649413 -0.7906702046074174 0.5350523416752133
649545 -0.7905535768718904 0.5351699782337571
649677 -0.7904593641294789 0.5350856650165648
649809 -0.790468078128374 0.5352254864828558
649942 -0.7902533221226024 0.5352340660338785
650074 -0.7901440329441453 0.5352310563883868
650206 -0.7901247615280302 0.5354217690717217
650338 -0.7899617631533796 0.5355658941325374
650470 -0.7899161437024483 0.5356893083014538
650603 -0.7899773303639581 0.5359688078009677
650735 -0.7900797218606695 0.5359498721258832
650867 -0.79000164586509 0.5360870837718051
650999 -0.7899150032071087 0.5360978157364421
651131 -0.7898192247841181 0.5361013761948806
651264 -0.7897089120396964 0.5362244575590606
651396 -0.7895471582565282 0.5361968936249448
651528 -0.7896100255894307 0.5363080509284943
651660 -0.7895019901920209 0.5364341022155859
651792 -0.7894208829784918 0.5366050042640049
651925 -0.7892551532910766 0.536687317848953
652057 -0.7893963670218681 0.5367791443678286
652189 -0.7892326769419772 0.5368794964699294
652321 -0.7892154026538776 0.5370163887423274
652454 -0.789211032744068 0.536974981989544
652454 -0.7892607227563094 0.5366131411156254
652588 -0.788979724901301 0.5368666934334738
652723 -0.7889095513573463 0.5370699086806351
652858 -0.7889650013377311 0.5372621115104369
652993 -0.7888605934615559 0.53752728132407
653128 -0.7887800588274898 0.5375850364528241
653263 -0.7887631432911456 0.5376980200261435
653398 -0.7886256885837077 0.5379570252756025
653533 -0.7886722154398418 0.5379281801092342
653668 -0.7885330461193163 0.5379825886567325
653803 -0.7885485417805964 0.5380517938353043
653938 -0.7884505629539306 0.538108065913124
654073 -0.7882730901165774 0.5381965228645763
654208 -0.7882352510224694 0.5381816650387955
654343 -0.7879923617241205 0.5383222228638155
654478 -0.7879908529547747 0.5384866503748722
654613 -0.787853633233139 0.5385453865504802
654747 -0.7878657435696923 0.538675350411192
654882 -0.7877266191010194 0.538726593945563
655017 -0.7877061991311439 0.5388667152568261
655152 -0.7874443686074653 0.5388639698967319
655287 -0.787554170022138 0.5389916450497917
655422 -0.7874758737788401 0.5389893828847873
655557 -0.787261616419006 0.5391876733213165
655692 -0.7872134339390442 0.5393114200253941
655827 -0.7870389446865447 0.539441551335755
655962 -0.7870100544684002 0.5396139445255975
656097 -0.7871393565659117 0.5397200154161522
656232 -0.7870966331039094 0.5399658569953305
656367 -0.7870574295083101 0.5398351514803253
656502 -0.7869782741348368 0.5398285164640023
656637 -0.7869933399168436 0.539922552989812
656772 -0.7867884921095265 0.5399452265873399
656907 -0.786741176104804 0.5398714214550027
657041 -0.7867801346740511 0.5400913953914277
657176 -0.7866330257760922 0.5401583476507115
657311 -0.7864736678922032 0.5402617204095603
657446 -0.7865763787788139 0.5402493002270494
657581 -0.786551926902461 0.5404613319355531
657716 -0.7865026909431179 0.5405017013201775
657851 -0.7864477487718966 0.5404838379694688
657986 -0.786363292558491 0.5405767811456818
658121 -0.7863087155390444 0.5407349220645461
658256 -0.7860795363305109 0.5407923956277191
658391 -0.7859795991332361 0.5408839333831477
658526 -0.7858381544159861 0.5410037556239806
658661 -0.7858987279407937 0.5412475566139201
658796 -0.785742094481031 0.541370880741931
658931 -0.7857768240671112 0.5415705654339693
659066 -0.7855671544131124 0.541554358348726
659201 -0.7856969864109404 0.5416199543256456
659335 -0.7856369448336442 0.5416831327652458
659470 -0.7855363787552593 0.5417705433615364
659605 -0.7854858651104087 0.5418282554431466
659740 -0.785219819234961 0.5419322821943876
659875 -0.7850656193523651 0.5420246964962656
660010 -0.7851119753539524 0.5420975708372658
660145 -0.7849504328240663 0.5422370786288817
660280 -0.7848286732984471 0.5422786314944399
660415 -0.7848346614242742 0.5423298633347478
660550 -0.7847991601423906 0.5424254937662396
660685 -0.7846817042674494 0.5424614679934389
660820 -0.7846463685667253 0.5425451728749919
660955 -0.7846075189908417 0.5426785409298231
661090 -0.7843872693451145 0.5427269236017643
661225 -0.7844165286863952 0.5427683150831335
661360 -0.78434504704314 0.5430125768537765
661494 -0.7843099463742282 0.5431594197650009
661629 -0.7843564690825839 0.5433829811523426
661764 -0.7843481857484095 0.5433921189371285
661899 -0.7842760129952959 0.5433554780030942
662034 -0.784187778404886 0.5434762737703517
662169 -0.7841677437981659 0.5435213451019306
662304 -0.7840557302281341 0.5436209706624904
662439 -0.7840229552380387 0.5437542486065772
662574 -0.7838904497456183 0.5438671452301006
662709 -0.7837556228209316 0.5440138508073818
662844 -0.7834601928861394 0.5440193897800242
662979 -0.7835945470568141 0.5442101879791309
663114 -0.7835940414472388 0.5442793458079671
663249 -0.7835175318693958 0.5443587602206161
663384 -0.7834382739178789 0.5444852918884917
663519 -0.7834657209754999 0.5444731553294282
663654 -0.783264800708743 0.5444659337578925
663788 -0.7832343899507054 0.5445276954472867
663923 -0.7831476096590486 0.5446196571371965
664058 -0.7829983362593219 0.5446856616542941
664193 -0.7830957390779337 0.5448742195426263
664328 -0.7830617998710688 0.5450939975515878
664463 -0.7830904557306518 0.5451150440449578
664598 -0.7831249592239311 0.5452104496357291
664733 -0.7830703115745136 0.5451656255058637
664868 -0.7829758352526193 0.5451526734433112
665003 -0.7827203083508827 0.5451975616378565
665138 -0.7828124101306089 0.5452858402546499
665273 -0.7825654785248582 0.5453308883258482
665408 -0.7825417390187539 0.5453742433000335
665543 -0.7825610347149782 0.5457117060326229
665678 -0.7823620844381939 0.545897207866629
665813 -0.7822261640927838 0.5457910757415498
665948 -0.7822711815934068 0.5460433153138321
665948 -0.7825152568223714 0.5457146042789524
666085 -0.7823554504359391 0.5458532531832149
666223 -0.7820892506743998 0.5459815493735959
666361 -0.7819636024873798 0.5461152488029756
666498 -0.7818154432943052 0.5462675632850678
666636 -0.7817311376138167 0.5462510215977086
666774 -0.7816752045713037 0.5465222674554847
666912 -0.7816078683887857 0.5465261018768495
667049 -0.7815877227834275 0.546714021147428
667187 -0.7814680286415565 0.5468596798094633
667325 -0.7814397695394326 0.5468484238915619
667463 -0.7812363915961088 0.546793086376423
667600 -0.7813252910633046 0.5470514527157019
667738 -0.7812462678815608 0.5471249167658917
667876 -0.781211950107395 0.5471583417162227
668014 -0.7810796653716847 0.5471910992450756
668151 -0.7810145063072905 0.5473419438671945
668289 -0.7808439370731682 0.5473635998591423
668427 -0.7808289793479056 0.5476116498536617
668565 -0.7808556261460848 0.5476887685634166
668702 -0.7807520956614469 0.5477667760740486
668840 -0.780780534237518 0.5479165535572882
668978 -0.7805454732653143 0.5479304252267725
669116 -0.7804909644332472 0.5479457765883372
669253 -0.7803527228860987 0.5480888817702063
669391 -0.7802155006086631 0.5481129164598285
669529 -0.780172839295448 0.54834201690653
669666 -0.7800799512525556 0.5485180195876307
669804 -0.7801079741317388 0.5485497948789723
669942 -0.779960900833731 0.5486944976685724
670080 -0.7800832178101796 0.5488052867775182
670217 -0.7801218073650035 0.5488470448648346
670355 -0.7800322302746389 0.5488325740406432
670493 -0.7799166228437997 0.5488330028907172
670631 -0.7797627588098192 0.54900236366359
670768 -0.779759115724129 0.5490544414266006
670906 -0.7797424462099831 0.5491575484392807
671044 -0.7794850863547153 0.5492315088558708
671182 -0.7794298424145137 0.5494315367477863
671319 -0.7794902365853671 0.5494729252276555
671457 -0.7793007683350379 0.5495899480990284
671595 -0.7793551801163756 0.5496633495212245
671733 -0.7792890624213508 0.5497271033404773
671870 -0.7791706190564296 0.5498010201309004
672008 -0.7789925392714654 0.5499540985239076
672146 -0.778872756834903 0.5498907311975767
672284 -0.7788806351529973 0.5500890440287836
672421 -0.7787785668524587 0.5503194219738193
672559 -0.7786079217129801 0.5502913880481639
672697 -0.7788034109573074 0.5505890306169515
672835 -0.7787092206801416 0.5504897879659666
672972 -0.7787357789775902 0.550531805120567
673110 -0.7785892193782836 0.5506048758685256
673248 -0.778492029622519 0.5506995170107293
673385 -0.7785488982276704 0.5508342829247747
673523 -0.7783678395159161 0.5509330118890549
673661 -0.778372491445363 0.5510232844259795
673799 -0.778148533026564 0.5511121480751122
673936 -0.7781572708119837 0.5511671608378272
674074 -0.778107217757346 0.551356890694748
674212 -0.7779902071416134 0.5513167995005102
674350 -0.7779871635358399 0.5513872047939826
674487 -0.7778572031650318 0.5514646715079474
674625 -0.7776948496686192 0.5516175085345324
674763 -0.7775082210301014 0.55156936372813
674901 -0.7775299661116883 0.5518567319777379
675038 -0.7773583661032369 0.5519474125147715
675176 -0.777228772128281 0.5521056910461685
675314 -0.7771028607966853 0.552221510447195
675452 -0.7772104263889225 0.5523256810473973
675589 -0.7772528589054956 0.5523848214598512
675727 -0.7771247478843788 0.5524635634483693
675865 -0.7772124954277573 0.5525792359085225
676003 -0.7770166529002324 0.5526084586114226
676140 -0.7769045826099606 0.552493847642476
676278 -0.7768388582658762 0.5527964560355335
676416 -0.7768102504658694 0.5528747850626045
676553 -0.776632407360984 0.5530072162998059
676691 -0.776732465973545 0.5531483280416053
676829 -0.7767049601390549 0.553187666037105
676967 -0.7765545507358186 0.5532600628371174
677104 -0.7764605727162358 0.5533769070579584
677242 -0.7763931558441795 0.5534333204413776
677380 -0.7763484646724701 0.5534279945124692
677518 -0.7761469529877478 0.5536118046650673
677655 -0.7760593840249165 0.5537105236858775
677793 -0.7759077778202659 0.5538607004564612
677931 -0.7758124226235985 0.5538962836568389
678069 -0.7757330466274556 0.554037323988094
678206 -0.775654267163243 0.5541039871392622
678344 -0.7756957589300226 0.5541426175608593
678482 -0.7756214796046017 0.5542432591262693
678620 -0.7756187887009162 0.5542327837204758
678757 -0.7756296444206264 0.5542464526512657
678895 -0.7754173959226667 0.5544084711265127
679033 -0.7753661801231707 0.554508953106631
679171 -0.7752583021155307 0.5545772022184664
679308 -0.7752749155723508 0.5547034489532953
679446 -0.7751728390115279 0.5546759372664818
679584 -0.7751606224766663 0.5549050486511874
679722 -0.7750511649188435 0.5549636963141129
679722 -0.7755541445215045 0.5543936389659114
679862 -0.7749914767293168 0.5548215047615412
680003 -0.7749779723660567 0.5549331344183064
680143 -0.7749081134596013 0.5551883233778995
680284 -0.7746092408775701 0.5552933921423567
680424 -0.7745945824532184 0.5554739492419347
680565 -0.7744509318878896 0.5555754979761339
680706 -0.7743574026765931 0.5559015881694974
680846 -0.7744217189446589 0.5559085049236404
680987 -0.7743589681825569 0.556024159697218
681127 -0.7743801347422327 0.5560695697139197
681268 -0.7743064812106059 0.5561760026167227
681409 -0.7742158682723843 0.5562312014701283
681549 -0.774073563306755 0.5563083420652591
681690 -0.7740587403032118 0.556422117475133
681830 -0.7739213627622166 0.5565137960440403
681971 -0.7739516648941052 0.5566229079226092
682112 -0.7738217951381432 0.5566208976708507
682252 -0.7738926526653727 0.5568845070974241
682393 -0.7738161800864659 0.5568451061605892
682533 -0.7737789936542984 0.5567715961238182
682674 -0.7737758751480002 0.557118822100828
682814 -0.7736333413786625 0.55711865733903
682955 -0.7733995415082153 0.5571272835908638
683096 -0.7732373392947853 0.5572800799588195
683236 -0.7730863013723439 0.5573225389622423
683377 -0.773058125765839 0.5574390226415561
683517 -0.7729755370504356 0.5577696052325685
683658 -0.7729916470060103 0.5577236240848007
683799 -0.7729381027744846 0.5578071550408534
683939 -0.772874165718281 0.5579806305566419
684080 -0.7729525390272202 0.5579767627956084
684220 -0.7726324746802298 0.5579561833019666
684361 -0.7725789148395399 0.5581664906769419
684502 -0.7724418346951178 0.5580821476522431
684642 -0.7722834559452536 0.5582743092917154
684783 -0.7723973948069336 0.5584741208600404
684923 -0.7722195911668781 0.5584820227995043
685064 -0.7723239147453094 0.5586561665413506
685205 -0.7721397700783406 0.5585964502961516
685345 -0.7722081617961628 0.5587556268777051
685486 -0.7719669216769003 0.5587672033929638
685626 -0.7717062654246265 0.5587758098109814
685767 -0.7716948940975928 0.5589584818340496
685907 -0.7715080030316942 0.5589015478907221
686048 -0.771634068183211 0.5592179621321305
686189 -0.7715083224205039 0.5593519150451776
686329 -0.7715177099354474 0.5593653855537555
686470 -0.7714876186800356 0.5595727101490945
686610 -0.7714602479848145 0.5596143565593807
686751 -0.771446994700543 0.5597671672414241
686892 -0.7714249019774359 0.5597009407324555
687032 -0.7712597899246567 0.5596328182516501
687173 -0.7710426547862036 0.559828711633211
687313 -0.7709729543126062 0.5599836067495265
687454 -0.7707546066849021 0.5599022431637286
687595 -0.7708408809686592 0.5601285926314348
687735 -0.7708964134946379 0.5602622631187774
687876 -0.7708808640425828 0.5603390149757643
688016 -0.771034196444051 0.5604719320591063
688157 -0.7708599854350066 0.5604461692193019
688297 -0.770676726451064 0.5604610573252438
688438 -0.7706576203255311 0.5606615737459952
688579 -0.7705708541010376 0.5608312635389765
688719 -0.7703956278199172 0.5609589585812773
688860 -0.770190238580201 0.561064649287755
689000 -0.7701972307245191 0.5611569176272413
689141 -0.7703073279347866 0.5612532878567701
689282 -0.7700264869546922 0.5612466503073623
689422 -0.7701127618284447 0.5614676332576097
689563 -0.7700922376357792 0.5615435984114368
689703 -0.76987195316313 0.5615416863157883
689844 -0.7698638494570441 0.5616750547331124
689985 -0.7697806384479069 0.5617993470592734
690125 -0.769616831313444 0.5618885786200899
690266 -0.7694933618527737 0.5619495745332792
690406 -0.7694254032280468 0.562146758751139
690547 -0.7693887738541071 0.5621391992412534
690688 -0.7694572748374192 0.5622542296900459
690828 -0.7692724532803792 0.5622158747841363
690969 -0.7691993897557206 0.5623601167675586
691109 -0.7688817615293403 0.5624021239695874
691250 -0.7689392439983896 0.5625409763007981
691390 -0.7687142752536688 0.5625303294629229
691531 -0.7687436151176091 0.5627165183196599
691672 -0.7686755225685766 0.5631816508816325
691812 -0.768728378857841 0.5629758499479129
691953 -0.7685516104905172 0.5632075627563747
692093 -0.7686356008625183 0.5632037573172766
692234 -0.7684932021904762 0.5631715663117745
692375 -0.7684140208508491 0.5633035569821836
692515 -0.7684050267559276 0.5633963055479339
692656 -0.7683930502554932 0.5634155529633215
692796 -0.7683331763522793 0.5635755835614287
692937 -0.76816910951016 0.5636918776263663
693078 -0.7681266563890473 0.5638912366563953
693218 -0.7681342689366457 0.5639803331210468
693359 -0.7681574175085778 0.5640082215860239
693499 -0.767927680022499 0.5639412432952525
693640 -0.7680647573310835 0.5641358376229273
693781 -0.7679909782773179 0.5642007756181888
693781 -0.7679189477723906 0.5639682388790355
693924 -0.7675789157122287 0.564021653018703
694067 -0.7675914093872228 0.5641660245418795
694211 -0.7675448176266638 0.5643885889622005
694354 -0.7676461039591834 0.5645468070496519
694498 -0.7675077728979819 0.5646574809554955
694641 -0.7672816079496758 0.5647546706158938
694785 -0.7674190210048464 0.5648674904940388
694928 -0.7674025657701518 0.5649543580906173
695072 -0.7671510657482258 0.5650876457110865
695215 -0.7671434088006711 0.5650972630478996
695359 -0.7669515531665583 0.5650647950027405
695502 -0.7670667551018869 0.5654391501777318
695646 -0.7669056365153143 0.5655453402791002
695789 -0.7667475955026449 0.565564603876435
695933 -0.7666989216663916 0.5655739635380242
696076 -0.7667141562685026 0.5658463177733433
696220 -0.7666524826249569 0.5657889860931623
696363 -0.7664968620207797 0.5658289732451074
696507 -0.7664396796374283 0.5659204353115133
696650 -0.7662105155553508 0.5659090446780852
696794 -0.7661602477589519 0.5660393483362599
696937 -0.7660422199254989 0.5661149540971809
697081 -0.7659162657013213 0.5662137810247196
697224 -0.7657534163280464 0.5663045316137576
697368 -0.7658219468200158 0.5665863641539797
697511 -0.7657791032990855 0.5667173497110274
697655 -0.7657255123550062 0.5666399681390407
697798 -0.7658465067002583 0.5667736578636593
697942 -0.7657058737895877 0.5668529204987613
698085 -0.765576113893816 0.5669491416695799
698229 -0.7655695028172564 0.5670532611756073
698372 -0.7653935007273006 0.5671951945190037
698516 -0.7653286781944214 0.5672510906512508
698659 -0.7652542599986795 0.5673487694580986
698803 -0.7653536567617103 0.5674663007645557
698946 -0.7653067938022385 0.5676375571030702
699090 -0.7650711942721063 0.5676388795946598
699233 -0.7650523999675477 0.5676348883687811
699377 -0.7647666541442719 0.5676143469338457
699520 -0.7645862769553681 0.5676948899875008
699664 -0.7647101008992193 0.5679339231506171
699807 -0.7645221796155548 0.5680641967240423
699951 -0.7644312092503721 0.5681635381576531
700094 -0.7644079791663622 0.5682635565779192
700238 -0.7644275143802058 0.5683416718037194
700381 -0.7643209333522054 0.5684092473061749
700525 -0.764369630928829 0.5685318819613331
700668 -0.7643602551355763 0.5685129859017282
700812 -0.7640340852752306 0.5686196544347683
700955 -0.76389034534233 0.5686260602012121
701098 -0.7637669443716397 0.5687539121303834
701242 -0.7639260157674894 0.569104983076985
701385 -0.7637596004088664 0.5691310369005129
701529 -0.7638253925634942 0.5692823149740951
701672 -0.7637834805542039 0.5693492308302973
701816 -0.7638637692830433 0.5694898157170236
701959 -0.7636060628862132 0.5693997036371625
702103 -0.7634316107436155 0.5695310670274885
702246 -0.7633165344182361 0.5695585551637726
702390 -0.763234598330615 0.5697390352097964
702533 -0.7630941696499225 0.5698445849303267
702677 -0.7629772975664576 0.5700215798327709
702820 -0.7629935574526053 0.5702277929073952
702964 -0.7629616673158657 0.5702305511434239
703107 -0.7630699241024286 0.5703731709299911
703251 -0.7629314278177312 0.5702583738346354
703394 -0.762868145895553 0.5704083260513969
703538 -0.762730704228583 0.5704511180834477
703681 -0.7626809294679625 0.5705555770323391
703825 -0.7625400472058025 0.5706486554392225
703968 -0.7623904857543984 0.5707667565743619
704112 -0.7624705801825716 0.570888920320187
704255 -0.7623963086810506 0.5708773326274377
704399 -0.762321583456023 0.5709951233545988
704542 -0.762222542609214 0.5710596095165603
704686 -0.7622226684304829 0.571031557547815
704829 -0.7619836696643609 0.5711016447695865
704973 -0.7616722677953778 0.5710796504874124
705116 -0.7617296083053389 0.5713853829343931
705260 -0.7615183614862835 0.5714089590856478
705403 -0.7616843975901211 0.5717190435431152
705547 -0.7613871126005421 0.5716904703453654
705690 -0.7616173679934847 0.5718350632417606
705834 -0.7614281649256167 0.5719272767661056
705977 -0.761328411280406 0.5719481307765137
706121 -0.7612140173102163 0.5719047256057306
706264 -0.7612230427945772 0.5720272292503571
706408 -0.7609652691817184 0.5721370899180778
706551 -0.7610148986207671 0.5723602442495985
706695 -0.7609338762571001 0.5723873777994632
706838 -0.7609977967950828 0.572650018803679
706982 -0.7608497739016383 0.5727481452720373
707125 -0.7607660778804933 0.5726858233883799
707269 -0.7607485523734782 0.5728181083581747
707412 -0.7606692309115763 0.5729325373343015
707556 -0.7605819677678839 0.5729691504586842
707699 -0.7603146121338845 0.5730277498034577
707843 -0.7603310760694623 0.5731876830876134
707986 -0.7601566423273087 0.5733578113167078
708130 -0.7601018804866233 0.5734611696152945
708130 -0.7597526637076001 0.5734936891173581
708276 -0.760187986876863 0.5738035553284941
708422 -0.7601795330016735 0.5739361690420655
708569 -0.7601493684052409 0.5739197866680702
708715 -0.759992464012414 0.5739598373569061
708862 -0.7599642726061389 0.5742006489706736
709008 -0.759951692836193 0.5741654201440473
709155 -0.7596887448287379 0.5741727884394641
709301 -0.7597293627772405 0.5743505939907091
709448 -0.7595730123729701 0.5744510800350447
709594 -0.7595153283884482 0.5744926498914027
709741 -0.7594204619545074 0.5746768664790664
709887 -0.7594618780819167 0.5747602683630441
710033 -0.7593878619836423 0.574789734704262
710180 -0.759273103872212 0.5748092549881314
710326 -0.7591464753514435 0.5749054123148386
710473 -0.7590627643926369 0.575046990648825
710619 -0.7589604273634313 0.5750512705195997
710766 -0.7588765215187959 0.5752569387889807
710912 -0.7588461076894428 0.5753584758040032
711059 -0.7587992547982025 0.5754639405011771
711205 -0.7587060119767188 0.5755465086888524
711352 -0.758596091514074 0.5755475106908228
711498 -0.7585222403183015 0.5756924570525067
711645 -0.7585654202886709 0.5756839339501764
711791 -0.7583959948345073 0.5757486033014654
711937 -0.7581586811247958 0.5758078361543267
712084 -0.7581931114025732 0.5760211223602945
712230 -0.7578418191079896 0.5759411939693746
712377 -0.758090302030278 0.576255793763366
712523 -0.758047920428247 0.5764118184687872
712670 -0.7580389381191853 0.5764911850151138
712816 -0.7579650426553834 0.5765076417928262
712963 -0.757802489899287 0.5765957644407997
713109 -0.7577083837231281 0.5766127940112773
713256 -0.757596986133592 0.5768694393560987
713402 -0.7576079519309579 0.576910403306383
713549 -0.7574851470594981 0.576993381405786
713695 -0.7574274386451516 0.577142800558933
713841 -0.7573580465635803 0.5771899126615747
713988 -0.7572882555044351 0.5773511584333102
714134 -0.7571207404168642 0.5773454873091185
714281 -0.7571178310685249 0.5774081795176815
714427 -0.756995414810622 0.5775725910591789
714574 -0.7568149158783739 0.577528126296885
714720 -0.7567746261526646 0.5777056035398245
714867 -0.7566632144752651 0.5777826315130637
715013 -0.7566920399196706 0.5778651249297687
715160 -0.756556352036355 0.5780104639678936
715306 -0.7565725937607457 0.5781021031236142
715453 -0.7565419979077297 0.5782356706631372
715599 -0.7564805806756915 0.5782028532792659
715745 -0.7563687149189396 0.5783502608150327
715892 -0.756218082482249 0.5782974886654177
716038 -0.7560266365477395 0.5784642867147994
716185 -0.7561323218461479 0.5785840975088704
716331 -0.756059088809757 0.5787628539461211
716478 -0.7559886746134549 0.5788814261389361
716624 -0.7556637817587692 0.5788797985159662
716771 -0.7558955417856777 0.5790043453558371
716917 -0.7558967760012696 0.5791552054594966
717064 -0.7556546687769882 0.5792037242292477
717210 -0.7555947920583411 0.5792835568607879
717356 -0.7554490032743473 0.5793527268270757
717503 -0.7554366415386307 0.579402259335616
717649 -0.7552086323668441 0.5796115489804569
717796 -0.7551409402584464 0.5797283152793236
717942 -0.7552305714698855 0.5798918636077557
718089 -0.7551130335915118 0.5798322259839669
718235 -0.7549258580607623 0.579977193942823
718382 -0.7550374910865033 0.5800549209725849
718528 -0.7547396050960545 0.580059347854154
718675 -0.754708611900792 0.5801776432003488
718821 -0.7544400846024875 0.5802062063889232
718968 -0.7545159445753236 0.5804292579290995
719114 -0.7543874981303319 0.5805737350669232
719260 -0.7542307494287233 0.580725510201729
719407 -0.7544194696553815 0.5807916927021772
719553 -0.7543374708571008 0.5808535950035622
719700 -0.7541247968695353 0.5808750286082643
719846 -0.7542276432266699 0.5809234365637214
719993 -0.7540713089342959 0.5810016841042778
720139 -0.7538869394019171 0.5810911368604071
720286 -0.7538463793539298 0.5813241662501814
720432 -0.7537063887792712 0.5813802139214835
720579 -0.7537454278912662 0.5815039121534703
720725 -0.7536739790353869 0.5816006169771393
720872 -0.7535846725411935 0.5816395492616665
721018 -0.753612036739639 0.5817311578659512
721164 -0.753378057301268 0.5816463429980293
721311 -0.7533001388574644 0.5818685626339106
721457 -0.753262145961038 0.582007587283275
721604 -0.7530470731259622 0.5821622280931353
721750 -0.7528993155976399 0.5823013950686335
721897 -0.752750052571308 0.5824419078364723
722043 -0.7529459131255095 0.5825860367199368
722190 -0.7527258499846362 0.5825988931470674
722336 -0.752773437124578 0.5826553568680851
722483 -0.7527169915242107 0.5826539720503734
722629 -0.7525624649574192 0.5827324251380127
722776 -0.7524707465041974 0.5828452053976807
722776 -0.7528199400519863 0.5831070810487973
722925 -0.7524350873480062 0.582778374659694
723074 -0.7524576809844009 0.5829693968693772
723224 -0.7522483947040807 0.5830772326431873
723373 -0.7522802353375048 0.5831933792819821
723523 -0.75220925409871 0.5832130943001815
723672 -0.7520943641958573 0.5832582200246254
723822 -0.7518966951295097 0.5833344129659483
723971 -0.751808593539788 0.5832478414394625
724121 -0.7517414873875792 0.5835609627650272
724270 -0.7516389933707647 0.5836377332392323
724420 -0.7515631799567968 0.5838166888044898
724569 -0.7514511834827869 0.5840059330069736
724719 -0.751495177219203 0.5841097838269619
724868 -0.7514751794117323 0.5842952691604281
725018 -0.7512625468094869 0.5842849447706148
725167 -0.751156184515296 0.5842689347043374
725317 -0.7510445504268685 0.5843292851488844
725466 -0.751002899399719 0.5843309678605946
725616 -0.750944140230478 0.584526955839365
725765 -0.7508007830378618 0.5846586076208126
725915 -0.7507133943627748 0.5847273378292561
726064 -0.750647488378075 0.5849109098781012
726214 -0.7505916860960088 0.5849365801695406
726363 -0.7503620901233333 0.5848795288759474
726513 -0.7504654269432126 0.5850476994312439
726662 -0.7503907039743956 0.5851036053387917
726812 -0.7503006571407672 0.5851400451160167
726961 -0.7501593052291916 0.5852832727655541
727111 -0.7501170616211562 0.5855318814307877
727260 -0.7500202530164126 0.5856076552204877
727410 -0.7500263917997204 0.5856956112229792
727559 -0.7499303510555525 0.5857176013202431
727709 -0.7499486462992964 0.585926968200076
727858 -0.7498538258837347 0.5858727357791804
728008 -0.7497254509312324 0.5861367030722284
728157 -0.7494926618920096 0.5861608161834988
728307 -0.7494347887484804 0.5861332449350198
728456 -0.7494329635973074 0.5863942649221194
728606 -0.7493783080307616 0.5865366882743217
728755 -0.7493150587125864 0.5866520932150769
728905 -0.7492088270769796 0.5867945090018474
729054 -0.7491776554621776 0.5867479278975712
729204 -0.7490154837430425 0.5867340614427109
729353 -0.7488912190580513 0.5868167421677329
729503 -0.748852567040637 0.5869992969511654
729652 -0.7487219744501497 0.5871590041530985
729802 -0.7485923847360547 0.5870299890944395
729951 -0.7486187802507678 0.5873539686131461
730101 -0.7485600313794566 0.5875454279187288
730250 -0.7484077078823835 0.5875306189995362
730399 -0.7484450845548446 0.5876154227425698
730549 -0.748507790673619 0.5876629527075392
730698 -0.7481848983332896 0.5877810125671221
730848 -0.7480735665710223 0.5877121340301013
730997 -0.7479716485121959 0.5878866121574655
731147 -0.7480084849188007 0.5880778888185738
731296 -0.7477740234476272 0.5881693386296092
731446 -0.7476908086118447 0.58817461239713
731595 -0.7477053280696064 0.588345376317742
731745 -0.7476921276445988 0.5884032855014331
731894 -0.7476325618181475 0.5884220415254826
732044 -0.7473830488813423 0.5884019238055493
732193 -0.7473114650126211 0.588529515633558
732343 -0.7472469258622619 0.5886533389204917
732492 -0.7471415386130884 0.5888675392133602
732642 -0.7472072739157184 0.5891178402470646
732791 -0.7470854849512345 0.5890121486852192
732941 -0.7471280793002297 0.5892560867813622
733090 -0.7469793333759891 0.5892707457608305
733240 -0.7469971448447816 0.5893028408516432
733389 -0.7468081804593467 0.5893229122335835
733539 -0.746738198177981 0.5895554004558549
733688 -0.7466163850424359 0.5896168364584264
733838 -0.7466041396526414 0.5897717963879273
733987 -0.7466260297506478 0.5899084678465957
734137 -0.7464347000464082 0.5900330053783004
734286 -0.7464105157955557 0.5900437384252517
734436 -0.7465300743561931 0.5902223345124309
734585 -0.7464699455485561 0.5901768548030918
734735 -0.7462988639266047 0.5902565241466614
734884 -0.7462347660166128 0.590227053508449
735034 -0.7460208297369082 0.5904654834924147
735183 -0.7457948819423139 0.5905620996833953
735333 -0.7458113538953757 0.5907825806034336
735482 -0.7457770846970356 0.5908843864864011
735632 -0.745809991630109 0.5909316208539412
735781 -0.745672041131508 0.5910391461633185
735931 -0.7456233786862255 0.5910276232293331
736080 -0.745463704433727 0.5911741292429962
736230 -0.7454020463377786 0.5912296736649422
736379 -0.7452221701396562 0.5914324335044668
736529 -0.7450083050362296 0.5914325392911114
736678 -0.7449615603562488 0.5915084316810342
736828 -0.7448776167973986 0.5916348814454281
736977 -0.7449327555322081 0.5918136171654882
737127 -0.7448820741895583 0.5919420710329977
737276 -0.7448081158116915 0.5920024493926137
737426 -0.7446938562521869 0.5919574469890185
737575 -0.7446830803903253 0.5920750286928813
737725 -0.7444266042666804 0.5922845031724224
737725 -0.7443084097773948 0.5919723601826776
737877 -0.7443110667962737 0.5924575110992599
738030 -0.7442923633034958 0.592538292451686
738182 -0.7444111711071169 0.5927124057064834
738335 -0.7442035043451497 0.592762124787994
738487 -0.7443214062757888 0.5927928547869379
738640 -0.7441427742966327 0.5928259627135963
738793 -0.7441156630627559 0.5929266206951966
738945 -0.7438181358508316 0.592828758803686
739098 -0.7437441486749501 0.5930206447657737
739250 -0.7436490294720206 0.5932379776026672
739403 -0.7435411764952436 0.5932855721520451
739555 -0.7435120515517298 0.5933766778501789
739708 -0.7434132405066785 0.5933826947584403
739861 -0.7434059282808704 0.5935097119716498
740013 -0.7433873036075964 0.593538609164295
740166 -0.743113005637198 0.5935894440020457
740318 -0.7430592186719421 0.5938059358880168
740471 -0.7428159304522425 0.5937879783169325
740624 -0.7426522731172145 0.59399334949203
740776 -0.7427544451238027 0.5942123532417085
740929 -0.7427992387168401 0.5943061692474255
741081 -0.7426231477098438 0.5942783033285463
741234 -0.7425911524565861 0.5944253205678849
741386 -0.742437099084591 0.5943220138083729
741539 -0.7423227184630656 0.594478706238611
741692 -0.7423478969731774 0.5946792733675474
741844 -0.7420779323842198 0.5947381657096901
741997 -0.7420403056765377 0.5950473224850326
742149 -0.7420936922435039 0.5950620390952633
742302 -0.7419910228437088 0.5951942500478304
742454 -0.7419417623379222 0.5952742013276008
742607 -0.7418777002681596 0.5953731021533197
742760 -0.7417869701889708 0.5952058333970097
742912 -0.74172624162791 0.5953116954547459
743065 -0.741540213304937 0.5955040527123296
743217 -0.7413959642678566 0.5955102520081585
743370 -0.741361772485739 0.595624504857095
743523 -0.7414545789550171 0.5958621413814638
743675 -0.7414737800706719 0.5958655893113137
743828 -0.7413866099849757 0.5958858738695352
743980 -0.7413238822081413 0.595981375563234
744133 -0.7412193226277393 0.5960676610998328
744285 -0.7409465245245215 0.5961083169701447
744438 -0.7409488634280392 0.5962829658733153
744591 -0.7408306226933595 0.5965674955517285
744743 -0.7408403191588875 0.5966077811599277
744896 -0.7405055701789169 0.5966740293410174
745048 -0.7404447119583734 0.596810343677952
745201 -0.7406568908675313 0.5968672176253998
745354 -0.7404422963188803 0.5969141543278916
745506 -0.7403150753822794 0.5969302395002207
745659 -0.7402914658957644 0.5972015206648631
745811 -0.7400408503049101 0.5973371704468472
745964 -0.7399574164512559 0.5974815637393783
746116 -0.7399234646726506 0.5975629245885972
746269 -0.7398491295987473 0.5977698316501606
746422 -0.7398168562551919 0.5977534695546669
746574 -0.7398851685679957 0.5978675537864313
746727 -0.7396523601964538 0.5979316496089464
746879 -0.7394703981633647 0.5979316003786443
747032 -0.739388516456401 0.5980543545976258
747184 -0.7393189846816636 0.5982131742936214
747337 -0.7392116400570141 0.5982553611458084
747490 -0.739207973283117 0.5984931458699674
747642 -0.7391352221464064 0.598628073103199
747795 -0.7391181930920253 0.5986870612057787
747947 -0.7390052892849125 0.5987633647165556
748100 -0.7390101290953596 0.5988135344171673
748253 -0.7387833439391823 0.5987992480233436
748405 -0.7387523688495488 0.5989958500900342
748558 -0.7385896489479574 0.5990861925380536
748710 -0.7384277380339461 0.5992540928401164
748863 -0.7384054045495785 0.5992924957750774
749015 -0.7383843113497055 0.5992225239499793
749168 -0.738402583891629 0.5992984503938011
749321 -0.7382705959877832 0.5994319793498266
749473 -0.7382136716882316 0.5993432569517918
749626 -0.7380285597201653 0.5994256065623843
749778 -0.7379632496531634 0.599679602433691
749931 -0.7379331772880171 0.599846379073364
750083 -0.7377436159658678 0.599932389819189
750236 -0.7377393342888753 0.5999370657928524
750389 -0.7376902589036947 0.600164754111771
750541 -0.737483658727977 0.6000914926878425
750694 -0.7374566880247057 0.6002750597611102
750846 -0.7372647204839881 0.6002748409785613
750999 -0.7370860798594921 0.600282116260675
751152 -0.737088757556704 0.6004863641877052
751304 -0.7370313781383139 0.6007160199123243
751457 -0.7369557437863339 0.6007375735426318
751609 -0.7369761267066974 0.6008624389388841
751762 -0.7368164510905091 0.60088534209602
751914 -0.7367816427258777 0.6009477683538381
752067 -0.7366766340024914 0.6009054966754905
752220 -0.7366751222385237 0.6011244591504745
752372 -0.7364392084141891 0.601016887798527
752525 -0.7365149775514759 0.6012018696246971
752677 -0.7362073972306661 0.6012662802409806
752830 -0.7362693492014742 0.601584113228537
752983 -0.7361438124009954 0.601573944702454
752983 -0.7365448753275788 0.6014589622603163
753138 -0.7362346863591889 0.6016561662956843
753294 -0.7361653037450305 0.6018194709266904
753450 -0.7359761658593773 0.6016989546797187
753605 -0.7358318984821736 0.6019111298160744
753761 -0.7357887722893716 0.6019301118290529
753917 -0.7355550173083133 0.60202046244043
754073 -0.735623544912724 0.6024013883955142
754228 -0.7354695794633936 0.602466042860324
754384 -0.7354582679966586 0.6026624600385394
754540 -0.7354342179819728 0.6026693431841599
754696 -0.735263708279699 0.6026736554476225
754851 -0.73531664387449 0.6027484077036196
755007 -0.7351476105298855 0.6028538267585782
755163 -0.7349984862715329 0.6028169912284758
755319 -0.7350554155317116 0.6031459411241024
755474 -0.7348980185557791 0.6032498325530955
755630 -0.7347883484606855 0.6033646810339164
755786 -0.7347123855975171 0.603430605251112
755942 -0.7346015529080835 0.6034650253429518
756097 -0.7345329232275427 0.6034804207352608
756253 -0.7343990242250182 0.6036212263531149
756409 -0.7340907204425995 0.6036307160861386
756565 -0.7341952509789537 0.6039577525070028
756720 -0.7341098397002762 0.6040569375506256
756876 -0.7338546410479769 0.6041784807401578
757032 -0.7339725071689753 0.6044009154546539
757187 -0.7339219470318284 0.604354716329532
757343 -0.7339027831833812 0.6045827102020324
757499 -0.7338295893433292 0.6045445918066255
757655 -0.7337070537786307 0.6046399623372573
757810 -0.7336426666631091 0.6046692427671267
757966 -0.7335567406422145 0.6047649010359051
758122 -0.733328685950385 0.6048337671650508
758278 -0.7331789177413766 0.6049881013548736
758433 -0.7331904344935611 0.6050880921849929
758589 -0.7331062718909604 0.6052103188742831
758745 -0.7331445971437573 0.605135996069001
758901 -0.733025417205841 0.6053689327974804
759056 -0.7327694877570617 0.6052885133941879
759212 -0.732681260913375 0.6053470547656363
759368 -0.7325171245504288 0.605524420266493
759524 -0.7323614658764128 0.605665778164828
759679 -0.7323549295039575 0.6058092298770931
759835 -0.7321544624374307 0.605819212605117
759991 -0.7321154734619238 0.6059875568692276
760147 -0.732185224912884 0.6059073603968012
760302 -0.7322142802890357 0.6062272589187211
760458 -0.7319996912243413 0.6061533801261128
760614 -0.7319037139784236 0.6062810384943566
760770 -0.7319296984417424 0.6064630303041603
760925 -0.7315949436402819 0.6065837688547769
761081 -0.7314713589092265 0.6065606853564276
761237 -0.7315381033536256 0.6067340287731048
761392 -0.7313918384288784 0.6069266932816244
761548 -0.731388872957329 0.6070220997623114
761704 -0.7312944533099348 0.606939695182302
761860 -0.7311898180818968 0.6070785211842453
762015 -0.7313211521193556 0.6072535973580512
762171 -0.731221598189761 0.6073121112975368
762327 -0.7311001260089696 0.6075060880590528
762483 -0.7310309141548949 0.6077005474239215
762638 -0.7309983038426797 0.6078232217049176
762794 -0.7310371286059589 0.6079183493794107
762950 -0.7309335260199862 0.6078694910065371
763106 -0.7308193732308311 0.6079723517902259
763261 -0.7305163553715305 0.6080229867002553
763417 -0.7305226374174382 0.6080564645462343
763573 -0.7303761090647032 0.6083004393526215
763729 -0.730199237920364 0.6083944305657325
763884 -0.7301007366727343 0.6084886400891266
764040 -0.7300438899685351 0.6086020404252598
764196 -0.7298255864337156 0.6085936621634944
764352 -0.729831782146963 0.6086880937849112
764507 -0.7297016021274505 0.6088399836289954
764663 -0.7296513684000467 0.6088746478134955
764819 -0.7294267482786696 0.6089433984413072
764974 -0.729257668405346 0.6089687467913032
765130 -0.7293221551230675 0.6091166458896026
765286 -0.729237902744987 0.6092432871459003
765442 -0.7293369848892206 0.6092727847969752
765597 -0.7293420020621452 0.6094253137804508
765753 -0.7293165927989291 0.6095626461898433
765909 -0.7289825946590882 0.6094332739287716
766065 -0.7290396250402722 0.609645522713475
766220 -0.7288281490142672 0.6097771780433405
766376 -0.7287702967846004 0.6098862046279564
766532 -0.7287462659349168 0.6100682409510306
766688 -0.7285466828385878 0.6100821635133298
766843 -0.7284880527088106 0.6101417396747408
766999 -0.7286103379886841 0.6103663821843437
767155 -0.7281963547425793 0.6102647025452745
767311 -0.7281814190706739 0.6102984943890137
767466 -0.728068386754374 0.6104151790657919
767622 -0.7279200923775819 0.6105699051980561
767778 -0.7279224227316466 0.6107230340805384
767934 -0.7278640149711472 0.6109168771374603
768089 -0.7277791619507543 0.6109130127794745
768245 -0.7277525949955886 0.6110054010137691
768401 -0.7277141670500505 0.6111348050024846
768557 -0.7277282375243933 0.61115284506267
768557 -0.7277559099345617 0.6116818543529245
768715 -0.7276204308321416 0.6113587432438473
768874 -0.7275115820427249 0.6112831876736615
769033 -0.7272283395496207 0.6113629215572327
769192 -0.7272979825334724 0.6116270420422325
769351 -0.7271622282277594 0.6116737466967256
769510 -0.7271631789014652 0.611882472034337
769669 -0.7271449552915777 0.6121234742373945
769828 -0.7270894198791591 0.6121347653072253
769987 -0.7269130752191119 0.6122334186529319
770146 -0.7267222354776097 0.6123953605515745
770305 -0.7265762078252526 0.6124227479908864
770464 -0.7263794879572665 0.6124335617545933
770623 -0.7264463993084334 0.6126927928337406
770782 -0.7263702275327132 0.6127782702389751
770941 -0.7263475038622887 0.6129009328144197
771100 -0.7261739268030106 0.6129371818646879
771259 -0.7260477024655951 0.6128610195982581
771418 -0.7260768699465819 0.6129403634622512
771577 -0.7257709725734315 0.6128779131500118
771736 -0.7256347881816527 0.6131062975191433
771894 -0.7256129705931808 0.6132440284208213
772053 -0.7255330745178734 0.6135341666915426
772212 -0.7254424971724942 0.6134862296266659
772371 -0.7253424670035697 0.6136131546709497
772530 -0.7251906883187413 0.6135454007952008
772689 -0.7249782090603706 0.6136759578529355
772848 -0.7249438372945574 0.6139440848257689
773007 -0.724663287522314 0.6140034613449427
773166 -0.7246353184325119 0.6141102361280099
773325 -0.7245812546810937 0.6142617898275937
773484 -0.7246458235978676 0.6143317255384052
773643 -0.7246828665136933 0.6144841900020653
773802 -0.7245832230661705 0.6143524623934759
773961 -0.7246163152293755 0.6145522544469605
774120 -0.724475402710802 0.6146953385260416
774279 -0.7243596339897911 0.6147098072893346
774438 -0.7241761998006163 0.6147377803172966
774597 -0.7241610114979076 0.614968114185724
774756 -0.7240265822149561 0.6150776828901494
774915 -0.723959409621139 0.6152028714527706
775073 -0.7238912481126525 0.615265629478482
775232 -0.7237802189469043 0.6152067668221677
775391 -0.7235860114045009 0.6152256655102415
775550 -0.7235414023754236 0.6153261563367722
775709 -0.7233659925586235 0.6154154215555161
775868 -0.7231910981876232 0.6154944961549051
776027 -0.7231248436793957 0.615742043659311
776186 -0.7230132981906556 0.6158357848403576
776345 -0.7230973865155974 0.6159462552619788
776504 -0.7230768896304157 0.6159416060319378
776663 -0.7228472898456573 0.6160036236788798
776822 -0.7228612175750615 0.6161917107237495
776981 -0.7226614053248223 0.6163226525983853
777140 -0.7226090962335718 0.6163155073236495
777299 -0.7224798488127172 0.6164696498196454
777458 -0.7224207676167816 0.6166410118105763
777617 -0.7224332850303726 0.6167492583729245
777776 -0.7224323447980192 0.6169044089740261
777935 -0.7222221218529122 0.6169637244305973
778094 -0.7220620841252109 0.6169397337400829
778252 -0.7220905283195843 0.6171165150924959
778411 -0.7218943223042024 0.6172687580862878
778570 -0.7217461107952156 0.6173861486535199
778729 -0.7217026621429531 0.6174944007627224
778888 -0.7216829453802743 0.6176934381554873
779047 -0.7216602468548027 0.6177725623655987
779206 -0.7215395333962481 0.6178189854208599
779365 -0.7215118827260569 0.6177929009718879
779524 -0.7214141626184724 0.618021184357817
779683 -0.7213455065296679 0.6180605713050081
779842 -0.7211386141520487 0.6181258787980425
780001 -0.7209676695561846 0.6182082452842226
780160 -0.7208633891583403 0.6183006089309163
780319 -0.7208367151719781 0.6184225135621073
780478 -0.7206946768521406 0.6183831993812996
780637 -0.7207353822515515 0.6186678412717329
780796 -0.7205317075746521 0.6185422406464088
780955 -0.7203180171551608 0.6186380477738932
781114 -0.7202406567090895 0.6187165803086934
781273 -0.7201539541522307 0.6189350777645306
781431 -0.7200849361898989 0.6190604133958103
781590 -0.7201603139945745 0.6192520882021989
781749 -0.7199986635087466 0.6193030277158164
781908 -0.719923415395912 0.6194488712555639
782067 -0.7199599174762366 0.6195921336376642
782226 -0.7199586621611128 0.6195600472323386
782385 -0.7196781169583529 0.6195170151725093
782544 -0.7196701173841122 0.619637761490105
782703 -0.7194619848751512 0.6198345448948646
782862 -0.7192777714934845 0.6198677535433158
783021 -0.7193575178068644 0.6199950988954429
783180 -0.719306483092903 0.6201752565972268
783339 -0.719209912708466 0.6201231399395599
783498 -0.7191071668610002 0.6201643714049531
783657 -0.7190750628123396 0.6203601715510932
783816 -0.7189123287765014 0.6204170377500906
783975 -0.7188026823275878 0.6205784426300389
784134 -0.7187466155651154 0.6207534659610755
784293 -0.7188375458193511 0.6208884136609056
784452 -0.7188841164536238 0.6211220827818685
784452 -0.718649405743753 0.621001486498436
784614 -0.7185363009352094 0.621103317008604
784776 -0.7187108112701263 0.6211511878270941
784938 -0.7184692229335032 0.6211692290177765
785101 -0.7183178607695825 0.6211844759164011
785263 -0.7182361982916514 0.6212107602591448
785425 -0.7180742077479055 0.6215008700450874
785587 -0.7178543357430031 0.621495582615978
785750 -0.7178221467619734 0.6216531272066737
785912 -0.7177028220232087 0.6214599153022871
786074 -0.7176482263821042 0.6216703139389994
786236 -0.7176153308623264 0.6217552186035769
786399 -0.717374283926685 0.621770860848283
786561 -0.7173334131677019 0.6218870374915009
786723 -0.717287533751603 0.6222007026646722
786885 -0.7172165699391319 0.6223378393158938
787048 -0.7171834250237797 0.6224955787908912
787210 -0.7171262959547905 0.6226360872576008
787372 -0.7171242834281046 0.6227662173763296
787534 -0.7170719552003563 0.622770574827212
787697 -0.716950789757586 0.6228903556555399
787859 -0.7168738883329749 0.6229784162645882
788021 -0.7167107220366098 0.6230627455164123
788183 -0.716486388897083 0.6231323404144349
788346 -0.7164254116238945 0.6232425843180763
788508 -0.7162821169525367 0.623323009496712
788670 -0.7162047294535907 0.623531273103477
788832 -0.7161144452635554 0.6235466093578824
788995 -0.716033215159557 0.6235671504844282
789157 -0.7158661483358673 0.6236394985271644
789319 -0.7156741831536656 0.6237462040720945
789481 -0.7158439590958339 0.6239399267623204
789644 -0.7155575140507359 0.6241572498163366
789806 -0.715606705457425 0.6242575420711628
789968 -0.7156456269439486 0.6243031990680994
790130 -0.7155140329575114 0.6242855828780712
790293 -0.7151970902374113 0.6242193314424813
790455 -0.7153633252814601 0.6244006976761219
790617 -0.71517560652055 0.624523849319344
790779 -0.7150504526329035 0.6246551789376494
790942 -0.7150254006972546 0.6248485263277156
791104 -0.7149295368248594 0.6249446494140287
791266 -0.7148575323583494 0.6250117145694186
791428 -0.714874338492616 0.6251158704151033
791591 -0.7145762352934698 0.6251115294356082
791753 -0.7143668343388767 0.6251603786661281
791915 -0.7143068378720029 0.6253135848821482
792077 -0.714034258297432 0.6254345879589925
792240 -0.7140030183517778 0.6255254370374651
792402 -0.7139543866532629 0.625654558523151
792564 -0.7139822782971783 0.6258655251186299
792726 -0.713823290478218 0.6256983677676128
792889 -0.713887664298498 0.62573037593902
793051 -0.7138217918646922 0.6259070815052995
793213 -0.7136997819253766 0.6258460641827369
793375 -0.71356430195683 0.6259930565249889
793538 -0.7135423356459479 0.6262324805881496
793700 -0.7132110266555225 0.6262189331501165
793862 -0.7132696306739816 0.6265093554359802
794024 -0.7130470424724974 0.62639367466646
794187 -0.7129592674064511 0.6264745555825069
794349 -0.7128540167935026 0.6265027709537421
794511 -0.712541163615678 0.6265731344401473
794673 -0.7122886345338489 0.6265802676045514
794836 -0.7120512464341032 0.6267641274034959
794998 -0.7119718698342374 0.6268632904163737
795160 -0.7121745243649826 0.6271831194477011
795322 -0.712105998850794 0.6271899824477467
795485 -0.7122277163983423 0.6274196656601866
795647 -0.7120978224495639 0.627449976955747
795809 -0.7121424016700262 0.6275086902543762
795971 -0.7120170460409312 0.6277286874909475
796134 -0.7120697905243951 0.6278247590474466
796296 -0.7119998503516123 0.6279452468384106
796458 -0.7118559269896871 0.6280342862529156
796620 -0.7118504312430216 0.6281685934885639
796783 -0.7118803697137763 0.6283143710095914
796945 -0.711750362753434 0.6284150021434891
797107 -0.7114497770045859 0.6285377793530033
797269 -0.7112702140874136 0.6285657576312218
797432 -0.7111620112147676 0.6287019585689699
797594 -0.7110927436869594 0.6288518505634382
797756 -0.7109626149035893 0.6290684705628381
797918 -0.7107981140189082 0.6290974256990272
798081 -0.7109112711053098 0.6294273057989246
798243 -0.7107712118107435 0.6292190202184991
798405 -0.7108131465048951 0.6292981409975467
798567 -0.7106549856851605 0.629385538271395
798730 -0.7105323234731636 0.6294571366584302
798892 -0.7105316216248921 0.6296567471523752
799054 -0.7102392580437892 0.6296288291679293
799216 -0.7103603352862088 0.6297485930885256
799379 -0.7104155559797789 0.6298477923068225
799541 -0.7102820435664023 0.6300430599382943
799703 -0.7100712987824674 0.629986581517894
799865 -0.7099237550336298 0.6300819998811652
800028 -0.709747075583756 0.6301530789248838
800190 -0.709582875901327 0.6302332927263313
800352 -0.709435083296154 0.6303788769954856
800514 -0.709293226085805 0.6304779455379539
800677 -0.7093331018015481 0.6306990900805477
800677 -0.7089983644500429 0.6308379057581283
800842 -0.7091368304584182 0.6307857553859729
801008 -0.7089879952611972 0.6306507812734008
801173 -0.7090286256608749 0.6307821323548177
801339 -0.7089096758745517 0.6308212013443539
801505 -0.7087686457510562 0.6309125428324873
801670 -0.7087780524616472 0.6310934414585828
801836 -0.7086278516981988 0.6313027124886347
802001 -0.7086749155231076 0.6312523338503017
802167 -0.7086667585109647 0.631364452418182
802333 -0.7085235324070013 0.6314294912850635
802498 -0.7083625053409286 0.6315516538535285
802664 -0.708137596357515 0.6315930404788279
802829 -0.7080335706829989 0.6317146317346615
802995 -0.7078837293516828 0.6319500361894502
803161 -0.7078855963600765 0.6321839172957513
803326 -0.7077945537810955 0.6324341252237745
803492 -0.7077300210588893 0.6324415476247838
803657 -0.7078261107752293 0.632611213814538
803823 -0.7076437717118214 0.6324966069277853
803989 -0.7075036667886797 0.6324963704708714
804154 -0.7075660715575698 0.6325797792289382
804320 -0.7073325292030659 0.632809140512941
804485 -0.707203105845893 0.6329314502487494
804651 -0.7073086025726145 0.6330701562997655
804817 -0.7071539177746169 0.633004714831671
804982 -0.7070844792013694 0.6329349022102944
805148 -0.7070575358487425 0.6330138861280404
805313 -0.7069809523108027 0.6331623625356064
805479 -0.7067855054034526 0.633270337333947
805645 -0.7067606411217905 0.633500585855455
805810 -0.7066626861002852 0.6337263360030055
805976 -0.7066352814225149 0.6338437444461622
806141 -0.7066984605754193 0.6340138721772318
806307 -0.7065767947138859 0.6340708951094016
806473 -0.7065098434576204 0.6342112817971348
806638 -0.7063503631944033 0.6342044627433077
806804 -0.7061638213618597 0.6342140793984814
806969 -0.7060457802090794 0.6344651485866414
807135 -0.7059704765028799 0.6346075746965079
807301 -0.705704910742751 0.6345400580171163
807466 -0.7056838547311107 0.6347153334733276
807632 -0.7055501872944724 0.6347218192552455
807797 -0.7056130880064588 0.6347460403068926
807963 -0.7052309228663727 0.634719565221045
808129 -0.7050973966997821 0.6348879728263178
808294 -0.7051323115485313 0.6349598251695954
808460 -0.7048767877631537 0.6351981209964451
808625 -0.7046207844533924 0.6351889551180072
808791 -0.7046792100488937 0.635377304261424
808957 -0.7047072314105202 0.6354445070168534
809122 -0.7045587838751964 0.6354206449346308
809288 -0.7045354460322968 0.6356370634147651
809453 -0.7043263763930097 0.635606560717128
809619 -0.7041570135174393 0.6355538166114079
809785 -0.7042055091835819 0.6358360509268848
809950 -0.7039097426085267 0.6359789297083531
810116 -0.7039614899110439 0.6360848505142553
810281 -0.7038453217819532 0.6361240994156363
810447 -0.7038218732506727 0.6362070493824143
810613 -0.7037547199039562 0.6362611562785838
810778 -0.7036673476586326 0.6362564368862061
810944 -0.7034687358545753 0.6365285266954186
811109 -0.7034094587098133 0.6365069679145194
811275 -0.7031381818130115 0.6367329640791496
811441 -0.7031533284014513 0.6368419086773329
811606 -0.703025523560095 0.6369471365635601
811772 -0.7030765104685016 0.6370143789603226
811937 -0.7029821115543886 0.6369804349793583
812103 -0.7028643877070316 0.6371728651339201
812269 -0.7028726982710055 0.6373597696248072
812434 -0.702723377790056 0.6373691842407108
812600 -0.702532692375052 0.6375658852024202
812765 -0.7025926051066369 0.6377607618894638
812931 -0.7024852519221476 0.6377589241353038
813097 -0.7024061625684652 0.637929248901298
813262 -0.702314520955966 0.6379909114402045
813428 -0.702185516794306 0.6379771267203562
813593 -0.7019620570323972 0.6382161125936474
813759 -0.7017790234592562 0.638102198226946
813925 -0.7016680985535787 0.638339564720999
814090 -0.7015842881910619 0.6384974550227848
814256 -0.7016169092350982 0.6385638000942638
814421 -0.7015091979443753 0.63860201313961
814587 -0.701513260215955 0.6387397708517113
814753 -0.7013838758907381 0.6387271053731902
814918 -0.7012951712015323 0.6387467643819031
815084 -0.7010879477522994 0.6388548972318109
815249 -0.701147347407901 0.6389322976931542
815415 -0.7008948445731052 0.6391977651431011
815581 -0.7009345650619621 0.6393920600068066
815746 -0.7008336058856705 0.6392643342085558
815912 -0.700936643547219 0.6395304182671988
816077 -0.7007109748600804 0.6394159278385616
816243 -0.7007090920645657 0.6394532373728581
816409 -0.700458708245796 0.6394744568173675
816574 -0.7001978916491608 0.639531328205042
816740 -0.7000701848091742 0.6396994102177952
816905 -0.7000246378946807 0.6397776003488366
817071 -0.7000007102708943 0.6398884599581948
817237 -0.6998776688541058 0.6400116387255844
817237 -0.6998271790557244 0.6401919884699117
817406 -0.6998092932682213 0.6402143025848605
817575 -0.6998303775131393 0.6402545095515143
817744 -0.6996513469957857 0.640409318663184
817913 -0.6994951528021369 0.6404830507653753
818082 -0.699553407797949 0.6406767467018567
818251 -0.6991538074483808 0.6406524752179658
818420 -0.6991672463170002 0.6409200631017058
818589 -0.6992301626261032 0.6409388251244276
818758 -0.6989670842543633 0.6411268803042679
818927 -0.6989003773222265 0.6411556949778539
819096 -0.6987835367968047 0.6412152841698947
819265 -0.6986334336029606 0.6413394591657328
819434 -0.6983971218955526 0.641499110265767
819603 -0.6983278636808725 0.6417561966138369
819772 -0.6983927005663673 0.6418614691011205
819941 -0.6982713274209849 0.641849938553366
820110 -0.6982409581255105 0.6421195915203517
820279 -0.6981911622627883 0.6420229021704533
820448 -0.698029758620633 0.6420260049628269
820617 -0.6979965866622837 0.6422357834412171
820786 -0.697845353473967 0.642271909958253
820955 -0.69779933563403 0.6424411426513305
821124 -0.6978816138426489 0.6426561982302669
821293 -0.697660877538256 0.6425869152902989
821462 -0.6975807585061147 0.6426528200176469
821631 -0.6974268283046061 0.6427395813739382
821800 -0.6972189413206967 0.64268176496304
821969 -0.6970681236513167 0.6427036745126123
822138 -0.6970286641535741 0.6429507429342689
822307 -0.6967809548987964 0.6430513673465177
822476 -0.696785784439457 0.6432352216208986
822645 -0.6966361774731492 0.6431498874106333
822814 -0.6965978876210628 0.6432824114477583
822984 -0.6965701336389994 0.6434079581416517
823153 -0.6965066596744071 0.6436327606499648
823322 -0.6960615982798137 0.6434535532110418
823491 -0.6961964245900153 0.6437300215183499
823660 -0.6961291741208867 0.6439043156344474
823829 -0.696075230886754 0.6440508964379268
823998 -0.6960040345723684 0.6440338804127999
824167 -0.6958894343826267 0.6441409282754982
824336 -0.6957138546638721 0.6442311592858897
824505 -0.6955960732988882 0.6443036617974213
824674 -0.6956187681604783 0.6444732537851194
824843 -0.6954599999418059 0.6445338506666616
825012 -0.6952137547218584 0.6448119169995277
825181 -0.6951699269902034 0.6449215472573746
825350 -0.6952230565359075 0.6451123691390526
825519 -0.6951243756791494 0.6451310914998799
825688 -0.694983194361912 0.6450956299276531
825857 -0.6948472318585719 0.6453470979318201
826026 -0.6947206045793263 0.6453340182338697
826195 -0.6945687535807585 0.6453644344012698
826364 -0.6946285675541438 0.6455516806049267
826533 -0.6944129690516972 0.6457559718315968
826702 -0.6944479968229662 0.6458406594216929
826871 -0.694305478615404 0.6459568980886468
827040 -0.6941556268499542 0.6458299455955582
827209 -0.6941076193602937 0.6459472598446445
827378 -0.6938534250267145 0.6460166807456275
827547 -0.6937470612644863 0.6461341092073902
827716 -0.6935782013693749 0.6462221135064364
827885 -0.6936225380284534 0.6465218836862252
828054 -0.6935520832503861 0.6465240911211076
828223 -0.6934753003817008 0.6467027978899926
828392 -0.693288249695773 0.646679996419081
828562 -0.6931942359789915 0.6467884142803941
828731 -0.6931140798599075 0.6468519030277149
828900 -0.6929037833391248 0.6469176819229696
829069 -0.6928118703115806 0.6470579416218258
829238 -0.6927794523443089 0.6471716034860092
829407 -0.6926899322046438 0.647359771116012
829576 -0.6927039343783225 0.6474349920925895
829745 -0.6926284908501227 0.6474771764405629
829914 -0.6925314742249207 0.6474862199189119
830083 -0.692253266057166 0.6475852037834131
830252 -0.6923304169690679 0.6477670801966992
830421 -0.6920273105408785 0.647942516125875
830590 -0.6917963708975101 0.6480097637370338
830759 -0.6919196379565774 0.6482439274656384
830928 -0.6918926527783982 0.6482508935165051
831097 -0.6915332654963927 0.6482276914863986
831266 -0.6917807936205308 0.6485115296041045
831435 -0.6915320725787392 0.6485055406473049
831604 -0.6912165153706589 0.6485514041667942
831773 -0.6913796862513208 0.6487254324330568
831942 -0.6912081549404151 0.6486865422405327
832111 -0.6912601538119925 0.6488921412476069
832280 -0.6913030025845701 0.6490127368279951
832449 -0.6910763747023997 0.6489721216424092
832618 -0.6911210243698015 0.6490921957507034
832787 -0.6909489581294794 0.649039135266424
832956 -0.6907650324098172 0.6491729329880754
833125 -0.6906512756265705 0.6494438590371707
833294 -0.6905102443229201 0.6495244714716641
833463 -0.6904888371709672 0.6497261701732596
833632 -0.6903380417539215 0.6497464777716613
833801 -0.6902014328234359 0.6498543109009434
833970 -0.6901388617265128 0.6499446300191916
834140 -0.6900554260967724 0.6500981519755993
834140 -0.690393206390853 0.6506704913063146
834312 -0.6901097007286789 0.6502675135098392
834485 -0.689934992023148 0.6503985967282201
834657 -0.6898491126823568 0.6504777104115002
834830 -0.6895861151712899 0.650433136263435
835002 -0.6896192897534907 0.6504765894371258
835175 -0.6896150657251715 0.6506509272065555
835347 -0.6893809792651144 0.6506572275691814
835520 -0.6892990275822942 0.6506448526571847
835692 -0.6892020601693128 0.6508125655331581
835865 -0.6890455121585904 0.6510244208017053
836037 -0.6889432280611217 0.6510533115782843
836210 -0.6890276488352807 0.6512593338828951
836382 -0.6887760367658841 0.6511825629887947
836555 -0.688835400610813 0.6513325756755132
836727 -0.688681829374862 0.6514219314062278
836900 -0.6884297088025199 0.6513796904478353
837072 -0.6884956141809531 0.6516539132310532
837245 -0.6881365984474258 0.6516685593076474
837417 -0.6881241294080557 0.652001661294176
837590 -0.6880744847651982 0.6521319770195568
837762 -0.6881660526069324 0.6522368027603689
837935 -0.6880321753716038 0.6522415535156545
838107 -0.6879409951705573 0.6523216897132206
838280 -0.6877366176966035 0.6523385107625095
838453 -0.6874662231862347 0.652481500111965
838625 -0.6874400555902207 0.6525783186952225
838798 -0.687314342127376 0.6527594843356549
838970 -0.68724650799204 0.6529067214268501
839143 -0.6872335268973843 0.6529104646981518
839315 -0.6872203865394908 0.6531479880327226
839488 -0.6869830861676074 0.6531977570601847
839660 -0.6867603506520652 0.6532934530175403
839833 -0.6865803988012351 0.6533408193800212
840005 -0.6864101732313281 0.6534266485936134
840178 -0.6863830073218224 0.6535822264100498
840350 -0.6862259392859583 0.6537136110079994
840523 -0.6863006785533934 0.6537208222783363
840695 -0.686214016403017 0.6537360409027716
840868 -0.6861644226744767 0.6538061401257107
841040 -0.6859368470728175 0.6537811226886687
841213 -0.6856938667436568 0.6539324025855887
841385 -0.685739036640103 0.6540217542528602
841558 -0.6855007700324858 0.6541165445571847
841730 -0.685576708440187 0.65427523936055
841903 -0.6855557166161721 0.6544204121740823
842075 -0.6855451875733374 0.6546129548374321
842248 -0.6853886043094285 0.6546436566455539
842420 -0.6853022854569305 0.6546585230369013
842593 -0.685126785040652 0.6548809895809528
842766 -0.6849889331571429 0.6549362517339808
842938 -0.6849209458229626 0.6551728392162355
843111 -0.6848879735615139 0.6553309404252796
843283 -0.6847636716206671 0.6553237170068891
843456 -0.6846615272370644 0.6554114313567362
843628 -0.6844395764474441 0.6554571010230014
843801 -0.6843697099047121 0.6555304727812624
843973 -0.6841976950341019 0.6557598002073396
844146 -0.6841127849926874 0.6558874928573291
844318 -0.6839333864220484 0.6558801050147535
844491 -0.6839180484409351 0.6561020001238475
844663 -0.6838703125131437 0.656163021743143
844836 -0.6838189365965457 0.6561203420018129
845008 -0.6836222762143087 0.6561705254610094
845181 -0.6836187831519364 0.6562234348619208
845353 -0.6832204988150826 0.6562155269680445
845526 -0.683334435634125 0.6565775896194098
845698 -0.6834594092131228 0.6566924739091042
845871 -0.6832365344002228 0.6567805063787517
846043 -0.6831962034259773 0.6568483545127535
846216 -0.6831388368528043 0.6568516323739207
846388 -0.6830031624182055 0.6569899510352233
846561 -0.682829076618496 0.6570844086316786
846733 -0.6827013502651523 0.6571792766495552
846906 -0.6825203920055956 0.6574059019847258
847079 -0.6823871133622159 0.6574568234488365
847251 -0.6823155049905358 0.6574849334905412
847424 -0.6822076161137054 0.6576093969515729
847596 -0.682059746907948 0.6576468846012394
847769 -0.6820139537880506 0.657533268801353
847941 -0.6816825657035909 0.6577354818488835
848114 -0.6817646825954294 0.6580542049434314
848286 -0.6815577399473521 0.6579810190362765
848459 -0.6815027564865326 0.6582734565023662
848631 -0.6814969753840227 0.6582805005804767
848804 -0.6813678484087138 0.6585302530235169
848976 -0.6812357370859148 0.6584627892536383
849149 -0.6811786330993868 0.6585143934071762
849321 -0.6809184837055846 0.6585428640402894
849494 -0.6808815931207145 0.6587844276598203
849666 -0.6807462495751962 0.6588401156840572
849839 -0.6807904112533827 0.659038710546042
850011 -0.6806102177564747 0.6590535270629961
850184 -0.6805238872908457 0.6590731554398033
850356 -0.6803734877703012 0.6591296624476769
850529 -0.6802819471906056 0.659246250330227
850701 -0.6802057729256229 0.6593528622062914
850874 -0.6800805607040357 0.6595006496935149
851046 -0.6799310118200559 0.6596289112049987
851219 -0.6798737570082696 0.6596968860250841
851392 -0.6798510778503621 0.6598578674521949
851392 -0.6800959322143116 0.6597200569438526
851568 -0.6799872248150258 0.6599037077534398
851744 -0.6798632146460661 0.6600286546472719
851920 -0.6796377308899938 0.6600870547603185
852096 -0.6794175202950488 0.6601294338890735
852272 -0.679245539972396 0.6603248011259233
852448 -0.6791154591338742 0.6605378020868086
852624 -0.6790476431089205 0.6606832751855675
852800 -0.6789593937573322 0.6606966141846676
852976 -0.6790362533326405 0.6607611599438578
853152 -0.6788829260768933 0.6609603224187813
853328 -0.6786401466328327 0.6608403017436631
853505 -0.6785164668305345 0.6610313081504123
853681 -0.6785516611060034 0.6611847807668391
853857 -0.6782933201215696 0.661277296716493
854033 -0.6783843601046663 0.661582565625251
854209 -0.6784588423071355 0.6616494478263746
854385 -0.6783034029340338 0.6616739959243302
854561 -0.6782379440686158 0.6617837940551003
854737 -0.6781506154485061 0.6619163408048906
854913 -0.677836446828986 0.6618958953921343
855089 -0.6777168505979377 0.6621892011860866
855265 -0.6775616939187736 0.6622363387597868
855442 -0.6775919625812237 0.6624262328201318
855618 -0.6774610580506287 0.6624003894758935
855794 -0.6774025509054994 0.6624436678568355
855970 -0.6771268236745298 0.6622930263875694
856146 -0.6769911712272016 0.6623988980672944
856322 -0.676932811652664 0.6625675393865301
856498 -0.6766144469224294 0.6625758417186265
856674 -0.676703563188649 0.6627196262582274
856850 -0.6765183812192397 0.6628519280481635
857026 -0.6763732062176219 0.6628782483700749
857202 -0.6763573460720488 0.6631183930780038
857379 -0.6763800281714317 0.6630847299696718
857555 -0.6760489418763377 0.6631133169677002
857731 -0.6760737078258984 0.6633082322705388
857907 -0.6760766613777817 0.6635433214701949
858083 -0.6757875056574479 0.6635557513640993
858259 -0.6757699619060561 0.6636677923667375
858435 -0.675670374226644 0.6638824806554198
858611 -0.6755323337061337 0.6637845082946934
858787 -0.6754767326878459 0.6638686194551146
858963 -0.6751797359422671 0.6638847380224732
859139 -0.6750769373716874 0.664015754689046
859316 -0.6748831328465354 0.6642680799874907
859492 -0.6748258537870145 0.6643379739818779
859668 -0.6749832817089815 0.6645835966635173
859844 -0.6749332223350322 0.6645256890220919
860020 -0.6746368306852734 0.6645526303598861
860196 -0.6745813012656355 0.6646049084271727
860372 -0.6744517309326437 0.6648230105561533
860548 -0.6742682253866968 0.6649382963522376
860724 -0.6741205692697901 0.6650736142029667
860900 -0.6741105737068348 0.6651517583750933
861076 -0.6741175860552417 0.6653995407267667
861253 -0.6740644608943116 0.6654472883326628
861429 -0.6740048097163188 0.6654067942525566
861605 -0.6737489505038338 0.6654965281579457
861781 -0.6737143954566487 0.6655370562535514
861957 -0.6734167067948403 0.6657828817923794
862133 -0.6733446732259976 0.6658820779422197
862309 -0.6732837710696975 0.6659317528292842
862485 -0.6732134674926795 0.6659302155839559
862661 -0.6730393108827633 0.6660182975810613
862837 -0.6731233657261432 0.6660189244490866
863013 -0.6730303692123422 0.6661624124715753
863190 -0.6727496525566397 0.6662194139780304
863366 -0.6728019634618244 0.6663780662703269
863542 -0.6726958240036132 0.6666473706678988
863718 -0.6725711574677168 0.6665802347410036
863894 -0.6726691288890985 0.6667063881100587
864070 -0.672418702609582 0.6668831939258608
864246 -0.672405465384118 0.667018576685987
864422 -0.6721395833383395 0.6669108322407259
864598 -0.6720623384181648 0.6670072094815657
864774 -0.6719457909752133 0.6672021811361664
864950 -0.6715943965400847 0.667151491610212
865127 -0.6718351275721345 0.6675309423515884
865303 -0.6715853466502872 0.6674634575578414
865479 -0.6716050100526643 0.6674869125667806
865655 -0.6714281329469287 0.6675627255487673
865831 -0.6713678529033134 0.6677111140787524
866007 -0.6710336692888327 0.6678641807692707
866183 -0.6711184651890566 0.6681324054538949
866359 -0.6709763578980757 0.6682462181010971
866535 -0.6709671023456761 0.6683974011987909
866711 -0.6709496108188052 0.6684415140346838
866887 -0.6708498025769531 0.6684687523413153
867064 -0.6706913145324908 0.6685973170707785
867240 -0.6705462795779646 0.6687038689113849
867416 -0.6704075831920685 0.668758721438548
867592 -0.6701480078422907 0.6688577430819428
867768 -0.6702095345887075 0.6689305755697859
867944 -0.6701227209820163 0.669097033027517
868120 -0.6699162151292244 0.6692161849689532
868296 -0.6698596697045065 0.6691821964846251
868472 -0.669726584778248 0.669209201109258
868648 -0.6694437054927495 0.6693376671267978
868824 -0.6692471718041175 0.6694049892451649
869001 -0.6691851352121454 0.6696350707007558
869001 -0.6686938226271998 0.66964226876832
869180 -0.6689317442600302 0.6697454536423108
869360 -0.6688155138432857 0.6696952717302458
869540 -0.6688483540567315 0.6697627087640053
869719 -0.6687966634995391 0.6699711523567413
869899 -0.668690456563215 0.6700956318028408
870079 -0.6685822783262797 0.6700693899436898
870259 -0.6684917133048179 0.67029314728053
870438 -0.6683285132832806 0.670517717574593
870618 -0.6683169270770903 0.6706062097594383
870798 -0.6682648210484854 0.6706122634281202
870978 -0.6681470446833817 0.6706756730260667
871157 -0.6680387530581281 0.6708627059453672
871337 -0.6678355251383229 0.6708335603388534
871517 -0.6677915580354424 0.6708820506564724
871697 -0.6676423624271642 0.6710457851029579
871876 -0.6675558885693762 0.6710841450134984
872056 -0.6675017471139467 0.6711917469646476
872236 -0.6675505512107383 0.6713258346535695
872416 -0.6673657079493543 0.6714070017282346
872595 -0.6671896271075128 0.6713308759197596
872775 -0.6670454278530629 0.6715341852245662
872955 -0.6669382596996118 0.6716631796487456
873135 -0.6670234206391069 0.6718983316625103
873314 -0.6667906877885292 0.6721359621848559
873494 -0.6668026846839509 0.6723016883483856
873674 -0.6666919882063108 0.6722956702905876
873853 -0.6665201347574907 0.6724258907325333
874033 -0.6663241244206589 0.6724146398901043
874213 -0.6662023027812937 0.6726660077371345
874393 -0.6660801790357589 0.6727298843198821
874572 -0.6660005611954534 0.67287986791954
874752 -0.6658910439965854 0.6729621460338366
874932 -0.6656951688699705 0.6729018925562364
875112 -0.6657368192318723 0.672970304324397
875291 -0.6655332692498606 0.673162459481926
875471 -0.665545441377434 0.673197543355841
875651 -0.6653461164100928 0.6733052199540845
875831 -0.6651613078456825 0.6734439946303351
876010 -0.6651717561627017 0.6736551777957829
876190 -0.6651735687550049 0.6736863777980117
876370 -0.6649774685733733 0.6736378500540433
876550 -0.6648845533595986 0.6737481241935291
876729 -0.6648743088957039 0.6739279682689068
876909 -0.664676411608813 0.674069258863213
877089 -0.6644102685717224 0.6742580428922051
877269 -0.6645196327096948 0.6744649885005385
877448 -0.6643585004962602 0.6747057111701313
877628 -0.6642333092937175 0.6745907270049519
877808 -0.6641083644747099 0.6747209604841143
877988 -0.6639355279222048 0.6747775686409293
878167 -0.6638390939160916 0.6746811685285063
878347 -0.6636549491411228 0.6749348614539611
878527 -0.6635597824823642 0.6749646391896247
878706 -0.6633923792316462 0.6748668516040449
878886 -0.6633436480193254 0.6752408246738676
879066 -0.6634201640101478 0.6753264829048188
879246 -0.6632453646836808 0.675410576370826
879425 -0.6631252389017368 0.6754730432738483
879605 -0.6630187545125321 0.6753923023675673
879785 -0.6627984192152239 0.6756744535030295
879965 -0.6625116477401665 0.6757383722825104
880144 -0.6624189885958474 0.6757677729897446
880324 -0.6624942436294226 0.6760641950942181
880504 -0.6624034201535698 0.676002174412693
880684 -0.662280920555335 0.6761353240985223
880863 -0.6620448974412584 0.6761029176438048
881043 -0.6618854723702784 0.6763136959280573
881223 -0.6617699990585216 0.6762746306648267
881403 -0.6616728687952488 0.6766551271072095
881582 -0.6616873170227637 0.6766982034167596
881762 -0.6614844938024687 0.6766520303876237
881942 -0.661564947961697 0.6768171643222566
882122 -0.6613970101804761 0.6767837063966793
882301 -0.6612608709569205 0.6769119866181033
882481 -0.6612399271748423 0.6771002800336624
882661 -0.6610272760043692 0.677353268837751
882840 -0.6608497284171453 0.6774006266106507
883020 -0.6608772523684068 0.6776025564930507
883200 -0.6608713999045971 0.6776685843967127
883380 -0.6606524248890198 0.6776700961821844
883559 -0.6606586333777819 0.6778571092851969
883739 -0.6605219630347531 0.677984383003776
883919 -0.6602643777155249 0.6782252581029727
884099 -0.6602037803154309 0.678284741849407
884278 -0.6601196415664583 0.6782880401716059
884458 -0.6599523997171877 0.678397612191287
884638 -0.6598705452824116 0.6783824991085203
884818 -0.6598688130717819 0.6784310727825759
884997 -0.6596343237230554 0.6785622933107003
885177 -0.6595376596146775 0.6785653910422966
885357 -0.6595085568148793 0.6787375224360102
885537 -0.6593922037837755 0.6789400773274672
885716 -0.6593075494602477 0.6790608907763295
885896 -0.6592709178048368 0.6791435374586176
886076 -0.6591261645755443 0.6792293124066563
886256 -0.6591738743039132 0.6793717949525506
886435 -0.6589455052881379 0.6794551648856325
886615 -0.6588843159279124 0.6795165763530964
886795 -0.6587020149363902 0.6796574960185965
886975 -0.6586732456745706 0.6798790904653387
886975 -0.6589685586606986 0.6796364682811241
887158 -0.6587524515245267 0.6796798406549196
887341 -0.6584986368059124 0.679873164895359
887525 -0.6584795881515878 0.6799271581055619
887708 -0.6581886093656455 0.6800084315119815
887892 -0.6580809916210103 0.6800584972215051
888075 -0.6579079468368255 0.6802076719992715
888259 -0.657855434363121 0.6802516583654507
888442 -0.6579804432677879 0.6804553813681653
888626 -0.6578697125048487 0.6806067104133532
888809 -0.6576220344032448 0.6804959265575601
888992 -0.6574488797686966 0.6805584352808995
889176 -0.6573487707408392 0.6807505209013085
889359 -0.6573351058488519 0.6809469893420627
889543 -0.6570230754679527 0.6811192572382808
889726 -0.6569442171477423 0.6811807937116366
889910 -0.6568931015613779 0.681179963847583
890093 -0.656737082728155 0.6813856198456734
890277 -0.6566069522347598 0.6813817314906788
890460 -0.6563211892900327 0.6814020273340162
890644 -0.656218018410976 0.681655431820627
890827 -0.6559543729468704 0.6815439000359906
891010 -0.6559356789884621 0.6819170120506239
891194 -0.6557541917978555 0.6817853273521683
891377 -0.6556918977837978 0.6819065615269605
891561 -0.65574140990115 0.6820450334730058
891744 -0.6556847448986323 0.6820014981625961
891928 -0.6554485332594568 0.6821636321928535
892111 -0.6553865442752521 0.6822285531084328
892295 -0.6554838543563362 0.6825694320689026
892478 -0.6554021468093564 0.6826816348719671
892661 -0.6553694319840693 0.6826741514381592
892845 -0.6552408840409626 0.6827841337458547
893028 -0.655108847494292 0.6829347381081159
893212 -0.6549392532920246 0.6830641408392497
893395 -0.6547066671597566 0.6829706018329993
893579 -0.6546171091899502 0.683240253793656
893762 -0.6544283971358442 0.6833430464275637
893946 -0.6544445887336763 0.6834994111781515
894129 -0.6543491780182343 0.6835235355492152
894313 -0.6542606285690086 0.6835388330461649
894496 -0.6540646586721333 0.6836376859199796
894679 -0.6539226198032742 0.683812376010746
894863 -0.6536864886579905 0.6837930142231881
895046 -0.6536877016284521 0.6840134642806885
895230 -0.6535196582291893 0.6840752447493836
895413 -0.6534794526987092 0.6841917745882216
895597 -0.653448897576462 0.6842315643241859
895780 -0.653150898051214 0.6842255350549115
895964 -0.6530929157690508 0.6843344919844618
896147 -0.6529712406222661 0.6845510541055063
896330 -0.6527482940256215 0.6846893860094382
896514 -0.6529070071276144 0.6849134889214248
896697 -0.6528759428251042 0.6850149653334608
896881 -0.6526684559634279 0.6851053378930216
897064 -0.652594389327186 0.6851121239695422
897248 -0.6523957777012702 0.6851472969494501
897431 -0.6522745870827341 0.6852105176885868
897615 -0.6522590524262311 0.6855221416052193
897798 -0.6520129631219446 0.6855439212213756
897982 -0.6519735291919174 0.6856475163051196
898165 -0.6518531805236387 0.6856928209967652
898348 -0.6517732670437736 0.6858268022420714
898532 -0.6515082519835477 0.6858683855687547
898715 -0.6513716443922021 0.6859063385533885
898899 -0.6513279846941433 0.6860474479061116
899082 -0.6510760427565566 0.6861678425863093
899266 -0.6511383631854318 0.6862659800587094
899449 -0.6511300319827366 0.6863913410370795
899633 -0.6510487799340083 0.6864472350601651
899816 -0.6510211960184884 0.6864965440652143
899999 -0.6507192196701895 0.6863809069587304
900183 -0.6505284301706368 0.6866999043847514
900366 -0.650587486553693 0.6867927414346713
900550 -0.650452334493334 0.6869217956931415
900733 -0.6503517048891204 0.6870442947661513
900917 -0.6502135461693974 0.6871210209681867
901100 -0.6499993839729403 0.6871463476154375
901284 -0.6500243102391522 0.6871974894019839
901467 -0.6498603216496249 0.687469257480867
901651 -0.6496750874927703 0.6875870009357772
901834 -0.6495638466921503 0.6876457874867622
902017 -0.6494670984627854 0.6878161745946796
902201 -0.6494522932183354 0.6879445033069406
902384 -0.649356720414261 0.6880528602735254
902568 -0.6490693119979204 0.687856278566003
902751 -0.6488354352243162 0.6880404426188432
902935 -0.648723124757443 0.6881427790334269
903118 -0.6485500819864458 0.6882187736087503
903302 -0.648342713161152 0.6882480075945366
903485 -0.6484664458708331 0.6884697654974065
903668 -0.6482725067605924 0.688460537743416
903852 -0.6482968418574162 0.6885914762905724
904035 -0.6480959616024208 0.6886451419365861
904219 -0.6480448391654141 0.6888779544897794
904402 -0.6479501764380705 0.6889713012657841
904586 -0.6478317687106364 0.6890597206907056
904769 -0.6477572812346345 0.689160812345562
904953 -0.6476647485843744 0.689238997985942
905136 -0.647516475050825 0.6893676309600505
905320 -0.647529405814168 0.6894052519069604
905320 -0.6476148998548334 0.6898832717774809
905507 -0.6474087018755679 0.6894834823204411
905694 -0.6473139941620434 0.6895400200129748
905881 -0.6472583156795155 0.6897044617160741
906068 -0.6470286060366413 0.6897459740723834
906256 -0.6469846273053712 0.6899408243759588
906443 -0.6468781964412289 0.6899513885371528
906630 -0.646745241245712 0.6899573114729965
906817 -0.6467192530804133 0.6900613649272559
907005 -0.646546824253269 0.6902755848455117
907192 -0.6462670620080017 0.6903177408245953
907379 -0.6462057209541562 0.6905582740064676
907566 -0.6460294122253155 0.6906768929221111
907754 -0.645947298197956 0.6907313476295138
907941 -0.6459374438549926 0.6908453677221442
908128 -0.6456526664547907 0.6908046320842419
908315 -0.6453826394189278 0.6909274343947387
908503 -0.6452484774906303 0.6911390071608707
908690 -0.6451324075097407 0.6913281976601651
908877 -0.6449940054491071 0.6914258902977637
909064 -0.6450611064321791 0.6915652054422081
909252 -0.645029770743854 0.691598972463188
909439 -0.644807773764338 0.6916640408281298
909626 -0.6446942735684383 0.6916674949886368
909813 -0.6445387265969763 0.6917919476921461
910001 -0.6443262728482078 0.6919561416926946
910188 -0.6443899825918263 0.6921518827498366
910375 -0.6442835501376186 0.6923915299586622
910562 -0.6442706187701169 0.6925132380182567
910749 -0.644182603014884 0.6922969116506238
910937 -0.6439740175590233 0.6925347464608451
911124 -0.6438429554683855 0.692518858229066
911311 -0.643548618995163 0.6926290313379192
911498 -0.64346650349853 0.6927562568835297
911686 -0.6433980291741193 0.6929175105479243
911873 -0.6431880236304587 0.69299895763848
912060 -0.6433069142323068 0.6930626120890806
912247 -0.6430358741622008 0.6930631818504794
912435 -0.6429295365946406 0.6931972610969507
912622 -0.6428311649305994 0.693321436009158
912809 -0.6425633271570681 0.693393192816723
912996 -0.6425473422762373 0.6935874670811246
913184 -0.642506715841115 0.6936797732560821
913371 -0.6424317987097399 0.6936644066451135
913558 -0.6423536398216217 0.6937738947323212
913745 -0.6422344245208961 0.6937305585687135
913933 -0.642032807547796 0.6939251210763109
914120 -0.6419224343957434 0.6940359512493608
914307 -0.6419247057669868 0.694203291943037
914494 -0.6416418570217685 0.6943068118008806
914682 -0.6416545994113556 0.6943069030349345
914869 -0.641489305291865 0.6943947613257664
915056 -0.6412273712430034 0.6943474806990712
915243 -0.6411298692881221 0.694543273282553
915430 -0.6409471373672657 0.6947651251472747
915618 -0.6409011054506157 0.695068171891012
915805 -0.6408133319160045 0.6951011490701777
915992 -0.6407262905650163 0.6952087544004986
916179 -0.6406991930156881 0.695273996639887
916367 -0.640540432776235 0.6953153105807227
916554 -0.6402977154411779 0.6954560852688254
916741 -0.6401514536181364 0.6955040018211323
916928 -0.6400810570798989 0.6957262633265594
917116 -0.6399285565587167 0.6958407989775661
917303 -0.6399563687262374 0.6960025062948215
917490 -0.6398115242215195 0.696024456592152
917677 -0.6396036800162205 0.6959465126786228
917865 -0.6395652837474954 0.6960542389301152
918052 -0.6393442153644837 0.6962087108951388
918239 -0.639227932662488 0.6963193023750235
918426 -0.6391381368569422 0.6965715378105877
918614 -0.6391049427184359 0.6966893152619141
918801 -0.6390515566128733 0.6966082917045667
918988 -0.6389285882298967 0.6966561308865216
919175 -0.6389606453532923 0.6968668037862075
919363 -0.638706549958143 0.6969003828416807
919550 -0.6386632992267613 0.6970598673967592
919737 -0.6383794606540987 0.6970630398489057
919924 -0.6383130250034688 0.697197606573985
920111 -0.6381645192641897 0.697145717286856
920299 -0.6382607249962582 0.6973820648732322
920486 -0.6380852720365225 0.6974503800789368
920673 -0.6377230666468393 0.6975122358784268
920860 -0.6375463261574745 0.6976172572008627
921048 -0.6374839572784466 0.6977749966127742
921235 -0.6375351828992701 0.6979005733579702
921422 -0.6373597949856251 0.6980435262481333
921609 -0.6373244991993526 0.6981112207970721
921797 -0.6372254507240229 0.698054965372571
921984 -0.637009951979342 0.6980723677807963
922171 -0.6368276036211554 0.6982323550258246
922358 -0.6368369148509905 0.6984662567486424
922546 -0.6366618159406255 0.698643723773008
922733 -0.6366268690390205 0.6986519782290671
922920 -0.6364630905403321 0.6987403115241966
923107 -0.6363944814747653 0.6987983164557358
923295 -0.6362263086190242 0.6988616979483622
923482 -0.6361267033735808 0.6989336528450052
923669 -0.6359451643589866 0.6991816334362551
923856 -0.63585302071775 0.6992344363150771
924044 -0.6357306283574147 0.6993835608120461
924044 -0.6354807425180818 0.6994737042685354
924235 -0.6355091573383681 0.6995909081488084
924426 -0.6356093954274715 0.699527885269944
924617 -0.6354594337926296 0.699550956307527
924808 -0.6351610709605097 0.6994983235266642
924999 -0.6350800884221238 0.6996458201984243
925190 -0.6349762601392351 0.6998962143106644
925381 -0.6348525559478531 0.6998981526576963
925572 -0.6348992259485905 0.6999311470538484
925764 -0.6348519690065915 0.6999336256188533
925955 -0.6347897321361351 0.7001026328323595
926146 -0.6346550758614903 0.7003438128880705
926337 -0.6344733299958334 0.7002231799542291
926528 -0.6343588289267067 0.7005656788964968
926719 -0.6343239942289748 0.7006435191512427
926910 -0.6341357451403116 0.7008632814291319
927101 -0.6340266259295814 0.7008772517253443
927293 -0.6339369211746704 0.7009495205385432
927484 -0.6337619548678618 0.7011363227836989
927675 -0.633442094706182 0.7011937767990893
927866 -0.6333276250800028 0.7013849718119662
928057 -0.6332643551696284 0.7014669211773797
928248 -0.6332367555412355 0.7015641970530113
928439 -0.6331614137276466 0.7018104864102995
928630 -0.6329711528795331 0.7017406425876691
928822 -0.6328365663090966 0.7018042614854156
929013 -0.6326441337874349 0.7019110676711945
929204 -0.6325773028326732 0.702200107763216
929395 -0.6324862115226069 0.7023259505863432
929586 -0.632358318709395 0.7023716431565311
929777 -0.6322300675809532 0.7023449029816324
929968 -0.6322235734374426 0.7024991684531918
930159 -0.6319692758937695 0.7024934955255693
930350 -0.6317299244332416 0.7026413540215956
930542 -0.6316380250527891 0.7027571264111379
930733 -0.6316367088304241 0.7029577701223301
930924 -0.6315796922514642 0.7029758987598901
931115 -0.6312942265724756 0.7030547330892247
931306 -0.6313413796802777 0.7030733010377574
931497 -0.6311232257520477 0.7030627974183516
931688 -0.6310402416657539 0.703206698092646
931879 -0.630955301838302 0.7033099792227192
932071 -0.6307622250695893 0.7034772772223922
932262 -0.6307033611385476 0.7036447090967879
932453 -0.6305890460251609 0.7036892941052638
932644 -0.630427353380846 0.7036169774575276
932835 -0.6303114130370935 0.7038403088943599
933026 -0.6302391178450678 0.7039547481801786
933217 -0.6298747170032806 0.7040264894679056
933408 -0.6299283982838634 0.7042131226850182
933600 -0.629830419628512 0.7044445729239271
933791 -0.629665309011502 0.7044430391121592
933982 -0.6295959089347081 0.7045752527810614
934173 -0.6294496881091148 0.7045699909108574
934364 -0.6291933687191501 0.704670317513365
934555 -0.6290581832439383 0.70475638272336
934746 -0.6289832722318741 0.7049580909623745
934937 -0.6290009863416919 0.7052772790083668
935128 -0.6288888411418923 0.7053101554101164
935320 -0.628893307812804 0.7053697686841047
935511 -0.6288004941692261 0.7055242161099182
935702 -0.628565903113913 0.7053444110285785
935893 -0.6282669240530441 0.7053943137236185
936084 -0.6282082703079351 0.7055875479404611
936275 -0.6280735217597694 0.7058703881878631
936466 -0.62804991093372 0.7059211921634269
936657 -0.6279938096855627 0.7060405013337037
936849 -0.6277657761946357 0.7059733439433832
937040 -0.6277428503447859 0.7061574072920076
937231 -0.6275588203988418 0.7062282112906457
937422 -0.6274344179234745 0.7063198318407912
937613 -0.6273896380355047 0.7065217701751387
937804 -0.6273264545805496 0.7066373661266959
937995 -0.6273757129253974 0.7068197348017011
938186 -0.6271623104095025 0.7068110743812883
938378 -0.6269954747506182 0.7068511931659379
938569 -0.6266647418484006 0.7068597310863014
938760 -0.6266708572430517 0.70705880589791
938951 -0.6262787671739922 0.7071460099736157
939142 -0.626344123521614 0.7073289442604156
939333 -0.6262186963314551 0.707326404921005
939524 -0.6259121271467064 0.7072017386177248
939715 -0.6260536492385134 0.7073527719419863
939906 -0.625836060022966 0.7075223511508151
940098 -0.6255119780548315 0.7075125016866843
940289 -0.6254884309614424 0.7078007223591564
940480 -0.6254032751875351 0.7079187251923453
940671 -0.6253786196945403 0.7080623447429333
940862 -0.6252606880648458 0.7078519194301096
941053 -0.6250863122989748 0.7080957422162841
941244 -0.6246910989174119 0.7082587893296387
941435 -0.6244154358061342 0.7084613765527692
941627 -0.6241308317038011 0.7087853077525696
941818 -0.6238536540688758 0.7089729384355349
942009 -0.6237645317111902 0.709162343598685
942200 -0.6233950349912527 0.709301835608508
942391 -0.6232135670755659 0.7093738184185193
942582 -0.6233444384930111 0.7094585966999294
942773 -0.623249863484956 0.7093783857514124
942964 -0.6233369758918291 0.7094901112548366
943156 -0.6234949446266956 0.7096192311701951
943156 -0.6230144856936168 0.7096182698326411
943351 -0.6233885728093008 0.7094096461876567
943546 -0.623590167690565 0.709600533133905
943741 -0.6235953725677027 0.7094225221111145
943936 -0.6235257321291697 0.7093165493591698
944131 -0.6234332338037802 0.7096109510591869
944326 -0.6231516827236377 0.7097688670370227
944521 -0.623007481753477 0.70996732753489
944716 -0.622827199577999 0.7102002473034648
944911 -0.6227531358726878 0.7102957840920431
945106 -0.6224090885951326 0.7102662657480086
945301 -0.6221268793869702 0.7105026440739194
945496 -0.6220328659173362 0.7106005980017298
945691 -0.6220186962271548 0.7107247782332125
945886 -0.6218866986813855 0.7107204885121092
946082 -0.6218704706656767 0.7108029214058389
946277 -0.6217624121232291 0.7109066538355029
946472 -0.6217802169094558 0.7108677175291604
946667 -0.6217138990572121 0.7110961066154635
946862 -0.6215026475627418 0.7110893991895575
947057 -0.6213032028905764 0.7112922948784983
947252 -0.621148841377342 0.7113885963741623
947447 -0.621231925338524 0.7116753122930185
947642 -0.6209873792775017 0.7115589324253108
947837 -0.62098867931033 0.7116979147772143
948032 -0.6207660161945396 0.7118284476839983
948227 -0.6205448408596105 0.7118611369469358
948422 -0.6203359418946368 0.7120669791349378
948617 -0.6203651379736529 0.7122376956895236
948813 -0.6202774572957199 0.712222997343351
949008 -0.6201872582260914 0.71226417281516
949203 -0.6201438518994294 0.7123325577593965
949398 -0.6200180300136989 0.7124488625576758
949593 -0.6198030247963462 0.7124489409118453
949788 -0.6197188813161411 0.7127244291992239
949983 -0.6197180418904741 0.7128601922905565
950178 -0.6195683234605146 0.7130017603654044
950373 -0.6194587442419347 0.7131105408333593
950568 -0.6192543478919791 0.7130958216561185
950763 -0.6190398725257992 0.7131448924886887
950958 -0.6189409217272424 0.7132763203092699
951153 -0.6188742005736669 0.7135290416973536
951348 -0.6186530809946051 0.7135126245298659
951544 -0.6186035043042488 0.7136893248444655
951739 -0.6185411217471578 0.7136488543559611
951934 -0.6183588661406744 0.7135437357229619
952129 -0.6182046447883932 0.7137433540910272
952324 -0.6182185490198404 0.7139607977615668
952519 -0.6179188472040619 0.7138988826653174
952714 -0.6178625036063116 0.7141332825750154
952909 -0.6178060529201451 0.7142354549630372
953104 -0.6175706964412905 0.7143453527463801
953299 -0.6175773677202347 0.7144596662822105
953494 -0.6171803746893089 0.7145181894036774
953689 -0.6171025844264896 0.7146864334642787
953884 -0.6169908068765202 0.7148386768982535
954079 -0.6168481956725607 0.7150127457359966
954274 -0.6167308128290941 0.715095064753385
954470 -0.6167199621887695 0.7151602664400001
954665 -0.6165702303368916 0.7151659785357969
954860 -0.6162840438570331 0.7152419725727638
955055 -0.6162149305138218 0.7153277365171832
955250 -0.6160514002806492 0.7153826118790753
955445 -0.616005075208713 0.7154152644556958
955640 -0.6157618813581944 0.7155316812497661
955835 -0.6158667457537833 0.7157531157120552
956030 -0.615604510057525 0.7157025093509715
956225 -0.6154750928883516 0.7158198477385808
956420 -0.6153303983566772 0.7159369135743864
956615 -0.6152767779151268 0.716145174482915
956810 -0.615037086546923 0.716336558468689
957005 -0.6150078554693948 0.71644331680077
957201 -0.6149946888484881 0.7165288987659136
957396 -0.6148659487796261 0.7165479285346057
957591 -0.6147527237563958 0.7167423311933739
957786 -0.6143938804107619 0.7167590310583756
957981 -0.6144096724116356 0.7170585131600733
958176 -0.6141641030480672 0.7169759673055413
958371 -0.6142069737254303 0.717262481728594
958566 -0.613968882067679 0.7172681796059835
958761 -0.6140011607909078 0.7174218411731234
958956 -0.6136970356699176 0.717296634426431
959151 -0.6136026113150266 0.7176134172434263
959346 -0.6134067923118963 0.717625516719733
959541 -0.6133906015465725 0.7177300125859642
959736 -0.613292543842059 0.7178119579619859
959932 -0.6130983353346483 0.7177942319890122
960127 -0.6129456715963777 0.7179100828246655
960322 -0.6127684996932057 0.718105279395168
960517 -0.612592527989194 0.7181631882992487
960712 -0.6125037315852964 0.7182570398314733
960907 -0.6125964743593794 0.7184870567065591
961102 -0.6123556919336091 0.71853070718427
961297 -0.6123043584408113 0.718673598040477
961492 -0.6121457742602682 0.7185840097490972
961687 -0.6119302048468535 0.7187693723823659
961882 -0.6117369668015078 0.7187315798900592
962077 -0.611568003080787 0.7189776489881137
962272 -0.6115855059582211 0.7191389936016103
962467 -0.611499098874557 0.7192216410151263
962663 -0.6115011485399563 0.7193857898752545
962663 -0.6112671273097525 0.7195286723109272
962862 -0.6114033429208023 0.7195683080896371
963061 -0.6111861950813087 0.7195938187364221
963260 -0.6109734169468622 0.7195344277348226
963459 -0.6109483602703544 0.7197093647077065
963658 -0.610773264767224 0.7198113825775765
963857 -0.6106636263708108 0.7198714440250441
964056 -0.6104673306675282 0.7199909974566615
964255 -0.6103598422466315 0.7200684286278106
964454 -0.6102320507363725 0.7200110782664007
964654 -0.6100705740222983 0.7202146724883919
964853 -0.6100433879131818 0.7204261387062562
965052 -0.6099213715881642 0.7204052809171976
965251 -0.6099597681794188 0.7204511739320711
965450 -0.6098444616669363 0.7203497084708484
965649 -0.6098503673771827 0.7205610690827648
965848 -0.6094517022809256 0.7206154570295311
966047 -0.6092899115030797 0.720897124231107
966246 -0.6092821026386209 0.7209830833291814
966445 -0.609063418523162 0.7211086130000598
966645 -0.6088751526482203 0.7211987087682815
966844 -0.6087670419048925 0.7213228165384813
967043 -0.6084736661672887 0.7213118643782513
967242 -0.6081926874469785 0.7215135659660409
967441 -0.6080528204501976 0.7214657364945676
967640 -0.6082370940500476 0.7217402034479685
967839 -0.6080335800339585 0.7219686141611122
968038 -0.6080671274414011 0.72193977559543
968237 -0.6080504158998219 0.7221498874631148
968436 -0.6077409986397824 0.7219852343981604
968636 -0.6076521844734757 0.7221331258542929
968835 -0.6074794836201616 0.722289107774893
969034 -0.6073093064417671 0.7224695479255463
969233 -0.6074127262986364 0.7225973006411481
969432 -0.6072503886447784 0.7225052359802449
969631 -0.6072511896560132 0.722616300169147
969830 -0.6069004821842255 0.7226345577579639
970029 -0.6067792169137665 0.7226708735354681
970228 -0.6066032925761818 0.7229175315645432
970427 -0.6066060835949852 0.7231488857569215
970627 -0.6064402085323853 0.7231985519373327
970826 -0.6064042122807848 0.7232514205082697
971025 -0.606395944594713 0.7233939960426383
971224 -0.606123275202431 0.7233171669370367
971423 -0.6059481604253854 0.7234486735683184
971622 -0.6058789533077531 0.723890523284513
971821 -0.6058087656882089 0.7239629029800224
972020 -0.6057172240693673 0.7240351584338546
972219 -0.6055086425770698 0.7239890606521031
972418 -0.605394764462342 0.7241828596119421
972618 -0.6052259925167349 0.7243330987129499
972817 -0.6049241508149115 0.724286013691372
973016 -0.6047152398759615 0.7245223315157464
973215 -0.6045884933626474 0.7246530358940791
973414 -0.6046167580602884 0.7246597729080192
973613 -0.6044778202774108 0.7247921049793469
973812 -0.6043794661128166 0.7248729657696179
974011 -0.6042123989822078 0.7248406407217954
974210 -0.6041327945131365 0.7249612034047713
974409 -0.6040466671442164 0.7251321797290498
974609 -0.6038985382968964 0.7252828688576258
974808 -0.6038035020155559 0.7254286899968538
975007 -0.6037028848192028 0.7254869493467363
975206 -0.6034788142872707 0.7254488442803506
975405 -0.603408775691608 0.7257155525358103
975604 -0.6031674006500244 0.7257310199455583
975803 -0.6031272403651973 0.7259747265018613
976002 -0.6029914026732099 0.7260056668755498
976201 -0.6028213042648818 0.7262165536889094
976400 -0.6028908480042542 0.7261671118358415
976600 -0.602636975652825 0.726070328414932
976799 -0.6024770389784482 0.7262645866933273
976998 -0.602288505127836 0.7263029104238407
977197 -0.6021505563327046 0.7262005829447941
977396 -0.6021308611700873 0.7264496715125537
977595 -0.6021792937668852 0.7266097270345018
977794 -0.6019899308168376 0.7266781722135811
977993 -0.6019955984037823 0.7267839658116076
978192 -0.6017593532301306 0.726935510804771
978391 -0.6016742765516927 0.7270909260687112
978591 -0.6015277859659282 0.727240745247866
978790 -0.6015132332665257 0.7274266717197199
978989 -0.6013538881759376 0.7273423457349996
979188 -0.601268500526731 0.7274290885843334
979387 -0.601065336494263 0.7274920219807038
979586 -0.6007420699998394 0.7275586661981832
979785 -0.6005639411823142 0.7276314575616243
979984 -0.6003359591229204 0.7278913845849039
980183 -0.6000216327711428 0.727787979680078
980382 -0.6001291833940492 0.7279384562866765
980582 -0.6000025603921416 0.7280198058535975
980781 -0.5999781053606843 0.7282750563425756
980980 -0.5998100787000151 0.7283927720310792
981179 -0.5995969462469782 0.7284544438588776
981378 -0.599639535298025 0.7286767217723138
981577 -0.5996321457874895 0.7289643514364105
981776 -0.5996132826077829 0.7289465522035627
981975 -0.5994161858788614 0.7289800323962229
982174 -0.5991534630055447 0.7290499085207472
982373 -0.5990704902967617 0.7291512603389522
982573 -0.5987790954436394 0.7291408802222555
982573 -0.5993490611133445 0.7293925320332215
982776 -0.5989697510706402 0.7293916477318474
982979 -0.5986422355165429 0.7293947834993861
983182 -0.5984021433098908 0.7292017516466475
983385 -0.5983274672024215 0.729453743883818
983589 -0.5980763242954551 0.7294879744010949
983792 -0.597934821852626 0.7296469291147032
983995 -0.597791101974956 0.7298610081599801
984198 -0.597669602487932 0.7300166309158773
984402 -0.5975447835811099 0.7300090838359574
984605 -0.597500284353203 0.7301925610916561
984808 -0.5974042678437644 0.7302780409842246
985011 -0.5972252006630705 0.7302628310884031
985214 -0.5970481517613602 0.7304542338665616
985418 -0.5969116970075292 0.7305409416951881
985621 -0.5967447632426658 0.7306750092869222
985824 -0.5967077832664113 0.7307197500124067
986027 -0.5966207416407372 0.7308411023838997
986231 -0.5963291631338482 0.7307734744283132
986434 -0.596222885304556 0.7309821976555004
986637 -0.5959898021651054 0.7311500181914674
986840 -0.5958267350126957 0.731297146775151
987044 -0.5957128302881873 0.7313348258466618
987247 -0.5957186943203794 0.7314762636473617
987450 -0.5954261678319869 0.7313303188280798
987653 -0.5954008962420716 0.7316943547759527
987856 -0.5952391376734384 0.7317372608110507
988060 -0.5950739960837842 0.7319349468762646
988263 -0.5948869975594426 0.7321584089650423
988466 -0.5948102600332036 0.732276485311079
988669 -0.5946850130771573 0.7322898311509091
988873 -0.5946267007591455 0.7322704244423323
989076 -0.5945395071583511 0.732336556097249
989279 -0.5943777210600273 0.732536319638421
989482 -0.5941904565365835 0.732616431655
989686 -0.5941291586901902 0.7327567092805364
989889 -0.5941135774082624 0.7329368000169805
990092 -0.5940550002582646 0.7329683152186265
990295 -0.5939356742647321 0.7330211458681118
990498 -0.5937284506116295 0.7330776427985433
990702 -0.5936211140140549 0.7331465845141849
990905 -0.5935351401886341 0.7333853424515304
991108 -0.5934097069342829 0.7335152742776465
991311 -0.5932224292990125 0.7336441741532013
991515 -0.5931470463982246 0.733440694368699
991718 -0.5928383759458954 0.7334394634591967
991921 -0.5927409855402769 0.7334834055969656
992124 -0.5925561176835642 0.7337654918359705
992328 -0.5923797843018176 0.7338723098340851
992531 -0.5923433933273204 0.7339669663359496
992734 -0.5923603185421086 0.7340899344590385
992937 -0.5922652411243764 0.734018757065427
993140 -0.5919923094534069 0.7341044011897139
993344 -0.5917704294673778 0.7343019104598322
993547 -0.5916511880114366 0.734298719576359
993750 -0.5913775715343345 0.7343568720186052
993953 -0.591479016617939 0.7346269385605665
994157 -0.5912588698588441 0.7346860548974787
994360 -0.5913002350098037 0.7348785919144076
994563 -0.5910990193084206 0.7349889911511023
994766 -0.5907761821128683 0.7350378105836722
994970 -0.5906901692500437 0.7352506037526778
995173 -0.5906315434772937 0.7353798117535731
995376 -0.5905411889944162 0.7352739849986674
995579 -0.5905750502146209 0.7354895745912805
995782 -0.5905307238847107 0.7355907221147041
995986 -0.5903407184121098 0.7356619690230677
996189 -0.5900521349058446 0.7356966010612236
996392 -0.5899152172904291 0.735808482069358
996595 -0.5897849581071304 0.7359566823761707
996799 -0.5897360440977104 0.7360530471331991
997002 -0.5896978781348836 0.7361865590072199
997205 -0.5893423822546212 0.7363651285236585
997408 -0.5892322365475063 0.7364810080653272
997612 -0.5890777130459142 0.7367990115815048
997815 -0.5888104418393073 0.7366627557855107
998018 -0.5887989685327136 0.7371197761134073
998221 -0.5887957058089173 0.7370378745434627
998424 -0.5887252812310962 0.7369916107793676
998628 -0.5884821772151277 0.7369114426828066
998831 -0.5884301645325031 0.7370871156463861
999034 -0.5882915041693122 0.7371491994396127
999237 -0.5881262125652402 0.7372077278526261
999441 -0.5880942247497303 0.737491306102203
999644 -0.5880798995850121 0.7374584904071227
999847 -0.5877990942382197 0.7374887413311507
1000050 -0.5875798561917945 0.737598472044879
1000254 -0.5874735874344232 0.7378858738768989
1000457 -0.587256817222695 0.7380525611837309
1000660 -0.5871507022313848 0.7381271767333715
1000863 -0.5870638925203688 0.7382960158965591
1001066 -0.5869942143012113 0.7383931981509534
1001270 -0.5868700823224087 0.7384725261133517
1001473 -0.5866401380938376 0.7384947805935255
1001676 -0.5863641443890951 0.7386499303474154
1001879 -0.5862604349516766 0.73887677593471
1002083 -0.5861799035928736 0.739013209246257
1002286 -0.5860853941358874 0.739036328328181
1002489 -0.5859027491677704 0.7390098168484893
1002692 -0.5857801262864402 0.7391191904696865
1002896 -0.5856527102421317 0.7391684952376565
1002896 -0.5854270004087605 0.7389354907046691
1003103 -0.5852749670207089 0.7393273453851046
1003310 -0.5853063509753973 0.7395338250454414
1003518 -0.5852167810267855 0.739588695065691
1003725 -0.5851489010684877 0.7396029711313883
1003933 -0.5851262236093971 0.7396739568329095
1004140 -0.5849400891156162 0.739685528605211
1004347 -0.5847443524982842 0.7398003668833807
1004555 -0.5845948342296521 0.7398366359019146
1004762 -0.5844623815851624 0.7399719079175242
1004970 -0.5842791630146199 0.739896526824331
1005177 -0.5841974469084076 0.739917852882475
1005385 -0.5839865590322642 0.7400467706615308
1005592 -0.5839585393721519 0.7402428478487499
1005799 -0.5837864662340023 0.7404860730094235
1006007 -0.5837536426057327 0.7406966230102628
1006214 -0.5836660263268134 0.7409400427955015
1006422 -0.5835712165793636 0.7409746169727613
1006629 -0.5833598236681694 0.7410620768447903
1006836 -0.5833107113419643 0.7410623290495034
1007044 -0.5831933942804715 0.7412673563219039
1007251 -0.582947178258726 0.7412340230135225
1007459 -0.5827165152390017 0.7414554745780487
1007666 -0.5826123339886067 0.7413342717119713
1007874 -0.5824763855725461 0.7413358447025286
1008081 -0.5823010272964516 0.741354189002612
1008288 -0.5821435608820975 0.7415062731478332
1008496 -0.582006476461786 0.7416679633280687
1008703 -0.5818355930011174 0.7418822271306529
1008911 -0.5818133841418227 0.7420389445561945
1009118 -0.5818292207574383 0.7422107543206243
1009326 -0.581692634378532 0.7421448468191023
1009533 -0.5815228508689869 0.7423093406789686
1009740 -0.5812609637134472 0.74228596756603
1009948 -0.5810783591501032 0.7423883027997381
1010155 -0.5810515328408665 0.74269990780228
1010363 -0.581042643638068 0.7427213040150793
1010570 -0.5808734124484299 0.7426951680030972
1010777 -0.580698741328336 0.7427410338813984
1010985 -0.5805572651383275 0.7427350056747771
1011192 -0.5803478017005391 0.742986498125102
1011400 -0.5801486293434321 0.7431925914173169
1011607 -0.5800405263589589 0.7433436621958079
1011815 -0.5799038591104195 0.7435790523491348
1012022 -0.579824797931385 0.7434711956944958
1012229 -0.5796948269899427 0.7436866013475888
1012437 -0.5794712305485687 0.7438157150767367
1012644 -0.5793878389677507 0.7438123554445835
1012852 -0.5792615970571473 0.7440202490179126
1013059 -0.5790448188354103 0.7440460295705542
1013267 -0.5789521207141404 0.7441026208012065
1013474 -0.5788339160882467 0.7440495605531324
1013681 -0.5786331820524216 0.7440985413272047
1013889 -0.5785707004887771 0.7441996369335949
1014096 -0.5784586081769195 0.7444112025773705
1014304 -0.5782136217041999 0.7445336280977249
1014511 -0.5781673048717081 0.7446184857959893
1014718 -0.5782638292344681 0.7448160175358798
1014926 -0.5780121980916865 0.7448459179418517
1015133 -0.5779069898981275 0.744841061601504
1015341 -0.5776245938852949 0.7450024407808017
1015548 -0.5774740299745329 0.7451622107568558
1015756 -0.5772657462195032 0.7451878949411074
1015963 -0.577184572571323 0.7453874743678868
1016170 -0.577156335546845 0.7455834532802745
1016378 -0.5767717273196085 0.7454995442535997
1016585 -0.5766632993424262 0.7458027811315384
1016793 -0.5763573725386567 0.7458419380588587
1017000 -0.576398166319064 0.7462344632306762
1017207 -0.5762240761820517 0.7461366197434356
1017415 -0.5761847018903441 0.7462681757374647
1017622 -0.5760369007945343 0.746217762399952
1017830 -0.5759259992164479 0.7463551696907978
1018037 -0.5759587477983774 0.7465951279628424
1018245 -0.5757665179011501 0.7465674743424442
1018452 -0.575653459732078 0.7467371366284602
1018659 -0.5755981913196487 0.746757121794598
1018867 -0.5753828137906797 0.7468486252659756
1019074 -0.5752914496201175 0.7468304483204637
1019282 -0.5750913260963633 0.746935498871164
1019489 -0.5747971774715073 0.747036245059615
1019697 -0.5746857893305538 0.7471764577848444
1019904 -0.5745753590090316 0.7471147812381066
1020111 -0.5744925878327998 0.7472344868252172
1020319 -0.5745200394343415 0.7474230018648295
1020526 -0.5743205769708817 0.7474296758722118
1020734 -0.5741586883025844 0.7474677108590037
1020941 -0.5739407966916399 0.7476208548396361
1021148 -0.5737019749267209 0.7476519434295127
1021356 -0.5736282702020732 0.7477404459360472
1021563 -0.5735734264760519 0.7478399392096279
1021771 -0.5733253752928787 0.7479165454840041
1021978 -0.5732393700001539 0.7480719910430493
1022186 -0.5731314432050633 0.7483824594136755
1022393 -0.5728177257546669 0.748289952173609
1022600 -0.5728552449136813 0.748533768644955
1022808 -0.5727421812091636 0.7485989921082526
1023015 -0.5727234609310816 0.7484724783953873
1023223 -0.5724644492906619 0.7484812023650182
1023430 -0.572213081856014 0.7486237241185534
1023638 -0.5721902597370202 0.7487006010409238
1023638 -0.572814694919647 0.7489999844858033
1023849 -0.5723047300453349 0.7488058325246073
1024061 -0.5720037573878013 0.748965982000666
1024273 -0.5719041497379149 0.7490134748011612
1024484 -0.5716814470124469 0.749187483676887
1024696 -0.5714766655059235 0.7491704994799876
1024908 -0.5711358653189059 0.7492143109934585
1025120 -0.5710716573507519 0.7495451609263197
1025331 -0.5710149736423369 0.7496742297623734
1025543 -0.5711429490312803 0.7501120173328333
1025755 -0.5708682978471452 0.7499967650262926
1025966 -0.5706413144782106 0.7500406397466302
1026178 -0.5705557280078924 0.750049702836256
1026390 -0.5703002226934764 0.7500609531300733
1026602 -0.5701266671670526 0.7501446282810815
1026813 -0.5701523116789947 0.7504320710075901
1027025 -0.56998237955562 0.7504346042755825
1027237 -0.5700263504364167 0.7505783227095406
1027448 -0.5696620149294933 0.7506013618095004
1027660 -0.5695403450049971 0.7508120332510917
1027872 -0.5693780760219642 0.7510145843874849
1028084 -0.569258343262594 0.7511211170901356
1028295 -0.5691240090883127 0.7511683104242717
1028507 -0.5688406661267518 0.7511122207211378
1028719 -0.5688451999463237 0.7512804865066286
1028931 -0.5685462337365003 0.7511951184169142
1029142 -0.5685525985902921 0.7514735148312222
1029354 -0.5683857481420904 0.7515119481674828
1029566 -0.5682217021956758 0.7517827681948998
1029777 -0.5680651265914622 0.751813765170001
1029989 -0.5679747185323523 0.751880060312801
1030201 -0.5677933201492361 0.751909670897053
1030413 -0.5676192406270335 0.7520389728424969
1030624 -0.567436289432982 0.7522714195691779
1030836 -0.5673193412226747 0.752333800288938
1031048 -0.5672705479326475 0.7524110400278187
1031259 -0.5672828321095411 0.7525442362796602
1031471 -0.5671825030696321 0.7525949928246607
1031683 -0.5669016394353421 0.7526800694615373
1031895 -0.5667180382826256 0.7526738198274984
1032106 -0.5666597204151766 0.7529084344559692
1032318 -0.5666444226347114 0.7530665849248034
1032530 -0.5665424717588426 0.7530532188049925
1032741 -0.5663456130842043 0.7531378409020222
1032953 -0.5661036955208084 0.7530185131467465
1033165 -0.5658238141276469 0.7531983850117214
1033377 -0.5658024687886452 0.7534804107348582
1033588 -0.5656084483044084 0.7535150042496064
1033800 -0.5654026832760507 0.7536406671045783
1034012 -0.5652999359956747 0.7537883762191907
1034224 -0.5650516408342753 0.7537162765492482
1034435 -0.5648442265420919 0.7539049140144463
1034647 -0.564715418084675 0.7540483583615056
1034859 -0.5647308879231833 0.7543123972459806
1035070 -0.564512493281774 0.754352329608942
1035282 -0.5645129816134004 0.7543437502725429
1035494 -0.5642666826919986 0.7543709954834392
1035706 -0.564081954251827 0.7544312761789653
1035917 -0.5639405050058326 0.7547131793724109
1036129 -0.5638980548163672 0.7549450426024248
1036341 -0.5638293901655035 0.7551216401877255
1036552 -0.5638003320814554 0.7552974176156266
1036764 -0.5636408126931499 0.7551716236612518
1036976 -0.5635835484980387 0.7552765186749928
1037188 -0.5634372285289626 0.7554179167644631
1037399 -0.5632519991137921 0.7554629172496754
1037611 -0.5630409374975511 0.7555926765365598
1037823 -0.5629214459458018 0.7556633388913407
1038034 -0.56276918899524 0.7556586045198342
1038246 -0.5625257419924083 0.755704980298198
1038458 -0.5622740999281184 0.7558861874793594
1038670 -0.561999994081012 0.7559233687141917
1038881 -0.5619871437023732 0.7561202529073748
1039093 -0.5620129081077756 0.7562557061408403
1039305 -0.5618597737314773 0.7564005688248566
1039517 -0.5617941303051016 0.7563943546167649
1039728 -0.5617452483343185 0.7565484385292277
1039940 -0.5613527379811958 0.7565030520961659
1040152 -0.5613311323929883 0.7568573414993289
1040363 -0.5612420907468674 0.7569722769314746
1040575 -0.5611007055786185 0.7569064524553066
1040787 -0.5609632525805464 0.7569522691718966
1040999 -0.5607434910767292 0.7570680323121489
1041210 -0.5605983363641066 0.7571025095154398
1041422 -0.5603841374340135 0.7572264339593068
1041634 -0.5601480602996757 0.7573477888388341
1041845 -0.5602552065441462 0.7576554011791019
1042057 -0.5600790051178061 0.7576162240086957
1042269 -0.5599750621767998 0.7575773157262736
1042481 -0.559909896429832 0.7576318932960253
1042692 -0.5596780495244933 0.7578262108787194
1042904 -0.5594220096251246 0.7578568685968757
1043116 -0.5593909659236374 0.7580675998772302
1043327 -0.5593019160329611 0.7580989067287927
1043539 -0.559008479658345 0.7580042110326981
1043751 -0.5588611462443788 0.7580145550134645
1043963 -0.5586835980596259 0.7580292697484066
1044174 -0.5584552879001365 0.7581303398443332
1044386 -0.5582904417480746 0.7582875079111203
1044598 -0.5582350109466288 0.7584878951753882
1044810 -0.5580041856075542 0.7584051223978697
1044810 -0.5579170822941732 0.7586025201197121
1045026 -0.5579577907295977 0.7585454097291789
1045242 -0.5579018820613857 0.7585288486019803
1045458 -0.5578720426936354 0.7588405624813414
1045674 -0.5576925041036163 0.7589313086608445
1045890 -0.5575242003459112 0.7590413600146583
1046106 -0.5573647149965552 0.7592205828181735
1046322 -0.557277962469539 0.7592902771802903
1046538 -0.5571214285752164 0.7593057666480937
1046754 -0.5567322132265542 0.7594140997304263
1046970 -0.5565905843445316 0.7596672559015378
1047186 -0.5564270055271895 0.7597410729152004
1047403 -0.5563831032533764 0.759999303445919
1047619 -0.556282396782097 0.7600701223059362
1047835 -0.5561689187000196 0.7599960365465579
1048051 -0.5558033242024768 0.7600020372253969
1048267 -0.5557755607596435 0.760147599974969
1048483 -0.555804996039275 0.7604227115635351
1048699 -0.5556130956528973 0.7603861436758003
1048915 -0.5555514353229983 0.7605667163704802
1049131 -0.5553806275438538 0.7605352076394541
1049347 -0.5552081804967528 0.7606484363081569
1049563 -0.5550157654838624 0.7608280391571145
1049780 -0.5548168546386827 0.7610195566452964
1049996 -0.5546426392027942 0.7611383420621995
1050212 -0.5545060552564774 0.7612441288245138
1050428 -0.5545707836500906 0.7613513443897866
1050644 -0.5544012773509649 0.7612974466977034
1050860 -0.5540836620030261 0.7614469880265784
1051076 -0.5539159094661815 0.761600494403182
1051292 -0.5537983549820917 0.761615006664132
1051508 -0.5537008812324774 0.7615827795795259
1051724 -0.5536623137616321 0.7617322200864761
1051940 -0.5537184236028426 0.7618208901944101
1052157 -0.5533046341856106 0.7618852919204442
1052373 -0.5530772960563605 0.7620941970443945
1052589 -0.5529453166139603 0.7622549282426129
1052805 -0.5527872906200315 0.7623697675866543
1053021 -0.5527473153069906 0.7624631265753355
1053237 -0.5525417382772748 0.7624884249204459
1053453 -0.5525173489279857 0.7625131583713399
1053669 -0.5522336759427452 0.7626444201773586
1053885 -0.5521689559090287 0.7627852149624644
1054101 -0.55211904910679 0.7628687166406887
1054317 -0.5520554629789818 0.7630256479816221
1054534 -0.5518710034135075 0.7629931283531731
1054750 -0.5517332489255549 0.7630414932692166
1054966 -0.5515753883429325 0.763063681067339
1055182 -0.551370524022967 0.7633615967055205
1055398 -0.5512925654426934 0.7634653208998047
1055614 -0.5510634413278142 0.7636742740833244
1055830 -0.5510562491655758 0.7637022549886494
1056046 -0.5508453230565726 0.7637379028228277
1056262 -0.5504890798478473 0.763712405264631
1056478 -0.5503439417933758 0.7639360689311844
1056694 -0.5503418903229538 0.7640241870619335
1056911 -0.5503415680054651 0.7641726747742991
1057127 -0.5501155695521109 0.7641859988929639
1057343 -0.5499479644580912 0.7641138004334661
1057559 -0.5496236221291465 0.7640175749875134
1057775 -0.54943829635665 0.7642706036002737
1057991 -0.5492743428124981 0.7644959510617175
1058207 -0.5491781286395884 0.7647186298632689
1058423 -0.5491641332319419 0.764834717023747
1058639 -0.5490134921801009 0.7650720359693645
1058855 -0.5487383336703738 0.765088570941364
1059071 -0.5484796496582228 0.7651336336803577
1059288 -0.548458075505083 0.7654340176647956
1059504 -0.5483603625600303 0.7654088694527778
1059720 -0.5482787455088616 0.7654459702797872
1059936 -0.5481644326329685 0.7655086257363145
1060152 -0.5479857623459854 0.765586204204726
1060368 -0.5478105394862519 0.7654231195243656
1060584 -0.5475833437702845 0.7655992062892508
1060800 -0.5475097636274584 0.765931731147691
1061016 -0.5471678689208588 0.7658052467932682
1061232 -0.5471047911645719 0.7659067323252564
1061448 -0.5471279128277248 0.7661035825841963
1061665 -0.5469069725283833 0.7662614477860907
1061881 -0.5466262178231462 0.7662782554083313
1062097 -0.5465913571963612 0.7665782374235676
1062313 -0.5465438948198083 0.7666495311315018
1062529 -0.5464195697652323 0.7667870262916014
1062745 -0.5463806716646813 0.7668384006220927
1062961 -0.5459992028734384 0.7667882336905631
1063177 -0.5460487958460069 0.767006557886549
1063393 -0.5458071645918707 0.7671100282702265
1063609 -0.5457229968860973 0.7673330765855331
1063825 -0.5456260981518788 0.7674311549108955
1064042 -0.5454133763049639 0.7674638421906984
1064258 -0.5453818438237934 0.7674464537771806
1064474 -0.5452122207014425 0.7676085888762125
1064690 -0.5449679935888456 0.767642284534638
1064906 -0.5449104748258438 0.7678050233641588
1065122 -0.5448021848899268 0.768010352723578
1065338 -0.5445615158544319 0.7680861129019126
1065554 -0.5444832423976659 0.7680499501990189
1065770 -0.5443287365683152 0.7680103105825331
1065986 -0.544012180686012 0.7681700806243186
1066202 -0.5438491099997453 0.7682641876311697
1066419 -0.5436624743845097 0.7684025282714295
1066419 -0.5432539240069058 0.7684535977657114
1066639 -0.5435182944795715 0.768545468922264
1066860 -0.5435048851633327 0.7685747031778934
1067080 -0.5433247861922244 0.7686782168913012
1067301 -0.5431589966736201 0.7687759389113886
1067521 -0.5430039980251706 0.7689509532031653
1067742 -0.5428570494694589 0.7690161784699432
1067962 -0.5427171127359652 0.7691270650401906
1068183 -0.54272817891914 0.7693900015372371
1068404 -0.5422943955535284 0.7691325499249203
1068624 -0.5421957874874095 0.7695051977866311
1068845 -0.5419702773075694 0.7695916726313042
1069065 -0.5419282433575671 0.7698102086373184
1069286 -0.5417613329802242 0.7698397474660688
1069506 -0.5418318722390248 0.7699502790822533
1069727 -0.5415999231430562 0.770017665575079
1069948 -0.5414381389634125 0.7701128948243431
1070168 -0.5412948644837153 0.7702777891597296
1070389 -0.5412083171365141 0.7703920079423808
1070609 -0.5409710100220866 0.7703100846015781
1070830 -0.5408913379821607 0.7704914439828966
1071050 -0.5408971677718505 0.7704747417419643
1071271 -0.5405556289357673 0.7706502842667109
1071492 -0.5402968838746862 0.7707049789392302
1071712 -0.5400660302692271 0.7707060714623635
1071933 -0.5399751463873329 0.7709591391906031
1072153 -0.5398033328542873 0.7709655016712196
1072374 -0.5396476512668484 0.7708801107681554
1072594 -0.5394698129060497 0.7710771044193547
1072815 -0.5392955884852221 0.7712391714167186
1073036 -0.5392493565149118 0.7713795298624201
1073256 -0.5390570187577787 0.7715924409957131
1073477 -0.5389890356998093 0.7716406410405448
1073697 -0.5388289131197856 0.7715409434714763
1073918 -0.5388753914913449 0.7717992431479033
1074138 -0.5385042172053384 0.7718779866130585
1074359 -0.5382759869027611 0.7718452247320038
1074580 -0.5382426968624313 0.7722166990524637
1074800 -0.5381364607858563 0.7722577845911114
1075021 -0.537920174297748 0.7722417810894331
1075241 -0.5377822759056241 0.7723227612981983
1075462 -0.5376587490337722 0.7724419659772273
1075682 -0.5375025061318076 0.7725257531233493
1075903 -0.5373329441985315 0.7726886309675162
1076124 -0.5372770319242476 0.7726852142800146
1076344 -0.5371682304610483 0.7727873219082418
1076565 -0.536986975256071 0.772726977299567
1076785 -0.5368171554883753 0.7730280935197037
1077006 -0.536727476602658 0.7731058141577268
1077226 -0.5364983520043147 0.7731839310837112
1077447 -0.5363173158687736 0.7733119104520766
1077668 -0.5362340168484224 0.773337183974213
1077888 -0.5360404924129374 0.7735145951766176
1078109 -0.5359968371850973 0.7736002067219222
1078329 -0.5357415739932481 0.7737712917937659
1078550 -0.5356064992991993 0.7738534672276509
1078770 -0.535487426389282 0.7738549557263604
1078991 -0.5354367509450704 0.7739766628007543
1079212 -0.5351735624002244 0.7739322323443929
1079432 -0.5350159455079369 0.774022413605104
1079653 -0.5349196958681925 0.7740353751376686
1079873 -0.5346363909829315 0.7742765553133151
1080094 -0.5345019633786453 0.7743789937307021
1080314 -0.5343601578269521 0.7745986891423726
1080535 -0.5341975555706621 0.7747384993673405
1080756 -0.5340893518034254 0.7748277282900388
1080976 -0.5338372307315197 0.7749116930094574
1081197 -0.5337982866917238 0.7751250261649429
1081417 -0.5335230354010975 0.7751807875491051
1081638 -0.533493149015098 0.775275378838916
1081858 -0.5334192620248099 0.7751675933433609
1082079 -0.533316410238872 0.7751007673042736
1082300 -0.5329551674951621 0.7752441508554714
1082520 -0.5329005595889366 0.7753017108510174
1082741 -0.5328599855617195 0.7756306828057962
1082961 -0.5327598286875486 0.7757871709509792
1083182 -0.5325802194833972 0.7758580288177132
1083402 -0.5322917411228174 0.77577341135789
1083623 -0.5321542609469594 0.7760257923139217
1083844 -0.5320974754238993 0.7760354956505953
1084064 -0.5318559493146953 0.7763149976961913
1084285 -0.5317590484170756 0.7764004578477556
1084505 -0.5316625190544231 0.7762298461856186
1084726 -0.5315633783188032 0.7764188657079429
1084946 -0.5313012016397163 0.7765703347570159
1085167 -0.5311033959501357 0.7766152540072727
1085388 -0.5309499497711515 0.7768145842751121
1085608 -0.5307765507248643 0.7769749161792018
1085829 -0.5307472753056988 0.7771976619683311
1086049 -0.5306040538031244 0.7771508615881868
1086270 -0.530338094886226 0.7772279085349729
1086490 -0.5301794680001912 0.7773873313266196
1086711 -0.5299724604646111 0.777565975758163
1086932 -0.5299431804255597 0.7777190466765882
1087152 -0.5298231179590265 0.7778415855138221
1087373 -0.5297209182011489 0.7776488050245203
1087593 -0.529539398795591 0.7777349561796081
1087814 -0.529179665727679 0.7777580476655788
1088034 -0.5290527652213758 0.7779513189924089
1088255 -0.5289540714469911 0.778187185482164
1088476 -0.5289979136620014 0.7782429206472091
1088476 -0.5287524049324005 0.7782554392433578
1088701 -0.5287965062353984 0.778401447255118
1088926 -0.5285836429212204 0.7784966896955682
1089151 -0.5282885781953652 0.778678151103734
1089376 -0.5282394657914994 0.7791262870987958
1089601 -0.5280009285518643 0.7792884070365338
1089826 -0.527943698698451 0.7796597811890643
1090051 -0.5278242172578689 0.7794168796333669
1090276 -0.5277272047746225 0.7793995870433887
1090502 -0.5274198660776152 0.7789444912863673
1090727 -0.5272850345565986 0.7790728760672757
1090952 -0.5271834243328886 0.7790081319532852
1091177 -0.5272175775414105 0.7791758749198954
1091402 -0.5271253720526567 0.7789620955630309
1091627 -0.5269968143326225 0.7792669234716966
1091852 -0.5265784336154402 0.7792314719977249
1092077 -0.5264187067373318 0.7794976504017044
1092303 -0.5262611541082377 0.7797703881524951
1092528 -0.5261281515106687 0.7799224443863462
1092753 -0.5258970165299333 0.7800142908320665
1092978 -0.5256068095589922 0.7800445927493063
1093203 -0.5256099979249401 0.7801957213329851
1093428 -0.5252786782803831 0.7800628522915641
1093653 -0.5251388237131882 0.7803561971369601
1093878 -0.5250345220825028 0.7803379130090088
1094104 -0.5249626255292966 0.7804118664837781
1094329 -0.5248268679154687 0.780498704971667
1094554 -0.5245649155599277 0.7805940337607371
1094779 -0.5245194077550982 0.7807358548445477
1095004 -0.5244200562934791 0.7809560266966119
1095229 -0.5243905972527685 0.781102171541786
1095454 -0.5241031749035747 0.7811081579115406
1095679 -0.5239461580409266 0.7812338688865499
1095904 -0.5238650586017012 0.781349638247703
1096130 -0.5237017471043569 0.781499287844113
1096355 -0.5235177884844231 0.7815977461363943
1096580 -0.5233657953241043 0.7816248814810038
1096805 -0.5233033113920331 0.7816839842669205
1097030 -0.5231073919553872 0.7817486460479975
1097255 -0.5230846096997557 0.7818854807588868
1097480 -0.5227874272783589 0.7819720029194057
1097705 -0.5225774432773022 0.7820157665996081
1097931 -0.5227018336763389 0.7822481245267222
1098156 -0.5224386898811918 0.7821553597140148
1098381 -0.5222142304439977 0.782150696576438
1098606 -0.5220268332177972 0.7822466245468831
1098831 -0.5218244661904127 0.7824755019262306
1099056 -0.5216337568767417 0.7826030662595953
1099281 -0.5213874078878606 0.7827058676440852
1099506 -0.521409888759814 0.7829175882206137
1099732 -0.5212449391467027 0.7828979467356664
1099957 -0.5210242942249775 0.7829663823015557
1100182 -0.5207852720533985 0.7831179312022657
1100407 -0.5206612226035907 0.7833577431302184
1100632 -0.5205183381464981 0.7835155034771221
1100857 -0.5206206154445185 0.7836742773577229
1101082 -0.5203403353684576 0.7836008326128466
1101307 -0.519999166136729 0.7836701865771146
1101532 -0.5198016576624469 0.7838176913024366
1101758 -0.5197367697916642 0.7839002283299135
1101983 -0.519611669739581 0.7839911822239051
1102208 -0.5195671916311404 0.7841109962238414
1102433 -0.5193825903831328 0.7842019889160025
1102658 -0.5193082396324838 0.7843093655184651
1102883 -0.518969423329216 0.7843531279557685
1103108 -0.5188731992145474 0.7843880711112948
1103333 -0.5186960300249236 0.7844013309911504
1103559 -0.5186342794408697 0.7844650419306606
1103784 -0.5184795015164657 0.7845271349230329
1104009 -0.5180926435827176 0.7842926593330262
1104234 -0.5178802992655448 0.7845768455677665
1104459 -0.5179423203027884 0.7846827638411272
1104684 -0.5177578351785393 0.7848422601977849
1104909 -0.5174710043753622 0.7849137027830995
1105134 -0.5174172667487273 0.7850278364892219
1105360 -0.5173263642137033 0.7852153060043945
1105585 -0.5169773806365602 0.7854564572835295
1105810 -0.5168405945759383 0.7855514471754217
1106035 -0.5168357659052008 0.7859731239222105
1106260 -0.5167023048547773 0.7859002993662658
1106485 -0.5166335732819692 0.785987465045108
1106710 -0.5164802333382768 0.7859984729696493
1106935 -0.5162226623163142 0.7862118940767401
1107160 -0.5161167485572405 0.7863602091645776
1107386 -0.5158049404830729 0.7864010882297567
1107611 -0.5157747402729641 0.7864287450545033
1107836 -0.5156782184846631 0.786486998636972
1108061 -0.5154628769979361 0.7865095787698788
1108286 -0.5153068817199593 0.7868606313580755
1108511 -0.5151513106025886 0.7869837165599376
1108736 -0.5149697815745319 0.7871455748307944
1108961 -0.5149077414688483 0.7872944724011056
1109187 -0.51487633385569 0.7871940560018998
1109412 -0.5147246737794094 0.7872103103754281
1109637 -0.5144432555114239 0.7871682521105379
1109862 -0.5144824265972189 0.7872873091649225
1110087 -0.5144467587203705 0.7874821207918625
1110312 -0.5142762046828048 0.7874360136563074
1110537 -0.5141376131493873 0.7874593309730713
1110762 -0.514095925383849 0.7876785587923508
1110988 -0.51376126744625 0.7876741634247205
1110988 -0.514153274834434 0.7879969246592695
1111217 -0.5136290018079437 0.7877227697386876
1111447 -0.5135655656467659 0.7880185609515576
1111677 -0.5133032244269343 0.7880677436937876
1111907 -0.5132351617741403 0.7882101874804627
1112136 -0.5129263001223608 0.7881927076974748
1112366 -0.512626337059531 0.7881336953896101
1112596 -0.5123676461704219 0.7884322457361876
1112826 -0.5123242086748699 0.7885303254340892
1113056 -0.5123352945996925 0.788559984032398
1113285 -0.5121168444433004 0.7887310894858707
1113515 -0.5118302886651928 0.7887036698860047
1113745 -0.5116428949519586 0.7888168203017727
1113975 -0.5113805500649603 0.7888955026976162
1114205 -0.5112363110591028 0.7890425584196806
1114434 -0.5112520520150864 0.7892917807911606
1114664 -0.5111362442883831 0.7893828869688768
1114894 -0.5109187971985425 0.789481082484894
1115124 -0.5106221364167742 0.789441444993307
1115354 -0.5103805467060991 0.7895249596032712
1115583 -0.5102893212057956 0.7896829696994668
1115813 -0.5102153179036211 0.7898017021124228
1116043 -0.5100710493852664 0.7896757056409455
1116273 -0.5099838435250948 0.7898865223380827
1116502 -0.509587904164699 0.7898460963623964
1116732 -0.5096017675320479 0.7901388432333257
1116962 -0.5094069185306611 0.7903459619059044
1117192 -0.509361184272087 0.7904449783887103
1117422 -0.5091469944998666 0.7905013016879092
1117651 -0.5090163857500344 0.7905276157744479
1117881 -0.5088238315655552 0.790660137169988
1118111 -0.508582562381563 0.7906594099069384
1118341 -0.5086276581963273 0.7908953522147248
1118571 -0.5084925712065865 0.7908642963015167
1118800 -0.5083800169249191 0.7908403586786963
1119030 -0.5082830495684797 0.7908641667298439
1119260 -0.5079629136085427 0.7909325880917562
1119490 -0.5077924601743443 0.7909956418124215
1119720 -0.5076221320717952 0.7912820263620537
1119949 -0.5075696867100016 0.7913278742993732
1120179 -0.5073524187884902 0.7913520462025909
1120409 -0.5072062135940464 0.7914234778066483
1120639 -0.5069501780208513 0.7915793090577259
1120868 -0.5068129504716291 0.7918310895740208
1121098 -0.5067059027086002 0.7918358807566083
1121328 -0.5066238948841065 0.7920911270824684
1121558 -0.5064485977018222 0.7919462121458793
1121788 -0.5060927554044797 0.7920021258286005
1122017 -0.5059951001060912 0.7920924385236151
1122247 -0.5058205355068186 0.7922559351171291
1122477 -0.5056926633188437 0.792396750617235
1122707 -0.505470806821545 0.7923726744252477
1122937 -0.5054185935806924 0.7925144691201033
1123166 -0.5052310586679095 0.7926645050065442
1123396 -0.5050479175583132 0.7929501559101151
1123626 -0.5048765636972474 0.7930698467157717
1123856 -0.5046963882540859 0.7931263667853105
1124086 -0.5045551545863965 0.7931965508082204
1124315 -0.5046766043375687 0.7933421809475953
1124545 -0.5043884842062043 0.7934142489427535
1124775 -0.5041099666929972 0.7933857668378345
1125005 -0.5039548343218925 0.7936080400696685
1125234 -0.5038841106741189 0.7937695994052707
1125464 -0.5038308073871897 0.793806404722145
1125694 -0.5037454575077259 0.7939216882233926
1125924 -0.5035226951179935 0.7938742064434876
1126154 -0.503267091472289 0.7938635088045949
1126383 -0.5031052034379003 0.7940634730308035
1126613 -0.5030207379191707 0.7942824721954174
1126843 -0.5028559049361429 0.7942930386556099
1127073 -0.5028156582720319 0.7944596225047236
1127303 -0.5024574355299096 0.7943464439823475
1127532 -0.50227160107281 0.7946028248118718
1127762 -0.5020000224805702 0.7947685897960675
1127992 -0.5019968455016977 0.7948434653768168
1128222 -0.5017898887780246 0.7948404315094297
1128452 -0.5016205816597885 0.7948692653488342
1128681 -0.5014674022579645 0.7949148236225673
1128911 -0.5011496136477948 0.7950889757884202
1129141 -0.5011325667081246 0.7952493023959887
1129371 -0.5010347325370926 0.7954321356598784
1129600 -0.5008186889564106 0.7954500109396289
1129830 -0.5006661702532808 0.795469235403288
1130060 -0.5004072526148914 0.7956455123234925
1130290 -0.5000832251828676 0.7956145623826635
1130520 -0.49985738069807756 0.7957492756422262
1130749 -0.49979246244868 0.7960430177576435
1130979 -0.49969371858641054 0.7960763835266677
1131209 -0.4996876821955675 0.795989043884714
1131439 -0.49934380697681896 0.7960982265350761
1131669 -0.49927416024746746 0.7962559105458993
1131898 -0.4991372553986189 0.7964150246483482
1132128 -0.49911565752595394 0.7964265450355192
1132358 -0.4989734381033884 0.7965104436319547
1132588 -0.49885950637385296 0.7967152264927077
1132818 -0.49851311614910065 0.7967691632677186
1133047 -0.4984169593422568 0.7968685417113505
1133277 -0.49822620805352175 0.7970218695230062
1133507 -0.49795038722729107 0.7972223517982361
1133737 -0.49793356222472523 0.7972946647349696
1133967 -0.4977735289847103 0.7972778344246301
1133967 -0.49776535804995325 0.796956766575759
1134201 -0.49736354422221646 0.7973917693358058
1134436 -0.49724940306509835 0.7976690884084264
1134670 -0.49717860712152373 0.7978430904022116
1134905 -0.49698277862144835 0.7979039772739797
1135139 -0.4970024523802324 0.7980897230440789
1135374 -0.4969040161967249 0.7980612242702182
1135608 -0.49671861444036847 0.7979682775371579
1135843 -0.49644229280186425 0.7981093941473618
1136077 -0.4963418111300663 0.7982239317722617
1136312 -0.49612581316808907 0.7980067264520722
1136546 -0.4960594929056955 0.7981763068270956
1136781 -0.49584489561799494 0.7981916190967312
1137015 -0.4955927074139176 0.7984569702316892
1137250 -0.49544315442824927 0.798523020448209
1137484 -0.4953703956753803 0.7988361171838237
1137719 -0.495397385418483 0.7988866125286371
1137954 -0.4952569988266098 0.7989198007418732
1138188 -0.4950459822079279 0.7990009277346705
1138423 -0.49473930671990807 0.7993075014590661
1138657 -0.49467769617660223 0.7994078690808721
1138892 -0.49446509228987773 0.7995394362602855
1139126 -0.4943406503897865 0.7997006953545661
1139361 -0.4941667481394288 0.7996529070373832
1139595 -0.4939940173304497 0.7998204169328779
1139830 -0.4937834849914819 0.7998634841677748
1140064 -0.4935398890788014 0.7998390085512049
1140299 -0.49357414884738443 0.7999742808731113
1140533 -0.49340541602732896 0.7998747462857096
1140768 -0.4931980825863172 0.7998212436435831
1141002 -0.4930340454110774 0.7998688978101921
1141237 -0.4927940955342805 0.8000885562723077
1141471 -0.49264660026115176 0.800207013422706
1141706 -0.4925364475164909 0.8004148363835083
1141941 -0.4923555467959179 0.8005206589828343
1142175 -0.49212953130146986 0.800537842143512
1142410 -0.491804147609954 0.8007617694120932
1142644 -0.4916558611802149 0.8008247191360542
1142879 -0.4914428250415923 0.8010115441465672
1143113 -0.49157526287483294 0.8011634723563807
1143348 -0.4913583417710688 0.8011334416901192
1143582 -0.49109080218253387 0.8010429209770427
1143817 -0.49094633143258537 0.8012151056341844
1144051 -0.49074826530792165 0.8011944509100726
1144286 -0.4905967346654537 0.8014712602858385
1144520 -0.4903540109724432 0.8013815970519186
1144755 -0.490295318330882 0.8015274598694941
1144989 -0.4902296088252015 0.8017267825367138
1145224 -0.4899493645433359 0.8015820131263653
1145458 -0.4896545564483262 0.8016582854131589
1145693 -0.48960855097981537 0.8019546516207551
1145928 -0.48944599009688566 0.8019447782015543
1146162 -0.4894069244365228 0.8021625849031528
1146397 -0.4890850860214254 0.8020389727017352
1146631 -0.48896074073993456 0.8022420301656645
1146866 -0.48889274152356177 0.8025225789499575
1147100 -0.4886587306332418 0.8026668973544027
1147335 -0.48853732694487845 0.8029256951644426
1147569 -0.4885442587466644 0.8029964256130435
1147804 -0.4883045281207665 0.802955814301252
1148038 -0.48803583141311757 0.8031592450973443
1148273 -0.48779723969593014 0.803285846671994
1148507 -0.4876658364780662 0.8033567892206591
1148742 -0.4875897275069476 0.8034467934056514
1148976 -0.4873898172213395 0.8034434795292343
1149211 -0.48712811595650557 0.8033348166056191
1149445 -0.48693469188113053 0.8034229613446935
1149680 -0.48677019278198663 0.8036813055338928
1149915 -0.4866231175340624 0.8037244606685857
1150149 -0.48646659532902203 0.8037788271899549
1150384 -0.48634263177221426 0.8038449069607444
1150618 -0.4861845381709862 0.8039951886562753
1150853 -0.48610917678148396 0.8041790856753162
1151087 -0.48595758969740915 0.804361144888453
1151322 -0.4858797993652805 0.8043888323462985
1151556 -0.485714839540242 0.8042775458022271
1151791 -0.4855371753067327 0.8045084578566394
1152025 -0.48525798912674456 0.8044904641997993
1152260 -0.4850424791989436 0.8045054541272263
1152494 -0.48486514790034674 0.8046446181372556
1152729 -0.48481560995672557 0.8046861155187139
1152963 -0.48459380386374906 0.8047211674647337
1153198 -0.4844800802571341 0.8047621008995578
1153432 -0.4842541170900375 0.8051933963757029
1153667 -0.48404022423888615 0.805093897762621
1153902 -0.4841092382387298 0.8055031812407915
1154136 -0.4839239832878989 0.8054825907489033
1154371 -0.48376738468287245 0.8055778876781553
1154605 -0.48342110227807755 0.8055188675254131
1154840 -0.48315069549413864 0.8055574111931953
1155074 -0.48313257453401437 0.8056924675333439
1155309 -0.48300447111874895 0.8059653501410957
1155543 -0.48272966409214246 0.805793734458685
1155778 -0.48253466597830885 0.8058195602096029
1156012 -0.4824266769956515 0.8059736628029407
1156247 -0.4821787651863097 0.806096621300935
1156481 -0.48212101102818383 0.8062255398520632
1156716 -0.4819256286666578 0.8063972495509205
1156950 -0.48181145372231154 0.8064959019142115
1157185 -0.48158972040381703 0.8064006716667627
1157420 -0.4813880503369191 0.8064470207063352
1157420 -0.4817144938629181 0.8069612921192688
1157659 -0.4815457356153637 0.8067040890077567
1157898 -0.4813012500667081 0.8067503004731328
1158138 -0.481096288692947 0.8068580178904642
1158377 -0.4810308356431928 0.8071426816654058
1158616 -0.48074249119428686 0.8070699416447025
1158856 -0.4805669259847343 0.8072716638373595
1159095 -0.48042675173952376 0.80741842695056
1159335 -0.4802039540399583 0.8074231796857719
1159574 -0.4799585716411063 0.8075976902740379
1159813 -0.4799963886569398 0.8077617523870005
1160053 -0.479685795233623 0.807657598199156
1160292 -0.47941629055047913 0.8076472137137033
1160532 -0.47923791490867723 0.8078106405103351
1160771 -0.4791531985117201 0.8078519883463551
1161010 -0.4789826456377421 0.8080473984000265
1161250 -0.47874840951789277 0.8079744265392983
1161489 -0.47859955221468614 0.8081783583580553
1161729 -0.47830862545512837 0.808249886572707
1161968 -0.47820287209651596 0.808371401978948
1162207 -0.4781189965272026 0.8084190478861882
1162447 -0.47794865755172455 0.8085799462697134
1162686 -0.47798641326492064 0.8085963853027298
1162925 -0.4777289242457894 0.8087017573085847
1163165 -0.47746532432251687 0.8085995937614219
1163404 -0.477255329929704 0.8089420869005483
1163644 -0.4770552252186807 0.8091238174700465
1163883 -0.4768376975597737 0.809077718899457
1164122 -0.47666320344606555 0.8090487565745598
1164362 -0.4763823325239075 0.8092432100305006
1164601 -0.47622408547022715 0.8092896464373699
1164841 -0.47618653535034955 0.8094576176115581
1165080 -0.4760461436653671 0.8096143484582273
1165319 -0.4760548256971617 0.8097303005404477
1165559 -0.4758551379435043 0.8096220673488971
1165798 -0.4756207393742269 0.8098196331286658
1166038 -0.47550117365645345 0.8097870947163345
1166277 -0.4753719495297711 0.8101736431260775
1166516 -0.47524849020260473 0.8103030246063607
1166756 -0.47510765506727093 0.810345484875872
1166995 -0.47485821025559233 0.8103769142985473
1167234 -0.47467903563771613 0.8106463825406701
1167474 -0.47456604821054404 0.8107670294746834
1167713 -0.47445431481923966 0.8109348840464711
1167953 -0.4744470122875835 0.8110110479606184
1168192 -0.4743019939246637 0.8109499143880204
1168431 -0.473972206360137 0.8109977994465065
1168671 -0.4737944482863544 0.811024928797541
1168910 -0.4736542760347589 0.8111447769766589
1169150 -0.47340366898118014 0.8113255878167666
1169389 -0.4733325771965764 0.8113620286542901
1169628 -0.4731317466404098 0.8113999447032025
1169868 -0.4727986867383746 0.8115364533363008
1170107 -0.4726446389614871 0.8117010417274803
1170347 -0.4724650209299672 0.8118286768640736
1170586 -0.4723983611858301 0.8117961575050259
1170825 -0.47217566097388647 0.8118953981318457
1171065 -0.4720287699154032 0.811909783568494
1171304 -0.4717597315126833 0.8118809208759299
1171544 -0.47170302340138137 0.812171918239657
1171783 -0.47130772746827243 0.8120377458735047
1172022 -0.47132541776583303 0.8121204028745072
1172262 -0.4712116226170942 0.8123463621387528
1172501 -0.4709750559056656 0.8124027622596877
1172740 -0.4707545671173531 0.8124076957046868
1172980 -0.4706300188996916 0.812604089043454
1173219 -0.4704952522460635 0.812685448803879
1173459 -0.4703618503263708 0.8127989830930694
1173698 -0.4701498297567966 0.8128071358175404
1173937 -0.46994138103420213 0.8128010673660304
1174177 -0.4697737654385145 0.8128704961840942
1174416 -0.4695312610735571 0.8128959624891074
1174656 -0.46938701755359363 0.8129772558763455
1174895 -0.46933750318684286 0.8131206389114268
1175134 -0.4689796944939468 0.8131225733663805
1175374 -0.46897616041692075 0.8134915237138148
1175613 -0.4686217232790373 0.8136332891445377
1175853 -0.4685193725250526 0.8137362394028921
1176092 -0.4686131508388867 0.8140592123570807
1176331 -0.4682341968918989 0.8140951843567417
1176571 -0.4680802351101063 0.8139874313771119
1176810 -0.46792618696792326 0.8141857061460105
1177049 -0.46780343082885883 0.8142546783973427
1177289 -0.4675054627993565 0.8143840265771657
1177528 -0.4674071402480685 0.8144090972884307
1177768 -0.4672918102756745 0.8143616073356083
1178007 -0.46703692974831645 0.8144665107518669
1178246 -0.4668886838660992 0.8147385119428832
1178486 -0.4667808707421898 0.8147694168655133
1178725 -0.4665792700902076 0.8147426580129917
1178965 -0.4664580545820114 0.8147935049295212
1179204 -0.4663030533744023 0.8147985379605983
1179443 -0.4660174941024949 0.8148771667895176
1179683 -0.4658086496031569 0.8150567889065976
1179922 -0.46566352549270923 0.8151640554269508
1180162 -0.46554639515464696 0.8154545704978449
1180401 -0.4652961701026925 0.8156270799403691
1180640 -0.46511771026964077 0.8155471761885805
1180880 -0.46490505783231334 0.8155398071921355
1181119 -0.4648648721762134 0.8157448019648943
1181359 -0.46481809444260586 0.8158534309437333
1181359 -0.46451013433263716 0.8159262663461014
1181603 -0.46468540887961896 0.8159769216145389
1181847 -0.46469125821897916 0.8160672558497694
1182091 -0.4644684938190577 0.8161081111722149
1182336 -0.4642109179725545 0.8162163003439551
1182580 -0.46404449343012555 0.8163135862957402
1182824 -0.4639234673841582 0.8164029233231088
1183069 -0.4636494467052632 0.8163645958183923
1183313 -0.4633428444110818 0.8164397673163821
1183557 -0.46322513815109684 0.8165045802297336
1183802 -0.4629773132440497 0.8167206195331306
1184046 -0.4628140292940978 0.8169014767592785
1184290 -0.4627245844372137 0.8169251092088672
1184535 -0.4625612359159378 0.8168992596481031
1184779 -0.4623772576137021 0.8169223017982546
1185023 -0.462132812401615 0.8170799296035719
1185268 -0.46194862595694414 0.8172752398558182
1185512 -0.4617868623164898 0.8173588257293269
1185756 -0.46167664107911405 0.817311105133539
1186001 -0.4614477117300232 0.8175185527637895
1186245 -0.4612244271924573 0.8175530072738137
1186489 -0.46093332576354795 0.8176772179492736
1186734 -0.4609531626799606 0.8178711115611818
1186978 -0.4606930860717556 0.8178453985170671
1187222 -0.4606275327911651 0.818021294533024
1187467 -0.46043811769767207 0.8179304039317309
1187711 -0.4602373201101536 0.8180136140848208
1187955 -0.46002563250966216 0.8183570607324987
1188200 -0.4599529087876226 0.8184844739688283
1188444 -0.4598011993031697 0.8184326291663645
1188688 -0.4597121139827837 0.8185324717836774
1188933 -0.45947099335394076 0.8186231167230116
1189177 -0.45920667674829496 0.8188071395094993
1189421 -0.4590599684266535 0.8188395776940027
1189666 -0.4591350774740072 0.819078964042586
1189910 -0.45887865261103133 0.8191549349849876
1190154 -0.45879103130674753 0.8190430702516974
1190399 -0.4584596455039747 0.8189968859917711
1190643 -0.45828741790374633 0.819156842495127
1190887 -0.45816750903669234 0.81951589661552
1191132 -0.4579257994140993 0.8193125302913504
1191376 -0.4577864076850809 0.8194065574066532
1191620 -0.45756162417234975 0.8195451583469648
1191865 -0.45729072150298755 0.8197401842831286
1192109 -0.45709971641824737 0.8199565758543084
1192353 -0.4569125026268498 0.8200128906445042
1192598 -0.45688853868046747 0.8203161834245065
1192842 -0.4567052548405659 0.8201397184007979
1193086 -0.4564547495685166 0.8204112763070027
1193331 -0.45612294788863134 0.8203311468845722
1193575 -0.4559653072269833 0.8205909577550082
1193819 -0.45597582471093323 0.8206687365226205
1194064 -0.4556291787533456 0.8204805526515403
1194308 -0.455535088472022 0.8205832197967069
1194552 -0.45519984249499795 0.8206655018052164
1194797 -0.4550503563359982 0.8208252806214569
1195041 -0.4549214129979842 0.8209762319456168
1195285 -0.45479871284790285 0.8210302789991569
1195530 -0.4547008643378171 0.8210055374332791
1195774 -0.45462034935499895 0.8211101154131009
1196018 -0.45434430578892154 0.8211639091507709
1196263 -0.45426292474730545 0.8213512607367486
1196507 -0.454115118092133 0.8214146121354072
1196751 -0.4539913341608239 0.8213142186553979
1196996 -0.4538807364276006 0.8216400804848066
1197240 -0.4534972413265122 0.8216642617218404
1197484 -0.4533303381528259 0.8218494522204218
1197729 -0.45322423105250875 0.8221095658175037
1197973 -0.4530381843268293 0.8221004825914002
1198217 -0.4529699949109928 0.8221736272731944
1198462 -0.4528488836513185 0.8222714637384227
1198706 -0.4524334909957737 0.8223433918659387
1198950 -0.4522433331838419 0.8223223072785002
1199195 -0.45205032953926594 0.8226810152911369
1199439 -0.4519144193921947 0.8226257800236696
1199683 -0.45173393592374844 0.8226219403006884
1199928 -0.45148777850909383 0.8227341568791577
1200172 -0.4513920076404562 0.8229606745740988
1200416 -0.451186923684604 0.8230928461421452
1200661 -0.45103518289629313 0.8229677294515982
1200905 -0.4509524898197915 0.8232390820952818
1201149 -0.4508170612783008 0.8232121854288548
1201394 -0.4506534969183602 0.8233637958555431
1201638 -0.4502241209327008 0.8233255242423426
1201882 -0.4502868757645869 0.8234522428855992
1202127 -0.45014683772876146 0.8234433337423464
1202371 -0.4499495124874673 0.8233142533740779
1202615 -0.4496722234596232 0.8236158955523294
1202860 -0.4492797520149647 0.8236746639441124
1203104 -0.4492031963950514 0.8237890151183536
1203348 -0.44903688313462253 0.8240311267835801
1203593 -0.44907729885439174 0.8242222771191194
1203837 -0.4488535264084047 0.8240492165428811
1204081 -0.44862715276440995 0.8241585539040094
1204326 -0.4484981191136967 0.824259018579488
1204570 -0.44826791345230804 0.8244075216524365
1204814 -0.4482305437065238 0.8244593633575092
1205059 -0.4481931642079966 0.8245168052387262
1205303 -0.44787595330484214 0.8245325891296165
1205547 -0.4476038109669576 0.8246788969909925
1205792 -0.4474119617876631 0.8249150310616302
1205792 -0.44719206792862143 0.8248446874975235
1206041 -0.4472782132115173 0.8250908176542127
1206290 -0.447251714271856 0.8252674591145951
1206540 -0.447273509118139 0.8253682934935522
1206789 -0.4468243060753498 0.8253590457191187
1207038 -0.44659635406368864 0.825508167025042
1207288 -0.4463069372750651 0.8253988937657513
1207537 -0.4462603174300315 0.8255571789160899
1207787 -0.4460036206024299 0.825437529179179
1208036 -0.4456997574993176 0.8254838985427289
1208285 -0.44544404957364775 0.8256101146093354
1208535 -0.44524517620022874 0.8258993692600892
1208784 -0.4451742237251539 0.8259766680985756
1209034 -0.4450570741856088 0.8261002121085382
1209283 -0.44487157962351875 0.8261881062753189
1209532 -0.4447537072661555 0.8263435928167919
1209782 -0.4445019123947819 0.8264615162215906
1210031 -0.4442984477357718 0.8267409449505457
1210281 -0.44410194883651766 0.8266077651517726
1210530 -0.44403560782113777 0.8266623752897615
1210779 -0.44373959972732174 0.8266686850791967
1211029 -0.44348585312910793 0.8268564821784286
1211278 -0.4433387416728643 0.8270071103370794
1211527 -0.4431872656306499 0.8272636141508968
1211777 -0.44312668879568207 0.8272706083153235
1212026 -0.4430665303230093 0.8273623217559488
1212276 -0.442842915842574 0.827416666287057
1212525 -0.44262063772617044 0.8274096620719859
1212774 -0.44242612161083184 0.8275994155873838
1213024 -0.44231713579264337 0.8276687292489576
1213273 -0.442090701115175 0.8277675128326681
1213523 -0.4418992643802409 0.8278165079353793
1213772 -0.4416992671360546 0.8278837236330753
1214021 -0.441577003526058 0.8283010626444987
1214271 -0.44128228243656437 0.8282449160632366
1214520 -0.44132225591944313 0.828338319055736
1214770 -0.4410612512833574 0.8281731965574594
1215019 -0.4408844934053341 0.8283048251756372
1215268 -0.4405256518808036 0.8282819357683637
1215518 -0.4404920284127388 0.8285015820627637
1215767 -0.4403316117699002 0.8285555969911389
1216016 -0.44010990983724957 0.8285313348430632
1216266 -0.43982116409882205 0.8286103914787235
1216515 -0.4396095827090341 0.8287848341240496
1216765 -0.4394947639764352 0.8290128567453193
1217014 -0.4392866392368032 0.829070684117009
1217263 -0.43913162408725126 0.8290098437733558
1217513 -0.43903132585335347 0.8290299167757996
1217762 -0.4387998880842491 0.8290357680821069
1218012 -0.43872752083050226 0.8292815196544311
1218261 -0.4384758635218774 0.8294243968456283
1218510 -0.4384591907362364 0.8295122096635802
1218760 -0.43812431236163896 0.8293394807732908
1219009 -0.4380624634459012 0.8296018512753764
1219259 -0.4377356614682681 0.829822725654183
1219508 -0.4376799402440546 0.82999888248251
1219757 -0.4374621089762811 0.8300629960268728
1220007 -0.4373563341265969 0.8301571617160459
1220256 -0.43723194351855393 0.8301696176282668
1220506 -0.4369322592394946 0.8301289030146428
1220755 -0.4367397151124615 0.8301816852761249
1221004 -0.43670545729169735 0.8303738631672918
1221254 -0.43643308371754325 0.8303712042259849
1221503 -0.4364371091816124 0.8304677196204928
1221752 -0.4361463899382075 0.8303853849688441
1222002 -0.435785420182392 0.8306061769450178
1222251 -0.4356836123559187 0.8308477460409245
1222501 -0.4354129107244658 0.8308275877965157
1222750 -0.43544814438882345 0.8309013255815152
1222999 -0.43515685038566765 0.8308946702860329
1223249 -0.4350193341932211 0.8310619326224477
1223498 -0.4347991020517823 0.830969063877439
1223748 -0.43464568770677475 0.8311784852243997
1223997 -0.4345096995992551 0.8312731627958037
1224246 -0.43435266665891126 0.831276530573049
1224496 -0.43406012615064044 0.831380332387828
1224745 -0.4338565859453003 0.8315303543412211
1224995 -0.4336403207326697 0.8315768451628911
1225244 -0.43360301637299725 0.8319789879848648
1225493 -0.43347903352816985 0.832081634652798
1225743 -0.4332670559049645 0.8320231753829902
1225992 -0.4331308160868264 0.8321216245695071
1226241 -0.43293625063634406 0.8322776871228722
1226491 -0.4329133036551312 0.8323492579609058
1226740 -0.4327734967688823 0.8324457316039806
1226990 -0.4327073784072177 0.832293930923934
1227239 -0.4323412846681898 0.8324493064049763
1227488 -0.4320709789041506 0.8327704310004356
1227738 -0.4317854953221035 0.8329468667909828
1227987 -0.4316936548263714 0.8329280363686595
1228237 -0.43154156526981585 0.8330994413270115
1228486 -0.43125994303673987 0.8331153171144644
1228735 -0.43102259866989673 0.8331565500164229
1228985 -0.4308166807328155 0.8332326629767283
1229234 -0.4305949474129568 0.8333328518800615
1229484 -0.4306058624910772 0.8334424610508429
1229733 -0.43059384404843054 0.8333911369347845
1229982 -0.4301104164209595 0.8332973620597618
1230232 -0.42988896854222325 0.8334437502731463
1230481 -0.4297285104662926 0.8337601918036557
1230731 -0.4296007299339072 0.8338286109320443
1230731 -0.4295219809578591 0.8340129569561484
1230985 -0.42939036634871025 0.8338348168573225
1231240 -0.4292106299807202 0.8339963643905286
1231494 -0.4290851222708274 0.8340835804460571
1231749 -0.428752374002127 0.8341143364305574
1232003 -0.4286984541395097 0.8341300869965684
1232258 -0.42858321264694044 0.8341211023499051
1232512 -0.4283316456746556 0.8340589022724989
1232767 -0.42812717538624073 0.8341528809506199
1233021 -0.4279239184598167 0.8342976191905546
1233276 -0.4276380472494086 0.8344253976839051
1233531 -0.42762624989071363 0.8346756391038171
1233785 -0.42741689667755384 0.8347269248866467
1234040 -0.4271750786893981 0.8347762454424908
1234294 -0.4269135981001827 0.8349320243097518
1234549 -0.4265800875248443 0.8350061501449493
1234803 -0.4266008758759669 0.8352350069532501
1235058 -0.4264365507603634 0.8352833663744711
1235312 -0.42624505189378786 0.8353370001347811
1235567 -0.42587009019820815 0.8354682902229644
1235822 -0.42588339113153795 0.8355742691104542
1236076 -0.4257126792802485 0.835714412520693
1236331 -0.4259555955114901 0.8360642586936226
1236585 -0.4258551230423577 0.8362228958410285
1236840 -0.42579374616207066 0.8364792261696616
1237094 -0.4260127799575195 0.8368883395599578
1237349 -0.42586484473449426 0.8369928218583402
1237603 -0.42545542516127777 0.8368209068141671
1237858 -0.4250845741220961 0.8366012410197209
1238112 -0.42451201019130935 0.8365667928048854
1238367 -0.4241259369816573 0.8364977521618657
1238622 -0.42359706775517897 0.8364568701904616
1238876 -0.42333164630134973 0.8365241898388569
1239131 -0.4234674384288366 0.8365621860905313
1239385 -0.42344048213141006 0.8366988266815537
1239640 -0.4233725207911461 0.8369023783710835
1239894 -0.4232667701733454 0.8371539267228574
1240149 -0.4233384710458998 0.837313465221417
1240403 -0.4230161727361599 0.8372865462286933
1240658 -0.4228802500643696 0.837413597954006
1240913 -0.42257305236325554 0.8374743082638698
1241167 -0.4222036424134706 0.8375072024549369
1241422 -0.42197739150618147 0.8376419307092962
1241676 -0.42180440302660166 0.8375752559725533
1241931 -0.4215698207798143 0.8375846319355309
1242185 -0.4215045686511272 0.8377731223769116
1242440 -0.4211385271620173 0.8377144778500747
1242694 -0.4211324020140365 0.837959750378412
1242949 -0.42093573607790163 0.8380155214768272
1243203 -0.4207583211577577 0.8379091461516031
1243458 -0.42059062575573847 0.8379700569629873
1243713 -0.42029778204269574 0.8381118457987471
1243967 -0.42002239714647416 0.8383128809595204
1244222 -0.4198140106179307 0.8383373643416119
1244476 -0.41959190041634703 0.8384998143566035
1244731 -0.41957290703995825 0.8385666721608758
1244985 -0.419310258944728 0.8387145699079573
1245240 -0.419009197961235 0.8386951037843386
1245494 -0.41889765923586136 0.8388003716956046
1245749 -0.4188097102741776 0.839166667770803
1246004 -0.4187384849089242 0.8391573902432025
1246258 -0.4184417416923896 0.83916482637583
1246513 -0.4182103629265177 0.8392366775850061
1246767 -0.4178954120038317 0.8391745343133338
1247022 -0.4178017110602181 0.8395035982145417
1247276 -0.41762050768687603 0.8396268508083513
1247531 -0.41739812635998746 0.8396936109328291
1247785 -0.4171704507833627 0.8396629559115361
1248040 -0.4170570193930535 0.8398108259406133
1248294 -0.41698782165406284 0.8399177778846214
1248549 -0.41679136948644396 0.8398028710733428
1248804 -0.41667036681371705 0.8398624667371467
1249058 -0.4164406733318425 0.8399803185504038
1249313 -0.41612879386928814 0.8400065729628429
1249567 -0.41598318665397194 0.8401812375661738
1249822 -0.4159358363354578 0.840376558023378
1250076 -0.41587723455435033 0.8406327518994243
1250331 -0.41564375938147585 0.8404529095974951
1250585 -0.4154181019032059 0.840555329665712
1250840 -0.415142184732624 0.8407207612834102
1251095 -0.4150134378529815 0.8407533082526781
1251349 -0.4148415080896477 0.8408858294609746
1251604 -0.414608441574827 0.8408014509103464
1251858 -0.4143409612992412 0.8408728505518928
1252113 -0.4142114603088749 0.8409407876593377
1252367 -0.41390914346772756 0.8410434726623652
1252622 -0.4138391661926001 0.84130200448018
1252876 -0.41361884971071206 0.8413532116822606
1253131 -0.41343285448965617 0.8414475669377699
1253385 -0.4133363353483736 0.8416727237017688
1253640 -0.4130551906730414 0.8416765105350841
1253895 -0.41290937193169336 0.8418336312100858
1254149 -0.41281383292249296 0.8418965078516181
1254404 -0.4126770044577262 0.8416257246740608
1254658 -0.4124054944694167 0.8417122573469061
1254913 -0.4121488432838726 0.8417815499710636
1255167 -0.41195903231386155 0.8419586092502132
1255422 -0.41190873218001034 0.8421905826018031
1255676 -0.411743920923371 0.8423305067023091
1255931 -0.4115228779274217 0.8423381118479816
1256186 -0.4112892478044591 0.8424674232059856
1256186 -0.411780848638951 0.8427646253350851
1256445 -0.41107448793347134 0.8424670411679602
1256705 -0.41109366921295176 0.842845204356287
1256965 -0.41079903958449926 0.8426514085448307
1257225 -0.4105746404301333 0.8427056193064275
1257485 -0.41032471085721944 0.842801953739147
1257744 -0.4101796901673241 0.8429328121303589
1258004 -0.41005787358648144 0.8431707876336123
1258264 -0.40990381153516214 0.8430712308981694
1258524 -0.40984087321505797 0.8432400752601856
1258784 -0.4094737454284542 0.8432214750013801
1259044 -0.4093914178118275 0.8434708672082395
1259303 -0.40919940561451623 0.8436467367614894
1259563 -0.4090637502840917 0.8437410716893332
1259823 -0.40881274523061195 0.8437672199512352
1260083 -0.40855785744588224 0.843882149771547
1260343 -0.4081092116564186 0.8438452256405012
1260602 -0.40811890812076423 0.8441085896012573
1260862 -0.4080365033727439 0.8442760923707694
1261122 -0.40787772689178714 0.8444312258924928
1261382 -0.4076767590917121 0.8442612914930022
1261642 -0.40731813627315205 0.8444105794708004
1261902 -0.4071951408559889 0.8446048200320317
1262161 -0.4069984494236592 0.8446510347690375
1262421 -0.40678875990025487 0.8445755573157849
1262681 -0.4067035513254049 0.8446813955811363
1262941 -0.40637782324124394 0.8447231804591183
1263201 -0.40614413632889346 0.8448646527915998
1263460 -0.40605518703807514 0.8449679243938597
1263720 -0.4058884643390164 0.8451455837013796
1263980 -0.4057602254034079 0.8449591045013942
1264240 -0.4055700469118199 0.8452201942946078
1264500 -0.4054788350233282 0.8453931294480259
1264760 -0.40526361502879343 0.8453295333667873
1265019 -0.4052570416474435 0.8454547196498747
1265279 -0.4049836469703064 0.8454898385827951
1265539 -0.4048082456167858 0.8455279474133136
1265799 -0.4043952211308108 0.8456506254583003
1266059 -0.4041827363060675 0.845851317812708
1266318 -0.4040789227641558 0.8459890035547556
1266578 -0.40375122311010964 0.8458442912373195
1266838 -0.4035016630918416 0.8458559020549876
1267098 -0.403276285867119 0.8460025843440159
1267358 -0.4030817505020773 0.8460570875992919
1267618 -0.4031396058225929 0.8464429170800117
1267877 -0.40275295492568797 0.8463137971141408
1268137 -0.4026184675169016 0.8464514278664906
1268397 -0.40238180470408336 0.8465818783042589
1268657 -0.40216895707928474 0.8465701702133995
1268917 -0.402055475345911 0.846823603579921
1269177 -0.4018370390853858 0.8469673344623951
1269436 -0.4017659282730719 0.8470351953253662
1269696 -0.40152188266270994 0.8472212159874796
1269956 -0.40131820128636625 0.8471737104071037
1270216 -0.40111991099282385 0.8472649379072316
1270476 -0.40096280779135696 0.8473350548712554
1270735 -0.4007854192983613 0.8473322639913456
1270995 -0.40058119646463564 0.8473823715695518
1271255 -0.40032316973962295 0.8476197670275972
1271515 -0.40018982914758966 0.8477335843416954
1271775 -0.39995834942733227 0.84777448878515
1272035 -0.39969422149358047 0.847709037945813
1272294 -0.39966582649222004 0.8478223345010227
1272554 -0.39936403433889206 0.847769358419474
1272814 -0.39925664077681444 0.8481064526038733
1273074 -0.3991279650558971 0.8480391644012036
1273334 -0.39892056377713797 0.8480720993706604
1273593 -0.3986940533687796 0.8479875944139565
1273853 -0.3984708089145432 0.8480545446044386
1274113 -0.3982469893173295 0.8482669462617021
1274373 -0.3981001429364459 0.848507117746534
1274633 -0.3980023840459021 0.8487274164498062
1274893 -0.39771923301523526 0.8487026069504454
1275152 -0.39744410345261494 0.8488157275385433
1275412 -0.3971749389207371 0.8489641234228434
1275672 -0.39715392428724494 0.8490880249200341
1275932 -0.3970014094486111 0.8491050225661514
1276192 -0.3968942434683159 0.8491238111294214
1276451 -0.39671144763013083 0.8490774202742255
1276711 -0.3964936630863358 0.8493147905809946
1276971 -0.3963223040080641 0.8493546783545892
1277231 -0.39620341576944784 0.8494369262578401
1277491 -0.3960697454468047 0.8493459182345406
1277751 -0.39572560500614046 0.8493812891609505
1278010 -0.39541116440451857 0.849403643693662
1278270 -0.39536082634292186 0.8497106841271218
1278530 -0.3951944283839096 0.8497553727682139
1278790 -0.39501671341776323 0.849819949896056
1279050 -0.39483869688821843 0.8498136289655714
1279309 -0.3946090934568362 0.8499564879905693
1279569 -0.3943590843718991 0.850171300840584
1279829 -0.39421604332652477 0.8502378767751686
1280089 -0.3940365055560556 0.8503733976837586
1280349 -0.39375759513321856 0.8501169735258415
1280609 -0.393739242842824 0.8504670991689216
1280868 -0.3933082457180932 0.8506305120300538
1281128 -0.3932408646776803 0.8508134258510462
1281388 -0.3931464514520309 0.8509384765042307
1281648 -0.39299003131644394 0.8508125146952185
1281908 -0.39271989663200624 0.8507706718774654
1282168 -0.39245852317457464 0.8508792108644603
1282168 -0.3923809556256671 0.8508231894344739
1282433 -0.3922999184368183 0.85116008011077
1282698 -0.3922758579754777 0.8511286839137722
1282963 -0.3921285184608351 0.8514086955383702
1283228 -0.3919619875949745 0.8513455344723331
1283493 -0.39155940164371805 0.8515009957657306
1283759 -0.3912667195829896 0.8515920580544419
1284024 -0.3910996463127623 0.851876026298308
1284289 -0.39099347068155976 0.8518573312122808
1284554 -0.39076484662925554 0.8517395226518645
1284819 -0.39039068275590716 0.8519989378147763
1285084 -0.39028563895227675 0.8520084266616228
1285350 -0.3901270077199582 0.8520798474283141
1285615 -0.3898733891077107 0.8520908586708581
1285880 -0.38983606720492997 0.8521015500333013
1286145 -0.3895045982253497 0.8521796552153824
1286410 -0.3894277713586799 0.8523307539195681
1286676 -0.3892811054605438 0.8524798772265278
1286941 -0.3892000872535415 0.8525239524977961
1287206 -0.38897445810368564 0.8526388347027342
1287471 -0.38854069082626835 0.8525947703879123
1287736 -0.38830398704712216 0.8527371575468683
1288001 -0.38800411519609385 0.8528870267940973
1288267 -0.38791238882078055 0.8528071909356277
1288532 -0.3877824135062511 0.8529602427648695
1288797 -0.38750803255950744 0.8531569651900706
1289062 -0.3872467537785929 0.8531274979233461
1289327 -0.387001436555325 0.8532525616282622
1289593 -0.3869527047927567 0.8534446602035298
1289858 -0.3867404924372973 0.8534851850377334
1290123 -0.386529420156824 0.8534018669455976
1290388 -0.3862789306764178 0.8535432441003653
1290653 -0.38617733940708826 0.8537045724452469
1290918 -0.38594368823304587 0.8537254683215681
1291184 -0.38587258724631107 0.8538891087577697
1291449 -0.38559984903364153 0.8537237295587836
1291714 -0.38535054889035336 0.8538075713097689
1291979 -0.38508585508642956 0.8539120359220207
1292244 -0.3851485957204853 0.8542304868409136
1292510 -0.38485751201937507 0.8542419933516456
1292775 -0.3846067589980354 0.8541662229351631
1293040 -0.38450982670433614 0.8544424312244285
1293305 -0.3841850315272727 0.85461003363185
1293570 -0.3840637008902103 0.854533408124644
1293835 -0.3839331705361197 0.854715217746699
1294101 -0.38374899900394294 0.8547046325931128
1294366 -0.3833783095993832 0.8546861829715744
1294631 -0.38330301482165896 0.8548968109558012
1294896 -0.38304103733497086 0.8550133106303749
1295161 -0.3830237808192089 0.8551292575363807
1295427 -0.38282327056996496 0.8550700624897131
1295692 -0.3824016895589829 0.854990919635603
1295957 -0.38221207617210307 0.8553169377350625
1296222 -0.38207341965046243 0.8554624125791604
1296487 -0.3818127937712486 0.8553283640138164
1296752 -0.3817553295003987 0.8557172037032853
1297018 -0.38142410563681595 0.8556180238129091
1297283 -0.381249529515664 0.8556253974762302
1297548 -0.3812309832772281 0.8559768158633043
1297813 -0.3810938803535966 0.8560335925804594
1298078 -0.38098384887440634 0.8560716394766706
1298343 -0.3806791740190794 0.856094699177299
1298609 -0.38057732601614597 0.8561562667815847
1298874 -0.38039241345608693 0.8562242751383747
1299139 -0.3801280368229142 0.8564163443739248
1299404 -0.379873676787259 0.8564907249870098
1299669 -0.3796575938963732 0.8564795362399451
1299935 -0.37917776660976865 0.8565380342619704
1300200 -0.37882627513979567 0.8566613582126958
1300465 -0.378859099852614 0.8566540708943906
1300730 -0.37882205834695376 0.8568790532789823
1300995 -0.37866278699835537 0.8569558314309267
1301260 -0.3783715398363551 0.8571093079049259
1301526 -0.3781847166907484 0.857357432432714
1301791 -0.378217798901216 0.857373344857535
1302056 -0.377997523647291 0.8573566232084159
1302321 -0.3778182667404239 0.8575096174850374
1302586 -0.3775472247656919 0.8575612401764113
1302852 -0.3773473507490788 0.8577677953410887
1303117 -0.3770153619477748 0.8577312328180317
1303382 -0.37697022814983155 0.8577139730946609
1303647 -0.3767698047035124 0.8577185015964525
1303912 -0.3763620285464674 0.8576469825512267
1304177 -0.37623415964706497 0.8578673854137971
1304443 -0.37606743826338196 0.8579554212962429
1304708 -0.37581010968964723 0.8581130948657499
1304973 -0.375685283736074 0.8579886383901661
1305238 -0.3754842513084685 0.858226083238474
1305503 -0.3752108931123886 0.8582318565978063
1305769 -0.3750306792541792 0.8585075616020236
1306034 -0.374902079033646 0.8583605631863127
1306299 -0.37477930364892315 0.8584869210956243
1306564 -0.3744730319584681 0.8585722435192062
1306829 -0.37423137678118396 0.8586517188380103
1307094 -0.3740666995132133 0.8587205277291314
1307360 -0.37393259661740935 0.8589143472074918
1307625 -0.3738098032190897 0.8590236592960583
1307890 -0.3734800396691824 0.8590029033617606
1308155 -0.3732800146190002 0.8589119721282933
1308420 -0.37307778958306315 0.8591943534126605
1308686 -0.3729557549785621 0.8592665386467031
1308686 -0.3734710259920319 0.8589738955290702
1308956 -0.3729237075109394 0.8591250429922793
1309227 -0.3726404708003562 0.8593776479015083
1309498 -0.3722590280351409 0.8595178580005671
1309768 -0.3721558803169433 0.8596772793194118
1310039 -0.37219113739007087 0.8599742820294946
1310310 -0.37196822547210234 0.8599324709339445
1310580 -0.3717845241672411 0.8599406281811633
1310851 -0.3715071063587004 0.8600565043897241
1311122 -0.3711849664964492 0.8600579850167099
1311392 -0.37116761217524186 0.8602178207979102
1311663 -0.3709869104444638 0.8602877730455608
1311934 -0.370625426732469 0.8602060637683089
1312204 -0.3704369872969221 0.8603345398097655
1312475 -0.37023244054891574 0.8603852974621039
1312746 -0.3700373861865291 0.8604742383992007
1313016 -0.3699580482754289 0.8606640736123372
1313287 -0.3696900904053239 0.8605151880856933
1313558 -0.3694252218138885 0.8605455976401749
1313828 -0.36927392529669295 0.8606321301399431
1314099 -0.3691704399433338 0.8611660920151759
1314370 -0.36904557375749497 0.8612265823053211
1314640 -0.3687339393855945 0.8609798611687401
1314911 -0.36849040692083496 0.8611263780504015
1315182 -0.36826776271659944 0.8612587959228959
1315452 -0.36816609796567734 0.8614369944979151
1315723 -0.3679732745565582 0.8614982242440162
1315994 -0.3677100746581275 0.8614418622737484
1316264 -0.3675206061510506 0.8614676841921725
1316535 -0.3672212569348298 0.8615369421270949
1316806 -0.3669957956252655 0.8617482707843049
1317076 -0.36692437899111185 0.8617626009235339
1317347 -0.3667864230453108 0.8617388001830223
1317618 -0.36640692993670526 0.8618613221908931
1317888 -0.36616973491344235 0.8620669427393988
1318159 -0.3661167091059639 0.8619529608085169
1318430 -0.3660718400337797 0.8621199092216507
1318700 -0.3657462970842387 0.8622855212652327
1318971 -0.3654933482551298 0.8621329813068458
1319242 -0.3652870181662636 0.8625247205843709
1319512 -0.3650057768523276 0.8622615166750351
1319783 -0.3649923812683501 0.862341230802351
1320054 -0.36467975765464933 0.8622217951568873
1320324 -0.36451079057145647 0.8624358262689328
1320595 -0.3643296440032406 0.8625576754178945
1320866 -0.36393774434877835 0.8628273331652029
1321136 -0.3639776349102314 0.8628764393959059
1321407 -0.3636770001196393 0.8628017880740446
1321678 -0.3635484340375902 0.8629857370332699
1321948 -0.36320918630719573 0.8629951055985674
1322219 -0.3630367919785207 0.863204277587596
1322490 -0.3629360017984763 0.8632448282312682
1322760 -0.3626868842987233 0.8632674246129296
1323031 -0.3623124521514145 0.8633924353329745
1323302 -0.36218181431719815 0.8634844569887571
1323572 -0.3621171848590826 0.8637287141314672
1323843 -0.3618618352338638 0.8636165294924484
1324114 -0.36178460824390984 0.8637542286228802
1324384 -0.3616126211024993 0.8637680429606466
1324655 -0.3613364214530475 0.8639390202168225
1324926 -0.36117199204195344 0.8640880745401597
1325196 -0.3609646975428322 0.864038574674501
1325467 -0.36075619916310725 0.8640347808736819
1325738 -0.3605034533269512 0.8640346795954016
1326008 -0.36017529355574174 0.8642567494736284
1326279 -0.3599171201348433 0.8642791528057047
1326550 -0.359842949604952 0.8645153646105351
1326820 -0.35965892901264807 0.8645843765294047
1327091 -0.35941443160188774 0.8643930838994406
1327362 -0.3592002577011825 0.8647844865927915
1327632 -0.35885193383332614 0.8648847812547582
1327903 -0.35868433233641306 0.8649926111560763
1328174 -0.3586263547152991 0.8650440860979092
1328444 -0.35842020740720315 0.8650859476055421
1328715 -0.3582293014465001 0.8651430988409554
1328986 -0.3580624487435001 0.8651280655122427
1329256 -0.3580198651323839 0.8651894886657076
1329527 -0.35788020898883083 0.8653421399048259
1329798 -0.3577183875316226 0.8653057780468787
1330068 -0.35731842748552306 0.8654111335952476
1330339 -0.35712804091112604 0.8657140625025799
1330610 -0.3569184127458784 0.86578980150309
1330880 -0.3568754329334378 0.8658970418051102
1331151 -0.35652908675521533 0.8658714414418589
1331422 -0.35613340685408046 0.8657677422822199
1331692 -0.35598331328732474 0.8660988940210839
1331963 -0.35588484937085746 0.8661839274797071
1332234 -0.3556708662363162 0.8661862314185803
1332504 -0.3555417388128642 0.8661426288920736
1332775 -0.35512481752674735 0.8663138762752987
1333046 -0.35495244733549325 0.8664907915089298
1333316 -0.35483511714991584 0.86668757098435
1333587 -0.354602133949441 0.8666216272341403
1333858 -0.3543976260192765 0.8668110959990285
1334128 -0.354129561001475 0.8668081025726301
1334399 -0.3539760019681351 0.8669577809718617
1334670 -0.35369912370999945 0.8670359966030213
1334940 -0.3537881834912485 0.8672838471429685
1335211 -0.35351728755010725 0.8672116058346314
1335482 -0.35318052939571437 0.867187065329418
1335753 -0.35294084832170286 0.8672537440606561
1335753 -0.3533863052041759 0.8674450808309416
1336029 -0.35292445511143417 0.8673839587830489
1336305 -0.3527698100152054 0.8675727449556299
1336581 -0.35238442751182636 0.8675515822190356
1336858 -0.3521935546546905 0.8677892602715712
1337134 -0.35197881174161244 0.8677522737809781
1337410 -0.35186703479570397 0.8678333427853214
1337686 -0.3517481829788849 0.8677580912073084
1337963 -0.3514927939280547 0.8678981623717953
1338239 -0.35110652112638424 0.8678784677443152
1338515 -0.35091363494489924 0.8680307130014618
1338791 -0.35080775879011245 0.8681611064229813
1339068 -0.3505342212536412 0.8681933203446697
1339344 -0.3503184283519904 0.8682801308180357
1339620 -0.35004899251656907 0.8683907858364105
1339897 -0.34997083019956793 0.8685685285111173
1340173 -0.34993260522812125 0.8686825007656507
1340449 -0.34976754068114313 0.8686180306790137
1340725 -0.3495852519666841 0.8685108855688567
1341002 -0.349396471137005 0.8687565325580302
1341278 -0.34910327959758103 0.8688767369442386
1341554 -0.3490052572981095 0.8688515796087173
1341830 -0.34877819410918137 0.8688560938967061
1342107 -0.3484038511659234 0.8690737555703292
1342383 -0.3482694148345371 0.8694312573864157
1342659 -0.3479155308886712 0.8692038158432428
1342936 -0.3478553177796227 0.8694370219400784
1343212 -0.3476593459023724 0.8693618214251012
1343488 -0.34742896706662285 0.8693959036542073
1343764 -0.3470888669924663 0.8693939311532768
1344041 -0.34699555581223673 0.8694973786259446
1344317 -0.3468135046854751 0.8697453043095664
1344593 -0.3465917524816269 0.8695944488647179
1344869 -0.3463587403990359 0.8697229840518405
1345146 -0.34615954169114427 0.8698789995290296
1345422 -0.34597550905784413 0.8700380117517152
1345698 -0.34577528243114136 0.8703201218834428
1345974 -0.34572582820150116 0.8701763571445782
1346251 -0.345277116692411 0.8700835820057726
1346527 -0.3449185788767739 0.8700620053555121
1346803 -0.3448303511848343 0.8702704840964082
1347080 -0.34469006583121653 0.8703698000972986
1347356 -0.34435997938719487 0.8702609342204017
1347632 -0.3441926695544499 0.870425068003972
1347908 -0.34402973430937867 0.8706458180804866
1348185 -0.34385541323748203 0.8708766483350087
1348461 -0.3436833400736529 0.8708232154042863
1348737 -0.3436279883546396 0.8708569283316162
1349013 -0.3432570071406218 0.8707366449724193
1349290 -0.34308160939702376 0.8707860178665957
1349566 -0.34288456683040286 0.8709797014329503
1349842 -0.3426542797297037 0.8710398623725842
1350119 -0.3424468302159663 0.8711093683405957
1350395 -0.34212685063585796 0.8711006496289982
1350671 -0.3419362639159199 0.8712857027155506
1350947 -0.34162866230650163 0.8714032509714036
1351224 -0.3416533285859877 0.8716980835104226
1351500 -0.3413859498769397 0.8716417709308424
1351776 -0.3412341549358058 0.871515361348774
1352052 -0.3409669936700177 0.8716383166186698
1352329 -0.34073451437606483 0.8717170932521013
1352605 -0.34076890611416066 0.8719524493092776
1352881 -0.3404256251658983 0.8718409597634309
1353158 -0.34015724138519804 0.8719863074021573
1353434 -0.33990354043671595 0.8723504988795912
1353710 -0.33959180979351616 0.8722253412636675
1353986 -0.33953683459722367 0.8724631593415307
1354263 -0.3393991156807635 0.8725955371112478
1354539 -0.33909509499838486 0.8725671544899273
1354815 -0.338953698958287 0.8726316702215464
1355091 -0.33879451655513637 0.872776870602266
1355368 -0.33860278301811286 0.8729099651488741
1355644 -0.3382780459503935 0.8727492138686431
1355920 -0.33812165343030587 0.8728505350095697
1356196 -0.33774949337440857 0.8728161301267469
1356473 -0.3376482082122926 0.8730233478572536
1356749 -0.3374296357787524 0.8730640898381093
1357025 -0.33730800307874087 0.8729596949774764
1357302 -0.33694315708133393 0.8729633607234367
1357578 -0.33670573070389254 0.8731706848549909
1357854 -0.3365549690900687 0.8733444401309991
1358130 -0.336388092090631 0.873408010057509
1358407 -0.33623086401257873 0.8735083670259984
1358683 -0.33589957572925355 0.873541990877687
1358959 -0.33563627328560114 0.8736147171882563
1359235 -0.33551687812268755 0.8737695552677718
1359512 -0.3354083914961185 0.8738222515576537
1359788 -0.33528083309728063 0.8738962371455836
1360064 -0.33510789437469557 0.8738128937052109
1360341 -0.3348989900853595 0.8740694672955549
1360617 -0.33478261106050744 0.8741847494466354
1360893 -0.33465694816938635 0.8743057750141794
1361169 -0.3345290453774615 0.8743513987040834
1361446 -0.33425091344040825 0.8744769031702596
1361722 -0.3339053107071845 0.874564033819132
1361998 -0.333862128465079 0.8748309685115703
1362274 -0.3334980160289765 0.8747343829551333
1362551 -0.3332564649140656 0.87465552366217
1362827 -0.33294797297503076 0.87480946414275
1363103 -0.33280987106454474 0.8748394867913454
1363380 -0.3326652364113953 0.8749744637009782
1363380 -0.3331016823026415 0.8745795901193499
1363661 -0.33252216194429285 0.8746155696103075
1363943 -0.3322612696063883 0.8746588711143487
1364225 -0.3320715669820653 0.874951035293082
1364507 -0.3317850405459456 0.875195474901064
1364789 -0.3315216242975127 0.8753897559152414
1365071 -0.3313771643624734 0.8752917429338343
1365353 -0.33115935627658033 0.8752479191857201
1365635 -0.33088988829984284 0.8753849779427534
1365917 -0.3307347858745503 0.8756912677358643
1366199 -0.33045137414835263 0.8756524481271848
1366481 -0.33022648853580666 0.8755676194596106
1366763 -0.3299614954150443 0.8758288045137106
1367045 -0.3296327776880546 0.875904866495831
1367327 -0.32943724440241734 0.8760998760259742
1367609 -0.32940692948754097 0.8760552384710014
1367891 -0.3291245275890214 0.8760396605442679
1368173 -0.32889738194349993 0.8762048679429026
1368455 -0.32860644037037967 0.8762309534878877
1368737 -0.3284065049990574 0.8764464389823216
1369019 -0.32833719683761964 0.8764667040567451
1369301 -0.3281145505925113 0.876296890981723
1369583 -0.3278534767497961 0.876351539945793
1369865 -0.32761905044521916 0.8766218451143293
1370147 -0.3274671074724562 0.8765367100518257
1370429 -0.32740672833492585 0.8767452306426297
1370711 -0.3272153595942701 0.8765759392180663
1370993 -0.3269056423675571 0.8767426183246005
1371275 -0.3266156264884909 0.876761316544262
1371557 -0.32656793835776976 0.8770148299769741
1371839 -0.32632307734476823 0.8768878952068245
1372121 -0.32612321038399483 0.8769185908022812
1372403 -0.32576331092789446 0.8770662195365718
1372685 -0.3256538663554808 0.8773077309441527
1372967 -0.325299358086551 0.8773821722721805
1373249 -0.32514930348478843 0.8773544620030055
1373531 -0.32487875948239303 0.8773254337822881
1373813 -0.3245385818919747 0.8775396978585879
1374095 -0.3243190686452255 0.8776381274275215
1374377 -0.3241918917979685 0.8775603552916741
1374659 -0.3239277307882773 0.8776375256933786
1374941 -0.32376735545169527 0.8779610869819738
1375223 -0.32349630591456696 0.8780929373196167
1375505 -0.3234136492901031 0.8783020014940738
1375787 -0.32333378535247725 0.8784101738003991
1376069 -0.3230728771772615 0.8783855080130234
1376351 -0.32288195037789025 0.8784750396654466
1376633 -0.32259067684769716 0.8783508018902001
1376915 -0.3224185157766495 0.8784481191710505
1377197 -0.3223090567610595 0.8783190814800241
1377479 -0.32212542696629154 0.8784337336919271
1377761 -0.3218094327467674 0.8786385551899433
1378043 -0.3215176689120712 0.8785842061537925
1378325 -0.3215499992331434 0.8788029769076207
1378607 -0.321299974189304 0.8788075350758527
1378889 -0.3211412048814729 0.878788867366381
1379171 -0.3208032935809857 0.8790052942829855
1379453 -0.3206432009196142 0.8791904282662512
1379735 -0.3203710284907281 0.8791716617663868
1380017 -0.3201878007642573 0.8792720182114211
1380299 -0.3198516533083163 0.8793026622782415
1380581 -0.31967645423111185 0.8796069867566412
1380863 -0.3195209248020824 0.8796066116262985
1381145 -0.3195209787304022 0.879815677923862
1381427 -0.3193202400446756 0.8796018608448585
1381709 -0.3190489172433076 0.879672968688219
1381991 -0.3188057876981951 0.8798881826552813
1382273 -0.3186315186003536 0.8799929473083704
1382555 -0.31840064212753655 0.8800775624864852
1382837 -0.3180778295301137 0.879921494675403
1383119 -0.3177801058922438 0.8801340918215994
1383401 -0.3173081734552695 0.8802183759792709
1383683 -0.31728977325322294 0.8801547349287222
1383965 -0.31722719142181527 0.8800740681334036
1384247 -0.3170373950938578 0.8798193602829391
1384529 -0.31684487088873625 0.8798037183972662
1384811 -0.31657666746388063 0.8796809930944985
1385093 -0.3164117797687836 0.8800298003541862
1385375 -0.316122595338399 0.8803315115801669
1385657 -0.3158289022058122 0.8805683851169386
1385939 -0.3155335199416655 0.8808884980181617
1386221 -0.31515898485990157 0.881295685969129
1386503 -0.3151362243499208 0.8813236068702816
1386785 -0.31485767683724025 0.8812978265569256
1387067 -0.3147642316602294 0.8811804315284542
1387349 -0.31453655939230735 0.8810794998001178
1387631 -0.3143533370455386 0.8811615882750501
1387913 -0.31424654612070885 0.8811986091483571
1388195 -0.31402174653190074 0.8813250622304123
1388477 -0.31375679999759537 0.8813995337223309
1388759 -0.3134644820262403 0.8815387940134001
1389041 -0.31327995554030796 0.8818057788406695
1389323 -0.31310902568420423 0.8818181057357231
1389605 -0.31298223666851 0.8816817281207183
1389887 -0.31272233515571185 0.8816946603805388
1390169 -0.31247039095838497 0.8816445047942203
1390451 -0.31237626134555924 0.8819430658818807
1390733 -0.3122037513243729 0.8817786152320622
1391015 -0.31189943582000734 0.8816679625403179
1391297 -0.311624694072066 0.8819521053104862
1391579 -0.3113576791170392 0.8820662183422056
1391579 -0.3113668311138976 0.8821260083432518
1391866 -0.3113032353769556 0.8823751708269973
1392154 -0.31108547999967456 0.8825474283660386
1392442 -0.3109499638879908 0.8823060436548691
1392730 -0.31065296254179897 0.8823646539160037
1393018 -0.31038905608094275 0.8825387147410614
1393305 -0.31020756160244783 0.8826362936042884
1393593 -0.31010077457335894 0.8826833600169077
1393881 -0.3097743862602834 0.8827296839994752
1394169 -0.30946272361652805 0.8827789398694442
1394457 -0.3092634354918459 0.8829907896671043
1394744 -0.30907539350476954 0.8832437087021158
1395032 -0.3089249458702178 0.8831781365769982
1395320 -0.308638800077252 0.8831353377130599
1395608 -0.3084090954377266 0.8832923646039174
1395896 -0.308204525474211 0.8833421601351866
1396183 -0.308062113694017 0.8832476649624728
1396471 -0.3078723323933909 0.8831595602802269
1396759 -0.3075643480767245 0.8832752672220829
1397047 -0.30722044463605225 0.8834803425473688
1397335 -0.3069874329918554 0.8836793640569983
1397623 -0.30669913702474566 0.8837524046337845
1397910 -0.3067105732903077 0.88390791603696
1398198 -0.30639445834203827 0.8838903642516504
1398486 -0.3061483880012956 0.8840911637411546
1398774 -0.3060004041320772 0.8839250442398184
1399062 -0.3058415858695847 0.884087540738478
1399349 -0.30570079368248104 0.8838006501353232
1399637 -0.30534541736020443 0.8840345994735879
1399925 -0.3052273820368707 0.8842227765371843
1400213 -0.30501966362346994 0.8839789361498612
1400501 -0.3049591846437006 0.8841096688520188
1400788 -0.30470882769920216 0.8843293506272557
1401076 -0.3043992446966079 0.8844822669803318
1401364 -0.3041381096247955 0.8845493932748751
1401652 -0.3038919569743557 0.884655351215192
1401940 -0.3036882568098356 0.8847368489209396
1402227 -0.3034778449436501 0.8847495902795912
1402515 -0.3031341322629143 0.8847970309729981
1402803 -0.303070865899414 0.8849518470693938
1403091 -0.30295921021551314 0.8852355036817805
1403379 -0.3028536335387313 0.8850025690489162
1403667 -0.30259647534563544 0.8850265634838117
1403954 -0.3024082339516067 0.8851801986486072
1404242 -0.30203819538090854 0.885131312404634
1404530 -0.3019590330481727 0.885266938951994
1404818 -0.3015498321954279 0.8850686002809066
1405106 -0.30118350721310577 0.8851464273824293
1405393 -0.3009462514593317 0.88536850753733
1405681 -0.3008863239412306 0.8855997684334895
1405969 -0.30061176956480756 0.8856278085670762
1406257 -0.30038922359661163 0.885752477855024
1406545 -0.3002159121758113 0.8858393679242388
1406832 -0.29990730365510737 0.8860202159263554
1407120 -0.2997273303828799 0.8860119059990557
1407408 -0.29952269232301765 0.8860471075722423
1407696 -0.29938852329715343 0.886271761652309
1407984 -0.29894851929211924 0.8863806074529637
1408271 -0.2988495261171936 0.8864697965674919
1408559 -0.2986809394937031 0.8865588429453535
1408847 -0.29855114264540256 0.8863109846490068
1409135 -0.29829490562910643 0.8861892899534826
1409423 -0.2980341765832887 0.8863795929630879
1409711 -0.2979431479467633 0.8863844125074533
1409998 -0.29787514424402034 0.8865631724126801
1410286 -0.29745403736117665 0.8865945441937241
1410574 -0.2972125972614 0.886628100527132
1410862 -0.29706582758187877 0.8868196526244411
1411150 -0.29699128952133824 0.8870369530509289
1411437 -0.2968164092980718 0.8869603019198893
1411725 -0.2965276462755545 0.8869319744708928
1412013 -0.2962719080340398 0.8869923779498887
1412301 -0.2959890051845475 0.8871243986698297
1412589 -0.29590011744475986 0.8873361886858125
1412876 -0.29558559607903695 0.8872770713653428
1413164 -0.29527607963165403 0.8874230896550311
1413452 -0.2949224203452668 0.8874020976604
1413740 -0.29479506134599015 0.88770409114389
1414028 -0.29460253231935696 0.8877500500043757
1414315 -0.29437616937495675 0.8876905679018239
1414603 -0.29402779980740446 0.8876305674474984
1414891 -0.2938388918522944 0.887815660696017
1415179 -0.29384963445772155 0.8879005563455763
1415467 -0.29344670928425753 0.8878561228409091
1415755 -0.29317468858390794 0.8877565427896901
1416042 -0.29296496271744416 0.8880313500225396
1416330 -0.2925527701358451 0.8881576087080436
1416618 -0.2924450388333798 0.8883744956110214
1416906 -0.29228179501741075 0.888259402064647
1417194 -0.29196173653725144 0.8883372479217806
1417481 -0.2918165079296553 0.888439983244476
1417769 -0.29164066957732354 0.888675267657138
1418057 -0.29133175614861717 0.8886841731797672
1418345 -0.2911507046461389 0.888655651230423
1418633 -0.29090138338969196 0.8886412414236645
1418920 -0.2907691435034531 0.8887409373756676
1419208 -0.2904510833359512 0.8889586593074188
1419496 -0.2903349170108954 0.8889398643629766
1419784 -0.2902911733359148 0.8889272954976256
1420072 -0.29001501934143425 0.8890339740681131
1420360 -0.2896390268932404 0.8891428929835722
1420360 -0.29029411388902954 0.8892286133796216
1420653 -0.2896443831920568 0.8889562703490178
1420947 -0.2893643186739352 0.8890569770692155
1421241 -0.28893644022904713 0.8890181166481038
1421535 -0.2887116947514823 0.8892758723478049
1421828 -0.28844169546495 0.889313053420209
1422122 -0.2883687174097304 0.889593198729909
1422416 -0.2883075869251343 0.8898070904396354
1422710 -0.2881396125346519 0.8897676606615035
1423003 -0.28771951385935696 0.8896443572467004
1423297 -0.2874393490002235 0.8897063018473031
1423591 -0.28723182884730264 0.8898212050082348
1423885 -0.28694766119644916 0.8897500150444254
1424179 -0.286526557326362 0.8895736353697388
1424472 -0.2862681042490467 0.8898149764081165
1424766 -0.286196633489966 0.8900835271387818
1425060 -0.28602630608622726 0.890153240184805
1425354 -0.2859425938852481 0.8902619370649756
1425647 -0.2856209379973359 0.8902546072233117
1425941 -0.2853943545892542 0.8904029326093663
1426235 -0.28527394084644125 0.8904797836803513
1426529 -0.2850759358379297 0.8904764770765355
1426822 -0.2847458156383343 0.8904549528860239
1427116 -0.2845766781481596 0.8906881593934012
1427410 -0.2843539806650352 0.8907182138416717
1427704 -0.28423807668094614 0.8908669969182668
1427998 -0.2840779977628052 0.8909641956792351
1428291 -0.2836892836965804 0.8910636812918428
1428585 -0.2836526834998784 0.8912278025450264
1428879 -0.28328054857194707 0.8912378871464655
1429173 -0.28307889512763346 0.8912701171442273
1429466 -0.28271454529053425 0.8912473168636246
1429760 -0.2825100332530196 0.8913208425504795
1430054 -0.2821425874600498 0.8917362016329441
1430348 -0.2820788246863153 0.8916795344270076
1430641 -0.2819265997912776 0.8913921506386993
1430935 -0.2817885690420885 0.891559996170082
1431229 -0.28153125166928034 0.8916599064258278
1431523 -0.2813463881610873 0.8915890256089127
1431817 -0.28133226936324496 0.8917815809797177
1432110 -0.281010389566033 0.8916730911410425
1432404 -0.28064203974115703 0.8918161939377725
1432698 -0.2805118243584344 0.8919040744083271
1432992 -0.2803211987124412 0.8920957813211107
1433285 -0.28012834197263226 0.8920202487686771
1433579 -0.27995393230153565 0.8922762330140905
1433873 -0.2796106892765712 0.8923518608249633
1434167 -0.27943145810912695 0.8923660453666461
1434460 -0.2793095305800487 0.8925701563030686
1434754 -0.2790316758936978 0.8924466292766565
1435048 -0.27883544654070763 0.892468575185539
1435342 -0.27836816959620186 0.8923757200346059
1435636 -0.27809189320969896 0.8925127527576051
1435929 -0.2779598437404257 0.8924569267004216
1436223 -0.2777158304438373 0.8924304500001442
1436517 -0.27742781234647296 0.8925134157658808
1436811 -0.27731240982114874 0.8927293053898944
1437104 -0.2771292768228822 0.8928989999987079
1437398 -0.27686730328862924 0.8930218620765802
1437692 -0.27669272821861846 0.8930180401266304
1437986 -0.2763295716648142 0.8930657524108254
1438279 -0.2761693449448962 0.8931251347499422
1438573 -0.2760267269629572 0.8933617251808577
1438867 -0.2758882447117209 0.8934299822208628
1439161 -0.2754542219546499 0.8934323995969231
1439455 -0.2752873187131412 0.8934332360584724
1439748 -0.27516185069578175 0.8934312669028212
1440042 -0.27491702023798115 0.8934276367596329
1440336 -0.27468365405994266 0.8933688449053571
1440630 -0.27423846265256024 0.8935656546669937
1440923 -0.2740875963104116 0.8936099133717657
1441217 -0.2739346173540387 0.8938185453117324
1441511 -0.27372755491887896 0.8937949839307153
1441805 -0.2733681638640777 0.8938461478916736
1442098 -0.2731058824422585 0.8939404352221235
1442392 -0.2729294446468708 0.893963696651761
1442686 -0.27283895362666627 0.8941833125552008
1442980 -0.27245599714504043 0.8942702608790548
1443274 -0.2722622854779844 0.8942643645557382
1443567 -0.27201700062705864 0.8945177732096838
1443861 -0.27199774831175116 0.8945133755608758
1444155 -0.2717685646016471 0.8945172128295886
1444449 -0.27154958910545207 0.8946628755681824
1444742 -0.27137417354844623 0.8946262139020387
1445036 -0.2711237952972311 0.8946697500684739
1445330 -0.2709209375579442 0.8949534264502387
1445624 -0.27082896776772936 0.8950473975335221
1445917 -0.2703234214993738 0.8947278442118596
1446211 -0.2702544019320878 0.8948730308966428
1446505 -0.2699118114815373 0.8949972486825268
1446799 -0.2697987889529606 0.8950266371905448
1447093 -0.26958751584971063 0.8950317333035592
1447386 -0.26923339579223105 0.8950438917782639
1447680 -0.2690720368597946 0.8950841400143436
1447974 -0.26884531838971204 0.8952027164435225
1448268 -0.2686131754017752 0.8949729595117518
1448561 -0.2685145972345771 0.8950954255411517
1448855 -0.2681342796664172 0.8951330974962145
1449149 -0.2680116452718629 0.8953686080091173
1449443 -0.26777242836490556 0.8956074929860954
1449737 -0.26755085885541824 0.8955320204056161
1449737 -0.2675926279460392 0.8959031974409769
1450036 -0.2672726223167927 0.8958625617188473
1450336 -0.2669080980774038 0.8959265743112029
1450636 -0.26681274716051717 0.8959647991795161
1450936 -0.2665586822968835 0.89594320686507
1451236 -0.266313388944755 0.8959569206840791
1451536 -0.26606056932672656 0.8960883965712653
1451835 -0.26576886352446016 0.8959304272510963
1452135 -0.26569739169310025 0.8962683705774551
1452435 -0.2655608678594358 0.8962943916402075
1452735 -0.2652891039707745 0.8962202689182213
1453035 -0.2650317906791045 0.8964087862102802
1453335 -0.2648729478022185 0.8964526598064935
1453635 -0.264703498672506 0.8964769168336453
1453934 -0.26442046361245075 0.8964115691819533
1454234 -0.26406829152821787 0.8965833380256
1454534 -0.26380788652080855 0.8967040736547046
1454834 -0.26356917531194596 0.8967716734543575
1455134 -0.2633375460758668 0.896863375188227
1455434 -0.26309721397472163 0.8968343334942906
1455734 -0.2627654482128698 0.8969026890482167
1456033 -0.262636770391408 0.8969132598839327
1456333 -0.26239650457929503 0.8969581374570469
1456633 -0.26217326545661 0.8969997681771776
1456933 -0.2618992066151692 0.8971174332337266
1457233 -0.2616452932229776 0.8970893231984547
1457533 -0.2615352053734381 0.8972000852737638
1457832 -0.2614092016060475 0.8971181122489059
1458132 -0.261058120418919 0.8973074865946713
1458432 -0.26066468211533633 0.8975136704714229
1458732 -0.26068912758302787 0.8975820076710957
1459032 -0.26059606585905726 0.8977998804160119
1459332 -0.26030027055092675 0.8977653451415021
1459632 -0.26001805046081555 0.897928224959822
1459931 -0.25977303759355186 0.8980574406382595
1460231 -0.2595022818161644 0.898060238201447
1460531 -0.25935351202734824 0.8979269655048737
1460831 -0.2590588059467767 0.8979837534801655
1461131 -0.2588348963441678 0.8980969534403378
1461431 -0.2588190553092346 0.8981760957767766
1461731 -0.25845801892575665 0.8980713568958675
1462030 -0.25814752466464586 0.8981106231915389
1462330 -0.25793333035374083 0.8981112276606792
1462630 -0.2577332797521852 0.8983296206417086
1462930 -0.2575040386452267 0.8985276650939266
1463230 -0.25735360700890814 0.8986651753678536
1463530 -0.2570192884594969 0.8987047400194597
1463829 -0.25677635537500626 0.8987071985805366
1464129 -0.2566376025748773 0.8988315554832514
1464429 -0.256453423911001 0.8990195899576313
1464729 -0.25599583751424665 0.8989544950915195
1465029 -0.25581731357202164 0.8990170722318014
1465329 -0.2556362670161919 0.899149054019275
1465629 -0.2552963369959083 0.8991795968949614
1465928 -0.25509687831750527 0.8989924010280153
1466228 -0.2549665660605575 0.8990735020784948
1466528 -0.25461322788927276 0.8991566920376971
1466828 -0.25437914430693254 0.8992760217120181
1467128 -0.2541413391924731 0.8994396260427067
1467428 -0.2539966969432959 0.8995176624610448
1467728 -0.2536337637557059 0.8994114872230021
1468027 -0.2533930778609938 0.8996067770200492
1468327 -0.2532385028846086 0.8996251006613277
1468627 -0.25305874005539036 0.8998009689288052
1468927 -0.2527745065282917 0.8997185009920481
1469227 -0.2526037076754377 0.899741637562845
1469527 -0.25243904925928673 0.8999670371376655
1469826 -0.2522456281354406 0.8999000194580306
1470126 -0.25192170086903304 0.8998048917054362
1470426 -0.2517002746444852 0.9000500220970842
1470726 -0.2512126429810374 0.900019374603486
1471026 -0.25118504341328374 0.9001750563841417
1471326 -0.25096516177993994 0.9001873227058728
1471626 -0.2506935865061004 0.9002961294442903
1471925 -0.2503862001486771 0.9004397274345909
1472225 -0.25038159637203256 0.9006031115204094
1472525 -0.2500921267842604 0.9006268969214879
1472825 -0.24991241659117808 0.900579717151909
1473125 -0.2494539678037246 0.9004957839551152
1473425 -0.24915145367830652 0.9006780921259689
1473725 -0.2489644258711599 0.9009398201530958
1474024 -0.24881059529400082 0.9007760663726805
1474324 -0.2485888735660457 0.9006091557911965
1474624 -0.24837929639834136 0.900736978966695
1474924 -0.24840216029072107 0.900843330931165
1475224 -0.24817302175386444 0.9008405935815149
1475524 -0.24797461066386087 0.9006920155141129
1475823 -0.24754708026539216 0.9007694512606692
1476123 -0.24732784961498966 0.9011624929662356
1476423 -0.24712674731429507 0.9012473127673365
1476723 -0.2469206363473376 0.9012825142296469
1477023 -0.24665975571810944 0.9012070351008492
1477323 -0.24631647698961243 0.9012188600736845
1477623 -0.24615528866049627 0.9014156834060951
1477922 -0.24600068610681594 0.9013822678599305
1478222 -0.2457063160922717 0.9015587184531968
1478522 -0.2453336632222881 0.9014746370747179
1478822 -0.24523105478802365 0.9017520434769278
1479122 -0.24495792206769382 0.9019124816871896
1479422 -0.244773443965176 0.9018226302655579
1479722 -0.2446102366106613 0.9020130486264097
1479722 -0.24486400042079615 0.9026015273529995
1480028 -0.24452138733779957 0.902146187947797
1480334 -0.2442368192657438 0.9021792379652339
1480640 -0.24396063984690286 0.9021439230589682
1480946 -0.24369395633571936 0.9021901938028674
1481252 -0.24329551978772623 0.90221306725862
1481558 -0.24306058802040048 0.9024548415822937
1481864 -0.24296376802665667 0.9023302820831716
1482170 -0.2427512882307669 0.9024133774889181
1482476 -0.24241504395057203 0.9024198556044202
1482782 -0.24204768657324757 0.9025398181514177
1483088 -0.24202142691035491 0.9025205207331822
1483394 -0.24191585802860352 0.9026496336524185
1483700 -0.24155900142318915 0.902497596159688
1484006 -0.24139213016879277 0.9028117887842967
1484312 -0.2412123837220799 0.9029886426481756
1484618 -0.2410615387704372 0.9030408207540958
1484924 -0.24086022051094108 0.9030333333182038
1485230 -0.24055478558585586 0.9029206359713963
1485536 -0.24032100353814925 0.9031441394501242
1485842 -0.240146506566269 0.9031615068457316
1486148 -0.23985183243616845 0.9032350755176164
1486454 -0.23954299965491108 0.9032106238235429
1486760 -0.23920233273393898 0.9033022754266165
1487066 -0.23900537872959673 0.9033357466568027
1487373 -0.2389227460874677 0.9037309603711678
1487679 -0.2386498037305607 0.9035459043934332
1487985 -0.23837401320108442 0.9035628867235387
1488291 -0.23811022398093198 0.9036801972517765
1488597 -0.238054897156051 0.9038906332656641
1488903 -0.23775488464218983 0.9036851742021416
1489209 -0.23749927889081415 0.9037263793470075
1489515 -0.23718930163998983 0.9039064145155247
1489821 -0.2369003499695689 0.9038955217008484
1490127 -0.23681180514420663 0.9038544240433714
1490433 -0.2364961092844373 0.9039522339824092
1490739 -0.2362341393824445 0.9040094418035157
1491045 -0.23585848464744855 0.904345472059666
1491351 -0.23566645799938385 0.9042872505107047
1491657 -0.23545678854255495 0.9041976329181904
1491963 -0.2351812286289378 0.9043743059428705
1492269 -0.23490471815420108 0.9043713266379751
1492575 -0.23483446521505666 0.9044728765114364
1492881 -0.23456253018771828 0.9042723286304217
1493187 -0.23434779769916217 0.9045446179120932
1493493 -0.23408729854831709 0.9046615192385844
1493799 -0.23393221405848058 0.9047533369054731
1494105 -0.2336308451786627 0.9048269159785881
1494411 -0.23350491715586885 0.9049570117936928
1494717 -0.23320964016316398 0.9050114742487064
1495024 -0.2328800887595058 0.9051220491648169
1495330 -0.23268002760208573 0.9051062246232874
1495636 -0.2325575520271142 0.9048780231127082
1495942 -0.23231899578238077 0.9049180897583818
1496248 -0.2319950572847357 0.9049929296984727
1496554 -0.23178734244604596 0.9052133760143851
1496860 -0.231755037446158 0.9051966076095745
1497166 -0.23136766305478187 0.9050375368287465
1497472 -0.23107964743633624 0.9052352755857336
1497778 -0.230768569187277 0.9053357086856619
1498084 -0.23059613432829368 0.9054689417171815
1498390 -0.23033694236787852 0.9054754451362567
1498696 -0.2300707135441754 0.9054654884815939
1499002 -0.22979873450643976 0.9057027953237616
1499308 -0.22967200944273997 0.9057654905110792
1499614 -0.2293807165222662 0.9057564436614495
1499920 -0.229145393235858 0.90586067419835
1500226 -0.22883549412263884 0.9060207341099435
1500532 -0.22869031948153984 0.9061237650705893
1500838 -0.22860393990370304 0.9061026419266718
1501144 -0.2283308429188248 0.9058243070771634
1501450 -0.22804864983250633 0.9060042741266503
1501756 -0.22773503169686687 0.906031737316846
1502062 -0.2275689272666984 0.9061740429300631
1502368 -0.2274093656317266 0.9061464306864475
1502675 -0.22697923358401165 0.906227251427113
1502981 -0.22689647334602958 0.906630685928244
1503287 -0.22660854812309048 0.9066180577373328
1503593 -0.2263680517589611 0.9065158473679175
1503899 -0.22629271184262437 0.9065442626179385
1504205 -0.22586558293649495 0.9066378286369334
1504511 -0.22565722221174794 0.9066681088568384
1504817 -0.2253951327636761 0.9068012402055099
1505123 -0.22503922420768085 0.9066924545392209
1505429 -0.22462634130987502 0.9068130492076746
1505735 -0.2244953726004627 0.9068381466297135
1506041 -0.2243697200109099 0.9071221310692547
1506347 -0.2242123145700618 0.9069258000932976
1506653 -0.224018654595765 0.9070005254345329
1506959 -0.22376048875871526 0.906968854177971
1507265 -0.2236679809588706 0.9071677595013445
1507571 -0.22355837725661915 0.9072396916727998
1507877 -0.22319597989870474 0.9070711945320538
1508183 -0.2228848946789211 0.9071719325466757
1508489 -0.22260767168944623 0.9072764010095524
1508795 -0.22243586236403426 0.9074343728040941
1509101 -0.222278101604196 0.9074305084595987
1509407 -0.22196788680454532 0.9074204634408669
1509713 -0.2216862593652744 0.9075219673053487
1510019 -0.22141620901146417 0.9076864480173396
1510326 -0.22111352015027286 0.9076656828504706
1510326 -0.22127188738879044 0.9074308770686865
1510638 -0.22086707865407199 0.9077081212059331
1510950 -0.22043292905169368 0.9078548607264859
1511263 -0.2203592305406692 0.9081100788025923
1511575 -0.2202728974239454 0.9080356577555632
1511887 -0.21991993041500438 0.9079371673649886
1512200 -0.21963055052481684 0.9080573942992076
1512512 -0.21942425707806998 0.9080187259256587
1512825 -0.21927639244279418 0.9084463605036912
1513137 -0.21906885743536147 0.9083053989608346
1513449 -0.21869137244920656 0.9084266202366543
1513762 -0.21858759836338806 0.9084625511835451
1514074 -0.2182940452280852 0.9085396229374513
1514386 -0.2182563536129986 0.908565729823268
1514699 -0.2178211608582953 0.9083604281345564
1515011 -0.21767058159528604 0.9085103081436949
1515324 -0.2174927435510154 0.9087280073387115
1515636 -0.21722857892173095 0.9087275497170227
1515948 -0.21697073105808515 0.9087601684039108
1516261 -0.21669406979577785 0.9088804236987809
1516573 -0.2163752440710399 0.9090854501746336
1516885 -0.21615338079542362 0.9091642959570458
1517198 -0.21604362670188126 0.9091835617756596
1517510 -0.21562312910658313 0.9090968595398458
1517823 -0.21530462065946773 0.9091371832249311
1518135 -0.2152716740918923 0.9093924996500514
1518447 -0.21507538984601055 0.9093762617515467
1518760 -0.21491533289587583 0.9093662119372311
1519072 -0.21463537315132875 0.9092829427949984
1519385 -0.21448258201431533 0.9095983831945058
1519697 -0.21404494213875774 0.9094146014459239
1520009 -0.21386270653898673 0.9093636531215981
1520322 -0.21353363741315298 0.9094766861934883
1520634 -0.21324742358007814 0.9093939917449617
1520946 -0.2129987382222448 0.9097012273886733
1521259 -0.2128572816592184 0.909634571556328
1521571 -0.21250731907186615 0.9096935604901002
1521884 -0.2121980270590107 0.9096617669108069
1522196 -0.21188572680010773 0.9098556559212726
1522508 -0.2117905296444909 0.9099582928213943
1522821 -0.21160689298559401 0.9098078473368788
1523133 -0.2112991905883427 0.9098912724954124
1523445 -0.21112867057749204 0.9101291390210247
1523758 -0.2107480865718192 0.9101118783209743
1524070 -0.21069242828247461 0.9101570374101491
1524383 -0.21035585049694963 0.9100936642414739
1524695 -0.2101518797086379 0.910164687780148
1525007 -0.20999745409885592 0.9102590008373368
1525320 -0.2098738706620313 0.9101769170133371
1525632 -0.20940507146138937 0.9101845755032497
1525945 -0.20918668358705228 0.9102207560398438
1526257 -0.20884852120048258 0.9101008500558341
1526569 -0.20868912618996288 0.9101525879673671
1526882 -0.20844396440441837 0.9103286305805982
1527194 -0.208235473716556 0.9105294085259538
1527506 -0.20793526646918684 0.9105595170755452
1527819 -0.207981678242795 0.9108238553721576
1528131 -0.20772497788525865 0.910597518522195
1528444 -0.20735554024777858 0.9105048712607519
1528756 -0.20703148041803873 0.9107578257356852
1529068 -0.2067918521617309 0.9108904862772117
1529381 -0.2065358582038579 0.9108493442451385
1529693 -0.20638982593807575 0.9108690720918631
1530005 -0.20605391509768217 0.9110823760497883
1530318 -0.2057658676752931 0.91126051016876
1530630 -0.20561367809370484 0.9111315383754125
1530943 -0.20526727004220158 0.9111117487527896
1531255 -0.2046389059385755 0.9110947239110564
1531567 -0.20397803735228043 0.9110821644842062
1531880 -0.2034629528727186 0.9110474965344684
1532192 -0.20283242611705304 0.9107225656722833
1532504 -0.20298799092292055 0.9110404761353298
1532817 -0.20330014926205156 0.9113543857976183
1533129 -0.20351118899337997 0.9116815967275823
1533442 -0.20402491200637896 0.9119355253812977
1533754 -0.20390293615834734 0.9118545832762216
1534066 -0.20342054568308604 0.9118208948334265
1534379 -0.20295626360345775 0.9121175608014056
1534691 -0.2024719721449772 0.9121217123218759
1535004 -0.20193217570189098 0.9120344177821976
1535316 -0.2016228859352395 0.9120998498330697
1535628 -0.20138563741446558 0.9120406076859254
1535941 -0.2013546729345682 0.9122694979592585
1536253 -0.20118013563869602 0.9120720278927064
1536565 -0.20103471706493406 0.9120287698727098
1536878 -0.20064283626747575 0.9121814510923015
1537190 -0.20053281515135196 0.9123545236063152
1537503 -0.20046703531918275 0.9126435528398166
1537815 -0.20014382050264695 0.9125510920522022
1538127 -0.19988588463783916 0.9126073544383092
1538440 -0.19961525651238593 0.9127251555880064
1538752 -0.19940092802547563 0.9128075671273075
1539064 -0.19926086204362747 0.9127503830441037
1539377 -0.1989724500075627 0.9126227874723095
1539689 -0.19862790304622577 0.9126992911074002
1540002 -0.1984723106335611 0.9129119952929503
1540314 -0.1982664142634803 0.9130149691951897
1540626 -0.19802387893766338 0.9129489139112175
1540939 -0.19766015514617946 0.91318510115577
1541251 -0.19751163105487987 0.9132372887842207
1541564 -0.1972983312999367 0.9131309880115509
1541564 -0.19708415869391332 0.9133562376418565
1541882 -0.19713602693366214 0.9132906973137891
1542201 -0.19686116840046874 0.9132315701977693
1542520 -0.19642883078885426 0.9130472288021877
1542839 -0.1961978304840002 0.9131965805645289
1543158 -0.19594243372600917 0.9132751239616101
1543477 -0.19566424920769834 0.9132102498611911
1543795 -0.19531546536895708 0.9131710850026894
1544114 -0.19502948042451196 0.9133890237986415
1544433 -0.1949377238120311 0.9134031264353819
1544752 -0.19451588863316405 0.9133512275064251
1545071 -0.19429203868203973 0.9135738258068407
1545390 -0.19402695983653073 0.9137509530897814
1545708 -0.19391232208793605 0.9137793953487884
1546027 -0.1936226744958488 0.9135889231433845
1546346 -0.19330129038408156 0.913754124155341
1546665 -0.19311561834613455 0.9136604084191248
1546984 -0.19292916739818056 0.9138801131383558
1547303 -0.19265818275821392 0.9140114937875274
1547621 -0.1923655099044212 0.914012499781257
1547940 -0.19203717711328278 0.9139067699196035
1548259 -0.19174624659003026 0.9140877786768369
1548578 -0.19153179986058028 0.9140848235926023
1548897 -0.19135527419394074 0.9140946291209452
1549216 -0.19115234606418705 0.9142513288976347
1549535 -0.19104461674014067 0.9142350727570727
1549853 -0.19083546172976598 0.9141946466648401
1550172 -0.19058827467815626 0.9142686493522897
1550491 -0.19031613850682347 0.9143717457819166
1550810 -0.1900275467980985 0.9145853574600284
1551129 -0.18978879402274546 0.9147923577610623
1551448 -0.1893763641024615 0.9146250886988022
1551766 -0.1890834413354924 0.9146084837384802
1552085 -0.1888342196874298 0.9148357552220784
1552404 -0.18858265651084183 0.9146827888966653
1552723 -0.18840010451364206 0.914638943423714
1553042 -0.18809778055048165 0.9149121303641207
1553361 -0.1877284877021664 0.9147017569541369
1553679 -0.1876171878207924 0.914954792527153
1553998 -0.18733367281432212 0.9150399287790637
1554317 -0.1870950236759643 0.9149532484196023
1554636 -0.18670386286260057 0.9150914967232794
1554955 -0.1866088273896488 0.9150986356074022
1555274 -0.18652409067934816 0.9150267630070221
1555592 -0.18630368398904967 0.9150860145538274
1555911 -0.1860650967339215 0.9151852333107987
1556230 -0.1859239280998015 0.9152075500636484
1556549 -0.18558187746810118 0.9152632943047898
1556868 -0.18527656575510124 0.9151531847345465
1557187 -0.18498323646151027 0.915311667749296
1557506 -0.18478727834874983 0.9155332194819265
1557824 -0.18446455463862607 0.9155137447042971
1558143 -0.1844234522774487 0.9155242243695998
1558462 -0.18386313113950678 0.9153594013597932
1558781 -0.183707229367936 0.91553387375229
1559100 -0.18361166590763997 0.915620181201261
1559419 -0.1832319657783943 0.9157333278550053
1559737 -0.1830336844118907 0.9158688744809732
1560056 -0.18267076676576863 0.9160260078185625
1560375 -0.18250981768035818 0.9160875921264384
1560694 -0.1823285172670253 0.9161184580969323
1561013 -0.1819834041940801 0.9159219592567435
1561332 -0.18172314311102897 0.9160120543533236
1561650 -0.1814667719975156 0.9160808524862765
1561969 -0.18121916439329955 0.9161165622103781
1562288 -0.1810429918400672 0.916159995283297
1562607 -0.18069276774670687 0.9161788792565677
1562926 -0.18029827877232318 0.91626216357224
1563245 -0.18026498934763183 0.9163539310566179
1563563 -0.18019821047900628 0.9162320691556606
1563882 -0.18002731523634388 0.9164391427371009
1564201 -0.17980153758887193 0.9166007109031415
1564520 -0.1796737936930417 0.9166013552343343
1564839 -0.17935816338132926 0.9165266740406012
1565158 -0.17899697328445477 0.9163703775904046
1565477 -0.17865641750655453 0.916583905528686
1565795 -0.1783683525024295 0.9166169633834585
1566114 -0.1782214145698377 0.9165297706735144
1566433 -0.17795463351674565 0.9166605023236659
1566752 -0.17764877103789076 0.9168834961994692
1567071 -0.1775014523679024 0.9169084424156474
1567390 -0.1771894809325925 0.9168373712995237
1567708 -0.17694143467546597 0.9169672448643994
1568027 -0.17659777903424578 0.9170890788482813
1568346 -0.17638961009360624 0.9170600786345613
1568665 -0.1761640344178625 0.9170309639659386
1568984 -0.17603474156147572 0.9170784290066589
1569303 -0.1757792820519768 0.9171551434722374
1569621 -0.17555070584018245 0.9170607147787379
1569940 -0.1755301699510713 0.9172377932234373
1570259 -0.17521196168657152 0.917228645259464
1570578 -0.17489255385125618 0.9172541345097809
1570897 -0.17453605843497144 0.9174173986952279
1571216 -0.1742762442213559 0.9173779711023169
1571534 -0.17414665964452372 0.9177281714628827
1571853 -0.17379268616998528 0.9174774483654172
1572172 -0.17352406095374978 0.9176098415666724
1572491 -0.17321301882482776 0.9175438461020459
1572810 -0.1730078662659137 0.9177145771674975
1573129 -0.17262677110150978 0.9175567618841107
1573448 -0.17239926012380077 0.9175594669599787
1573448 -0.17227286251733726 0.9173882836831775
1573773 -0.1719436482065794 0.9177122386068398
1574098 -0.17193076938953067 0.917852547591892
1574424 -0.17168666421639125 0.9177274522482242
1574749 -0.17143077055830952 0.9176939000612451
1575075 -0.17105832986756214 0.9177944103246662
1575400 -0.1707997737853546 0.9178895181433366
1575726 -0.1705875826326343 0.9179020258453872
1576051 -0.1702175911600917 0.9179056835557761
1576376 -0.16991334084654142 0.9180443642629813
1576702 -0.16976529576963198 0.9181998438617788
1577027 -0.1695275957574574 0.9181432598556363
1577353 -0.1694057493603051 0.9180372959100374
1577678 -0.1691056677665181 0.9180967908613589
1578004 -0.1688643660305477 0.9182806649326067
1578329 -0.1685673845971358 0.9182288575356132
1578654 -0.16824882894482243 0.918337864067641
1578980 -0.16791838746233576 0.9185631037079816
1579305 -0.16791718517176382 0.9187648276763158
1579631 -0.16777712247783738 0.9188835127563098
1579956 -0.16741256461545143 0.9186561349527825
1580282 -0.16721598883291355 0.9187117914305903
1580607 -0.1669883595410343 0.9187023418442686
1580932 -0.16674169720788948 0.9186349799379012
1581258 -0.16634915095137295 0.9184843584180378
1581583 -0.166011431854534 0.9186666165504721
1581909 -0.16563565036921363 0.9186545963382449
1582234 -0.1655523660285896 0.9189067563562247
1582560 -0.16541224744892644 0.9188136849299882
1582885 -0.1650380513470072 0.9189797050637328
1583210 -0.1648141001811591 0.9191462709263895
1583536 -0.16456644977332546 0.9189790414264158
1583861 -0.16436214757867082 0.919043185860666
1584187 -0.16396010698897892 0.9187757059416934
1584512 -0.16374830184181216 0.9191653076408521
1584838 -0.16351734279337396 0.9191700705944139
1585163 -0.16343224736295095 0.9191649561740303
1585488 -0.16316662620725278 0.9192385702344803
1585814 -0.16278640839972452 0.91918752723511
1586139 -0.1626445036836303 0.9193203541683023
1586465 -0.16240951439295223 0.9193471899924042
1586790 -0.16220936529399582 0.9195182755265009
1587116 -0.16186385013075422 0.919594291096468
1587441 -0.1615831786035695 0.9196357243384001
1587766 -0.16141896583627807 0.9195768281399341
1588092 -0.16114927549614044 0.9195768563744481
1588417 -0.16087405970874302 0.9198761335219867
1588743 -0.16044407095427615 0.9196601388341643
1589068 -0.16031721610321187 0.9198875041286384
1589394 -0.16002540757952355 0.9198623506493495
1589719 -0.1597041359098554 0.9196961962790248
1590044 -0.15952661320098557 0.9199316859675132
1590370 -0.15936520780441346 0.9199514642063258
1590695 -0.15908947711955096 0.9199153761116754
1591021 -0.15887957601467376 0.9199801544427249
1591346 -0.15864185999928868 0.9201396992386648
1591672 -0.15832899941744272 0.9201855848431121
1591997 -0.15815519431471395 0.9201430440040215
1592322 -0.15774350052928587 0.9202088248801797
1592648 -0.1574739596936776 0.9201405069635629
1592973 -0.15724771792448974 0.9202907168668001
1593299 -0.15720608243664558 0.9204066097625275
1593624 -0.15694541965727654 0.920213060417683
1593950 -0.1565870910343604 0.9204308860936216
1594275 -0.1564445750510077 0.92035554849273
1594600 -0.1562884927352901 0.9204852936953822
1594926 -0.1558288493589698 0.9206051006726818
1595251 -0.15555064944281258 0.9204785456162623
1595577 -0.1553014059217479 0.9205758033867005
1595902 -0.15508180951988867 0.9207956226112374
1596228 -0.15496047623055553 0.9208428597120484
1596553 -0.1544848842143229 0.9207990924650827
1596878 -0.15422758748510243 0.920701375013498
1597204 -0.15403598745654695 0.920891837913313
1597529 -0.15384945907435718 0.9208527591231042
1597855 -0.1534250176521986 0.9208176703072226
1598180 -0.1532121208803625 0.9208398966880298
1598506 -0.15303590548695745 0.9211350093454297
1598831 -0.15279041818081418 0.9210973325639763
1599156 -0.15265921803857543 0.9209821524016217
1599482 -0.15239808149116693 0.9211529435399733
1599807 -0.1520414670685563 0.9210852871376803
1600133 -0.15177166307322298 0.9211284266917587
1600458 -0.1514189809110895 0.9211083291205028
1600784 -0.15107310727545986 0.9211332351427408
1601109 -0.15098118615199968 0.9214077695490172
1601434 -0.15075659817286283 0.9212477312262457
1601760 -0.15045779269567724 0.9212439825485023
1602085 -0.15017218937140425 0.9214177696540656
1602411 -0.14989161440697438 0.9214201877043237
1602736 -0.14978149668472165 0.9215064070492558
1603062 -0.14947955073381677 0.9213140605778949
1603387 -0.1491036537302988 0.9215025136718101
1603712 -0.14884545666308424 0.9216146243340756
1604038 -0.14869932954180726 0.921464920296976
1604363 -0.14857247359977005 0.9215052988221392
1604689 -0.14830237476861827 0.9216337830474995
1605014 -0.14800422485217446 0.9215419487600436
1605340 -0.14779058409220977 0.9216607034332408
1605665 -0.1475312941954159 0.9214666520483716
1605991 -0.14719866781708218 0.9216156371818088
1605991 -0.14707076633709326 0.9210719755881209
1606323 -0.1467391767649295 0.9216848382624452
1606655 -0.14675151819029758 0.9217983421906113
1606987 -0.14654819641914676 0.9219423459517285
1607319 -0.1461808942471902 0.921849278504902
1607651 -0.1458523512156989 0.9219610293275928
1607983 -0.1456340927286607 0.9221427279709983
1608316 -0.14536203528138666 0.9221636712335671
1608648 -0.14490242448264687 0.922030882887442
1608980 -0.14470561083917552 0.9224223206281242
1609312 -0.14461541890141516 0.9223444299528597
1609644 -0.14439673823646745 0.9222845921071308
1609976 -0.14412141922603106 0.9222523832094259
1610309 -0.14382376672981995 0.9225347060097402
1610641 -0.1436459324250273 0.9224209420021577
1610973 -0.14341939373563414 0.9224594659023462
1611305 -0.14310107696450242 0.9224586968474112
1611637 -0.1427515969762052 0.9226555612475986
1611969 -0.14248875410433873 0.92272007619123
1612302 -0.14221596173444062 0.9227656265915747
1612634 -0.14199449233994085 0.9225286738853868
1612966 -0.14172197439907971 0.9227527626711006
1613298 -0.141519658735417 0.9228629270806498
1613630 -0.1413877566436305 0.9227893494948923
1613962 -0.14118127616993612 0.922735732487768
1614295 -0.14077980424259098 0.9229879634291513
1614627 -0.14055693605364705 0.9230615955888115
1614959 -0.14019475618637547 0.9231012630084513
1615291 -0.13994532605658422 0.9228815606723072
1615623 -0.13968406215670728 0.9229980986161151
1615955 -0.13937966365412363 0.9230302177027252
1616287 -0.13907772495061105 0.9227870498438032
1616620 -0.13887845475560917 0.9227894544938408
1616952 -0.1385881863446801 0.9228071191610434
1617284 -0.13828345285239124 0.9229470491307309
1617616 -0.13821108254748227 0.9230185132322379
1617948 -0.13787593605575732 0.9231863071363736
1618280 -0.13776922227037655 0.9232949686194347
1618613 -0.13741043417158294 0.9233706080763432
1618945 -0.13723819449387972 0.9234145160313908
1619277 -0.13686578114139739 0.9235280063200896
1619609 -0.136558814562855 0.9234987174047719
1619941 -0.13633594313366906 0.9237494916464506
1620273 -0.13605195152441507 0.9237329189723886
1620606 -0.13576698893938444 0.9236549193022163
1620938 -0.1356379001136878 0.9236957337714825
1621270 -0.13526528496312282 0.9237197008736858
1621602 -0.13521567561221684 0.9237516757597034
1621934 -0.13495375576975846 0.9237816255840103
1622266 -0.13460920091596 0.9236516600582424
1622599 -0.13421811730537597 0.9237040949667735
1622931 -0.1339547291971362 0.9239865865209592
1623263 -0.13379670140958477 0.9238669484472815
1623595 -0.13346184610399314 0.9237581443284079
1623927 -0.13319784299242754 0.923862398116211
1624259 -0.13291210522663865 0.9239157892355906
1624591 -0.13278628286089786 0.9240465257635923
1624924 -0.13240954723216583 0.9238290431675593
1625256 -0.1320799953690331 0.9238654107952358
1625588 -0.13193559826375595 0.9241619225858937
1625920 -0.13170769941032764 0.9241741180289768
1626252 -0.13145839437321064 0.9240066205340506
1626584 -0.1310889939009623 0.9239859839412033
1626917 -0.13084938192467707 0.9241520928975385
1627249 -0.13072082097471746 0.9241888950217099
1627581 -0.1304939472828995 0.9241996313972138
1627913 -0.1301154973601991 0.9242638429525476
1628245 -0.12977909033739662 0.9244576590144462
1628577 -0.12962705772185854 0.9246741960438224
1628910 -0.1294435650924396 0.9248332710290446
1629242 -0.12904097191569688 0.924591246645957
1629574 -0.12870429759727198 0.9245518872620248
1629906 -0.12857175013264652 0.9244383624937419
1630238 -0.12830024296044046 0.9244453866056563
1630570 -0.12804955281183672 0.9244348532263481
1630903 -0.12760724798726067 0.92442084497683
1631235 -0.12750254625374843 0.9244891447758351
1631567 -0.12722223082145848 0.924467885371751
1631899 -0.12705559768921074 0.9245003266616441
1632231 -0.12681707284457575 0.9245728712844522
1632563 -0.12665075533325 0.9248784437022737
1632895 -0.12647145848864721 0.9248872715231818
1633228 -0.12599040271195114 0.9247639997967974
1633560 -0.12557455498424108 0.9249292291368253
1633892 -0.12529253309858732 0.9250098200458057
1634224 -0.1250456408708392 0.9248627925087967
1634556 -0.12456133191477031 0.9249553397297778
1634888 -0.1244571727660775 0.9250485253938291
1635221 -0.12425868416645337 0.9250233484169055
1635553 -0.1241670255019157 0.9251306126037079
1635885 -0.1238762718964224 0.9249337410013395
1636217 -0.12355871227642225 0.9250797655545779
1636549 -0.12324361985953079 0.9251020615031068
1636881 -0.12294977018330769 0.9250861974478223
1637214 -0.12276976684841769 0.9251697895083683
1637546 -0.12227378581143551 0.9250321537837555
1637878 -0.12211505245969707 0.9250753933759643
1638210 -0.12209030679397838 0.9253111862362376
1638542 -0.1218530707445694 0.9253670210999276
1638874 -0.12156324719245457 0.9252016262371546
1639207 -0.12130804433148751 0.9254925729435264
1639207 -0.12104892750087182 0.9251163037530972
1639546 -0.12101765080269207 0.9253280792206064
1639885 -0.12078702314062557 0.9252065298444712
1640224 -0.12032234146580373 0.9250410552861901
1640563 -0.12017769700847995 0.9251558628277099
1640902 -0.12000949520160087 0.9252622303591473
1641241 -0.11966483238605326 0.9253251538882019
1641580 -0.1193529745163041 0.9255876800058
1641919 -0.11916300696056928 0.925796218828909
1642258 -0.11894066724564552 0.9258320486039517
1642597 -0.11880542785161008 0.9257221644668725
1642936 -0.11845047365389962 0.925964012672397
1643275 -0.11830808593627351 0.9261153761293996
1643614 -0.11792157971377014 0.925938238798151
1643953 -0.1176360056294382 0.9259581908689483
1644292 -0.11722397386603414 0.9257925684700343
1644631 -0.11681772477824912 0.9258659771692848
1644970 -0.11675654383324022 0.9260866308093683
1645309 -0.11661646449128216 0.9260367652983635
1645648 -0.11634560396143323 0.9259665002719575
1645987 -0.11612903794277091 0.9258319256584167
1646326 -0.1158290006745457 0.9259647524204505
1646665 -0.11558010410066195 0.9260608307378043
1647004 -0.11523627053223892 0.9261570346360097
1647343 -0.11477446006961314 0.9261319795145442
1647682 -0.11454155812813589 0.9264076626750709
1648021 -0.11445200153651099 0.9264026544637434
1648360 -0.11407274863041131 0.9264350576713906
1648699 -0.11364864231118706 0.9263986430296287
1649038 -0.1136661934410428 0.9264593134879605
1649377 -0.11335542613256122 0.9264105976897946
1649716 -0.11298658161418042 0.9264658935000724
1650055 -0.11262777107654634 0.9263065392819836
1650394 -0.11237780149319124 0.9264151080157512
1650734 -0.11228346311915889 0.9263674918831107
1651073 -0.1118548691574947 0.9265561218255313
1651412 -0.11163143242059088 0.9265046452196997
1651751 -0.11138880245495206 0.9265576085327724
1652090 -0.11120361029264542 0.9266072111104561
1652429 -0.11092796115006492 0.9265415173243132
1652768 -0.11056568118088213 0.9265004256702987
1653107 -0.11036030741879563 0.926600265543743
1653446 -0.11016797461020118 0.9265333953355067
1653785 -0.10990695844883734 0.9267601141379824
1654124 -0.10947170231819427 0.9269577637222105
1654463 -0.10924220055493444 0.9269288325197013
1654802 -0.10886932298087117 0.9269092367195747
1655141 -0.10865644028481074 0.9268552942346833
1655480 -0.10842886364417692 0.9268259287773534
1655819 -0.10827746563723334 0.9270360773098559
1656158 -0.10813602076465974 0.9268917844981667
1656497 -0.1079240353568729 0.9268097444307891
1656836 -0.10747805922219796 0.9266912913882255
1657175 -0.1072332702683494 0.927007147882645
1657514 -0.10700047278886521 0.9267355728290041
1657853 -0.10666116482523341 0.9268188393889092
1658192 -0.10630834916580964 0.9267220235698758
1658531 -0.10611100373500183 0.9268240291178222
1658870 -0.10585919138621804 0.9271727751137894
1659209 -0.10551420763633289 0.9270560487929851
1659548 -0.10533408820776387 0.9271539024924297
1659887 -0.10513784957317111 0.9272223566107768
1660226 -0.10513463966844795 0.92722052318861
1660565 -0.10479481514226374 0.9270034480198469
1660904 -0.10449846238183409 0.9270459760718918
1661243 -0.10427384717405298 0.9271658007389396
1661582 -0.10391711204633802 0.9272564441558842
1661922 -0.10363698219688741 0.9272888815015433
1662261 -0.10317362189376315 0.9273887805004248
1662600 -0.10302989006265742 0.9274060471003304
1662939 -0.10289732986990512 0.927389624817768
1663278 -0.10260211707089356 0.9273418404823748
1663617 -0.10225004137039656 0.9273075900771144
1663956 -0.10209449598865418 0.9275990478564944
1664295 -0.10184725846182129 0.9276016476193223
1664634 -0.10152709385193259 0.9275388879771465
1664973 -0.10118067568847898 0.9276967994843254
1665312 -0.10098178067246492 0.9278085042989614
1665651 -0.10086471498687635 0.9277856809112646
1665990 -0.1003847692000771 0.9276522158021118
1666329 -0.10011487238565439 0.9278139627519032
1666668 -0.09998241067011762 0.9278283399142732
1667007 -0.09962556011632051 0.9277431306429461
1667346 -0.09943436995123472 0.9277795842345302
1667685 -0.09911232175939089 0.9277547499369075
1668024 -0.09876536354135215 0.9279962680026111
1668363 -0.09862372933769246 0.927999499961073
1668702 -0.0983000305705063 0.9277961437674377
1669041 -0.09790489426612865 0.9278215449119187
1669380 -0.0976333158880071 0.9278065718392414
1669719 -0.09745719714993195 0.9278393015824554
1670058 -0.09726367506951968 0.9278658908885883
1670397 -0.09689504739129154 0.9279943822659557
1670736 -0.09671862337131891 0.9281007920629728
1671075 -0.0965542633609157 0.9282372190622206
1671414 -0.09624970172342802 0.9281030904603638
1671753 -0.09586915535428925 0.9283143270278764
1672092 -0.09572838021650572 0.9281709712256967
1672431 -0.09555590408622283 0.9281821734507552
1672770 -0.09517875805968956 0.92806392556662
1673110 -0.09489618521735398 0.9280797127534046
1673110 -0.09545792849647036 0.9284405074141682
1673456 -0.09485387921457661 0.9282688593300591
1673802 -0.09449015131058897 0.9281716786938505
1674148 -0.0940976478370983 0.9280631879524748
1674494 -0.09366945579211877 0.9281017028147119
1674840 -0.09334860209814201 0.9281150459255617
1675186 -0.0932908782207465 0.9283528313898134
1675532 -0.09291642456415515 0.9282245540900702
1675878 -0.09262535933657613 0.928426354764092
1676224 -0.09240550143199534 0.9285976976815455
1676570 -0.09215595772911175 0.9286690382250267
1676916 -0.0918861039739943 0.9286248949946724
1677262 -0.09166495139076056 0.9288178701609107
1677608 -0.09130757337918287 0.9287217821977996
1677954 -0.0910242783583605 0.9286742516961257
1678300 -0.09083299794289885 0.9285498000555918
1678646 -0.0904655593805405 0.9288670474326665
1678992 -0.09031852545263976 0.9292700964514704
1679338 -0.09022115565641696 0.9293189598409817
1679684 -0.08983570786097729 0.929658491195679
1680031 -0.08944820016140324 0.9292065673353418
1680377 -0.08919590295416815 0.92907368655134
1680723 -0.08902531318656771 0.9286199604628673
1681069 -0.08859633204329942 0.9283001126447668
1681415 -0.08830881672415265 0.9284289586509441
1681761 -0.08818248678307758 0.9285425860065899
1682107 -0.08793172186823658 0.9288506186818111
1682453 -0.08751944296678503 0.9288508163582639
1682799 -0.08737193936371963 0.9290434594091116
1683145 -0.08719175338881203 0.9290990185548337
1683491 -0.08691294675011062 0.9289290892515659
1683837 -0.08656118538141602 0.9288743283896858
1684183 -0.08632359949478728 0.9290492554964935
1684529 -0.08601529912159292 0.9289811890246502
1684875 -0.08575262044656146 0.9290530684349032
1685221 -0.0854291557529636 0.9290239372771824
1685567 -0.08501919963184192 0.9291480777982041
1685913 -0.08482478220695244 0.929223154474714
1686259 -0.08462191973257 0.9291870817503349
1686605 -0.08436271315421691 0.9291752655187951
1686952 -0.08401123475486144 0.9291935590729464
1687298 -0.0836592807749876 0.929252754678397
1687644 -0.08355601619859535 0.9292080889579293
1687990 -0.0832278655621217 0.9292505269120562
1688336 -0.08291589265486074 0.9293338189233016
1688682 -0.08272165947705847 0.929402563047056
1689028 -0.08234896631913846 0.9293431955653071
1689374 -0.08205365766664374 0.9294486100557774
1689720 -0.08168019352461031 0.929415459195113
1690066 -0.08155117861064368 0.9296901729684437
1690412 -0.08125564921886833 0.9294991400713691
1690758 -0.08104506026805032 0.9293369614973469
1691104 -0.08081251487627339 0.929483058135835
1691450 -0.08057872166275745 0.9295119440194811
1691796 -0.08038894847112124 0.9292746301005872
1692142 -0.08005414865040683 0.9293755344584418
1692488 -0.07964976630418938 0.9293172212908044
1692834 -0.07956280485901536 0.9292678010941156
1693180 -0.07927490605248748 0.9293902188436174
1693526 -0.07874423941309486 0.9294058736645021
1693873 -0.07858840470671848 0.9295870520532862
1694219 -0.07821103544130513 0.9295499950474999
1694565 -0.07803076589164265 0.9296357465680043
1694911 -0.07769278931507735 0.929739769803066
1695257 -0.07751298212736132 0.929994437517579
1695603 -0.07738886844138416 0.9299208627077735
1695949 -0.07705464899849629 0.9298974362046327
1696295 -0.07674152313812539 0.9299644527702066
1696641 -0.07658122134946513 0.9300846445309343
1696987 -0.07641206555557677 0.9297990195093777
1697333 -0.07597568515895585 0.9296470273453261
1697679 -0.07570936104202752 0.9298408028474766
1698025 -0.07552065909785485 0.9297503010382996
1698371 -0.07531672944578345 0.9297437457502182
1698717 -0.07500674168724963 0.9297114999728241
1699063 -0.07456450384521864 0.9298096664575273
1699409 -0.07437312344792302 0.9298964843218863
1699755 -0.07399694814270211 0.9298699191791088
1700101 -0.07367551356344093 0.9299099033981317
1700447 -0.07327093295987504 0.9299511280026393
1700794 -0.07310892647453493 0.9300229377478035
1701140 -0.07289831806051579 0.9298199282502448
1701486 -0.07261523016008736 0.929831963878146
1701832 -0.07226324999538798 0.9299251098503419
1702178 -0.07200595672518988 0.9299516737878006
1702524 -0.07185544645614697 0.9298951948171909
1702870 -0.07153924711141885 0.9298748633609167
1703216 -0.07112645704189416 0.9299173841429624
1703562 -0.07097779029831588 0.9299784674843211
1703908 -0.07097716322059872 0.930208464467478
1704254 -0.07058735263380639 0.9301425395263018
1704600 -0.07029774392612259 0.9302491821001275
1704946 -0.07002945590506111 0.9303929659360153
1705292 -0.06983012058314753 0.9304419049034887
1705638 -0.06944452374026268 0.9301744103683719
1705984 -0.06901142514115101 0.9303742127478949
1706330 -0.06895061861333464 0.9306366993012489
1706676 -0.06860028548074659 0.930322967210796
1707022 -0.06832723288881146 0.9304881136135603
1707368 -0.06800620964269911 0.9304619913460724
1707715 -0.06775184125170754 0.9306273417503418
1707715 -0.06748498353355253 0.9305772964436437
1708068 -0.06763786116069875 0.9307312046442895
1708421 -0.06723515167017015 0.9305432020717467
1708774 -0.06696897219759294 0.930479639272236
1709127 -0.06666622281202089 0.9305066110139947
1709481 -0.0665410276342838 0.9304446748750762
1709834 -0.0661920462163782 0.9304725432247075
1710187 -0.06577958000418214 0.9305385957981213
1710540 -0.06559111293865184 0.9304216902700618
1710893 -0.0653261647683688 0.9307099814490368
1711247 -0.06497882492511159 0.9303820967120666
1711600 -0.06465907842532992 0.9305689817591137
1711953 -0.06436239837779148 0.9306140539178206
1712306 -0.06419338244623436 0.9305973146054496
1712659 -0.06383427379616273 0.9306132378946732
1713013 -0.06364121751719697 0.9306021531477474
1713366 -0.06344844907265515 0.9304615328482587
1713719 -0.06314517661639757 0.9305714243482198
1714072 -0.06277696653231582 0.9306321166924229
1714425 -0.06247194776560463 0.930640772903363
1714779 -0.06217471103576644 0.9306551066889733
1715132 -0.061990243992070586 0.9305771838975024
1715485 -0.061543622286209194 0.9306877908094862
1715838 -0.06145252309299206 0.9309687326205143
1716191 -0.06127910457781254 0.9309344888770864
1716545 -0.0609426841854058 0.9307339653538128
1716898 -0.060487035650555306 0.9309680075354659
1717251 -0.06018966028612533 0.9308280670213258
1717604 -0.059933383799927895 0.9310102885079761
1717957 -0.05972014056203261 0.930823638964795
1718311 -0.05943193201559866 0.9308353421537812
1718664 -0.05917908858356784 0.9308514949988184
1719017 -0.05910008518038355 0.9308890458622735
1719370 -0.05878823707315408 0.9308025812509184
1719723 -0.05830852978713501 0.9310659219155188
1720077 -0.058124458060964154 0.9311913863124914
1720430 -0.05790079665504072 0.9311507705337257
1720783 -0.05748004223082719 0.9310293230388469
1721136 -0.05729783415324068 0.930971354599494
1721489 -0.05712916279175573 0.9310217795800018
1721843 -0.05691639081437882 0.930922814028111
1722196 -0.056537038917065525 0.9308525037957411
1722549 -0.05625423024499684 0.9309505471892476
1722902 -0.05601487928690695 0.9312065036493455
1723255 -0.05567686427957829 0.9311273341181087
1723609 -0.055464133084530465 0.9312909550227989
1723962 -0.05517116175834434 0.9313271703189733
1724315 -0.05498649443040434 0.9314563603769236
1724668 -0.05477537915958446 0.9312814003941048
1725021 -0.05441382340486081 0.9311626817337183
1725375 -0.053909402538692364 0.931274784664899
1725728 -0.0538072455196128 0.9312434068105363
1726081 -0.0534038215252738 0.9310195552888256
1726434 -0.05300341108919448 0.9309986615919652
1726787 -0.05281911640646005 0.9311325415927973
1727141 -0.05265269527130258 0.9310755328791958
1727494 -0.05237077262419696 0.9312014765837897
1727847 -0.05188594893079208 0.9311472961873218
1728200 -0.051768754631549944 0.9312398430600239
1728553 -0.05153278180040414 0.9314766208632654
1728907 -0.05121493539025106 0.9312310214468669
1729260 -0.05090936163935962 0.9314148592470487
1729613 -0.05071375433777272 0.931456265261479
1729966 -0.050432894989248536 0.9314574033976386
1730319 -0.050153127522776175 0.9314440835543862
1730673 -0.049866340476383636 0.9316062035122763
1731026 -0.0494693667604212 0.931523669297708
1731379 -0.049250337446591394 0.931577632063998
1731732 -0.048894750009335415 0.9316068058341718
1732085 -0.04850780071473385 0.9317289226189606
1732439 -0.0484734165773724 0.9318257632811152
1732792 -0.048123908514328836 0.9316106347950381
1733145 -0.047833467817303216 0.9317851530905212
1733498 -0.04737496458760065 0.9316481746191472
1733851 -0.04728143966020578 0.9317218921419539
1734205 -0.047015217360561176 0.931423084834865
1734558 -0.04657995252868329 0.9314102418127137
1734911 -0.04640619774645075 0.9316147220559886
1735264 -0.04610762806017675 0.9316416533226182
1735617 -0.04586857062711747 0.9313594455740953
1735971 -0.045560145274588154 0.9314060379121621
1736324 -0.04533260274752771 0.9314444506185634
1736677 -0.045187173151220346 0.9314690981488689
1737030 -0.04475062446138796 0.931547737567647
1737383 -0.04448675259212062 0.9316337787771585
1737737 -0.04415794748916783 0.9316974912667619
1738090 -0.043950844276387235 0.9317436375640821
1738443 -0.04375883272210872 0.9318077851041677
1738796 -0.04335577413836234 0.9317404006733443
1739149 -0.04310015658864548 0.9318172156060761
1739503 -0.04276406221626105 0.9317254681916284
1739856 -0.04258846226379288 0.9314777444113406
1740209 -0.04235964329734106 0.9317677012999244
1740562 -0.042079850984474615 0.9315803501972969
1740915 -0.04181530558425303 0.9317823785409679
1741269 -0.04154535237020848 0.9316443038785184
1741622 -0.041198053509258044 0.9317779360240013
1741975 -0.04094848316541119 0.9317634470025992
1742328 -0.04067463478565484 0.9319107662745253
1742681 -0.040387636136966505 0.931616363285917
1743035 -0.04001928000807387 0.9317287018110785
1743035 -0.039683104686390795 0.9316716151715416
1743395 -0.03970155352471887 0.932080689214391
1743756 -0.03969511476185884 0.9319535295590479
1744116 -0.039265133273044414 0.9319853566646383
1744477 -0.03908136899101782 0.9321465085231246
1744837 -0.038760838354355606 0.9320447526021433
1745198 -0.03855524453930717 0.9320227581758278
1745558 -0.038112015899953486 0.9319009624051453
1745919 -0.03786791172921108 0.9321417446648476
1746279 -0.037711800249729484 0.9318554031996329
1746640 -0.03742778388485313 0.9316335689718273
1747000 -0.037097017300883585 0.9317565102387196
1747361 -0.03666777536774907 0.9317898522669753
1747721 -0.03647305762756826 0.9318594078676607
1748082 -0.03608263925470168 0.9316838892681522
1748442 -0.03583262897994598 0.9320613258364434
1748803 -0.03564858088854021 0.9321586806669996
1749163 -0.03551166136282274 0.931965934753845
1749524 -0.035027949048577624 0.9319981264055885
1749884 -0.03472980844989679 0.9318643988311651
1750245 -0.03445521277452752 0.9320014084905296
1750605 -0.03433779658926402 0.932029995511509
1750966 -0.03385212916157369 0.9320324113826894
1751326 -0.03360914223405111 0.9320182647003582
1751687 -0.03338552543755277 0.9319932537482687
1752047 -0.03307493615331184 0.9319601531679713
1752408 -0.03261926904252003 0.931847901727092
1752768 -0.032362321218426277 0.9319603402855068
1753129 -0.03223629681964514 0.931910143915739
1753489 -0.032017074507689085 0.9319378504984738
1753850 -0.03158357216157828 0.9319261079977699
1754210 -0.03128302615134929 0.9319281399572092
1754571 -0.031134062621657348 0.9318838249919935
1754931 -0.03085383916497952 0.9317052429455248
1755292 -0.030483511761901075 0.9316529613619948
1755652 -0.03022253384338031 0.9318033726321742
1756013 -0.030007546913044157 0.931723320595874
1756373 -0.029672177776528908 0.9317709959726139
1756734 -0.029493752552661207 0.9319029867101865
1757094 -0.029257558792967316 0.9320287504362331
1757455 -0.028979126046999332 0.9320643110043485
1757815 -0.02853382440166324 0.932002694615538
1758176 -0.028237215069528965 0.9320142464343352
1758536 -0.027929843259503324 0.9320422758928275
1758897 -0.027582626181154892 0.9318247958298898
1759257 -0.027307330009515848 0.9319336717053388
1759618 -0.027103908858791586 0.9320483115767251
1759978 -0.026965292927901854 0.9321321601547333
1760339 -0.026677118450389597 0.9322509221656665
1760699 -0.0263713168118333 0.9321999784762868
1761060 -0.026042502489889336 0.9322568798431093
1761421 -0.025720709168275135 0.932127196797898
1761781 -0.025234337078288295 0.932466256371404
1762142 -0.024986420861818626 0.9322633529682146
1762502 -0.024831318037761698 0.9324792136203479
1762863 -0.02459819289815273 0.9323006942826536
1763223 -0.024167887861675043 0.9322943792877536
1763584 -0.02390585089589034 0.9323588303651741
1763944 -0.02347069230431073 0.9322949275601905
1764305 -0.023128042794138763 0.9322328604852725
1764665 -0.02294954988360594 0.9323592241327063
1765026 -0.02280263256403001 0.9323633934901856
1765386 -0.022721486371476328 0.9324992980866497
1765747 -0.022548057762340878 0.9323089652423847
1766107 -0.022134091766481748 0.9323818837558493
1766468 -0.021876935771908735 0.9325457050325198
1766828 -0.021615420886009356 0.9325415387501805
1767189 -0.021196648983835855 0.9325714914614548
1767549 -0.02080237943090608 0.932560037848011
1767910 -0.020725715612784034 0.9326571614610618
1768270 -0.0204098699861329 0.9326347594905056
1768631 -0.02014987849217944 0.9325160247112259
1768991 -0.01983302310039157 0.9326641976917369
1769352 -0.019622960218491498 0.9326279228104546
1769712 -0.019335858791948605 0.9324977110165358
1770073 -0.01894213832656864 0.9324504398628872
1770433 -0.018768503820188083 0.9323768105168008
1770794 -0.018537317278567646 0.9324912807165369
1771154 -0.01825297866054444 0.9324963120259561
1771515 -0.01809705481914558 0.9321919446715279
1771875 -0.01758822651917929 0.9322734684456385
1772236 -0.017395444548332126 0.9322681821570407
1772596 -0.017044682598634703 0.9321696624493758
1772957 -0.01669011338775656 0.9321610622353591
1773317 -0.016349694376571234 0.9325461156905379
1773678 -0.016170472625296622 0.9323446861168475
1774038 -0.01594209408170268 0.9322223517319794
1774399 -0.01545002882873252 0.9321100014241441
1774759 -0.01533306065133177 0.9323503565720352
1775120 -0.014999041618689955 0.9323207364045749
1775480 -0.014637567024691038 0.932442570889406
1775841 -0.014309457525577492 0.9324454950884599
1776201 -0.01416594017714407 0.9325579159837293
1776562 -0.013982369343738104 0.9323678092156338
1776922 -0.013599146714477268 0.9323037041375378
1777283 -0.013337340989763783 0.9324085456365273
1777643 -0.013180031994475127 0.9324036469911953
1778004 -0.012840449836468202 0.9321054956990081
1778364 -0.012397972827830702 0.9323620394398966
1778725 -0.012063210524903866 0.9323553396481344
1779086 -0.01185619151061052 0.9322342403867185
1779086 -0.011674534926056801 0.9325897437325923
1779453 -0.011568819563518623 0.932420744101709
1779821 -0.011285246204900228 0.9322557760176456
1780189 -0.010907347081632221 0.9323996362502742
1780557 -0.01070774928573173 0.9321447981222426
1780925 -0.010395381672997363 0.9323549756470899
1781293 -0.01023801397279757 0.9325468310741962
1781661 -0.00993850703487194 0.9326083099333006
1782029 -0.009690472778227877 0.9325417344364243
1782397 -0.00938629741819515 0.9327033012151892
1782765 -0.008976638885698525 0.9325684145410262
1783133 -0.008794907050476431 0.9327294200812228
1783501 -0.00845308927322915 0.9323867046249862
1783869 -0.008192426707678453 0.9325548321315791
1784237 -0.007878638148799882 0.9325838754586693
1784605 -0.00779581195313995 0.9324055641446121
1784973 -0.007464317098278073 0.9322613020071933
1785341 -0.007063379406311512 0.9323666078921553
1785709 -0.006702546301302099 0.9324525186331173
1786077 -0.0062954577154404785 0.9322705359113637
1786445 -0.005867473461828797 0.9323887098397557
1786813 -0.005619648500200418 0.9323705826158722
1787181 -0.0054799695964892585 0.9325139307079979
1787549 -0.005220800097540324 0.9325139480492158
1787917 -0.0049050055416658715 0.932418874215433
1788285 -0.004639506055092002 0.9325669726434653
1788652 -0.00430697132368888 0.9323573473212616
1789020 -0.0038853756498678556 0.9325898790093143
1789388 -0.003614892940089461 0.9325545120569184
1789756 -0.0034743398695839074 0.9326598525899014
1790124 -0.0033531759354744916 0.9324649056263452
1790492 -0.0031854980831805793 0.9325460173259383
1790860 -0.0027747198530870204 0.9325083251427998
1791228 -0.0025932501892884695 0.9325841567460573
1791596 -0.0022428398814327895 0.9326036245220379
1791964 -0.001770214230299894 0.9328263844119117
1792332 -0.0014764246985944495 0.9329625025960118
1792700 -0.0012774417939590502 0.9327393051900921
1793068 -0.0009573427862827322 0.9328797497444394
1793436 -0.0006085802243734239 0.9328059687620224
1793804 -0.00045010995829714766 0.9326993726591422
1794172 -0.00016965000529596894 0.9326348968687069
1794540 8.981078493445219e-05 0.9325892375179732
1794908 0.0004901964515101053 0.9325265849310866
1795276 0.0007194475137294193 0.9326726200227642
1795644 0.0009335766797847245 0.9326020104021825
1796012 0.0012958132526294259 0.9324975479295541
1796380 0.0016823560976157587 0.9326246129545156
1796748 0.002015814641750524 0.9325828178581591
1797116 0.0022085473795242015 0.9326588102251092
1797484 0.0026153652382051805 0.932731942002414
1797851 0.0028707606956648976 0.9327369632105101
1798219 0.003028671015351107 0.9327846038827491
1798587 0.0032397875416221742 0.9325521624890722
1798955 0.003555424770771259 0.932491289150959
1799323 0.003803165843766929 0.9323847712858024
1799691 0.003997530575173642 0.9322079995902237
1800059 0.004469909618319012 0.9322358660760173
1800427 0.0049897944408349056 0.9324243666708821
1800795 0.005173981356671339 0.9323568658615364
1801163 0.0054652187697361 0.9322126305746088
1801531 0.005803051793082384 0.9322047335904464
1801899 0.006100522035614145 0.9321531244094332
1802267 0.006323159161774634 0.9321763185441476
1802635 0.006733224909984896 0.9321144118275866
1803003 0.007194008507254244 0.9323425184314788
1803371 0.00730135072542899 0.9324724652888764
1803739 0.0074831895996574395 0.9323448552975634
1804107 0.007818750231419189 0.9322665984777622
1804475 0.008198840670648687 0.9323282460827012
1804843 0.008388312413818174 0.9323332877738426
1805211 0.008751137783735057 0.9320815891675729
1805579 0.009064969364949948 0.9321919592907839
1805947 0.009311297640691343 0.9322911939688125
1806315 0.009479055472443392 0.9323819287900335
1806683 0.009697270872650442 0.9323327632154687
1807050 0.01010058582667135 0.9322933527588858
1807418 0.010219598457820857 0.9323909584699522
1807786 0.010659170721653516 0.9322598933505002
1808154 0.0110065975453803 0.9323755118641466
1808522 0.01139985110646145 0.9323862523426245
1808890 0.011573155415987486 0.9325352958340082
1809258 0.011799581463270628 0.9324408726701662
1809626 0.012247778981354974 0.9324614216982642
1809994 0.012474558675904664 0.9324031956944111
1810362 0.012706332770658793 0.9326116027088164
1810730 0.012954146561447576 0.9324056251222512
1811098 0.013243299887512962 0.9322601297185829
1811466 0.013596542032041917 0.9325791984807738
1811834 0.013795879352888602 0.9323455688090064
1812202 0.014040984937012049 0.9321302931100224
1812570 0.014451727762366173 0.9322806062216757
1812938 0.014764184926022017 0.9321728251100524
1813306 0.015011863421028445 0.9323008128323655
1813674 0.01538803796567403 0.9322476312422114
1814042 0.015725604180806773 0.9324494595032248
1814410 0.015844159847359193 0.932346779830956
1814778 0.015947139683957688 0.9322409766784163
1815146 0.016288178561692204 0.9321934800391554
1815514 0.016556569043378284 0.9321519415673037
1815882 0.016691597570470992 0.9320633182378977
1815882 0.016183736882219524 0.9318670098102684
1816257 0.017117670455416168 0.9319812981442434
1816633 0.017734620926573793 0.932317191704394
1817008 0.017950277166651204 0.9325992040726053
1817384 0.01814413116890216 0.9324249027139987
1817759 0.018441103126427046 0.9323607891954686
1818135 0.018771113721485606 0.9323173474994856
1818510 0.01908234841140019 0.9322018817727526
1818886 0.019338036250884028 0.9320708158285826
1819262 0.01972965288702123 0.9322434050835008
1819637 0.020110156641936442 0.9323806225055395
1820013 0.020318797963555936 0.932356700602803
1820388 0.020482659056917762 0.9323748671483151
1820764 0.020765625792147118 0.9321959032519462
1821139 0.020923389386869815 0.9321855027898992
1821515 0.021230150739019835 0.9321758477814746
1821891 0.021530593240411504 0.932061448778162
1822266 0.02197624418315617 0.9323377828785075
1822642 0.022162919770807348 0.9324119918788449
1823017 0.02255993640448916 0.9322425744081337
1823393 0.022997047106616215 0.9322189926581828
1823768 0.023270013671417705 0.9322634440901234
1824144 0.02358651789979446 0.9322722975843768
1824520 0.024031020104856457 0.932088179869729
1824895 0.024257327166946265 0.932112165901733
1825271 0.02441428319912536 0.9323227433764543
1825646 0.024635163425834033 0.9320776269804347
1826022 0.024656950007534033 0.9317415100832879
1826397 0.024863027549842466 0.9315403540264653
1826773 0.02474705250669945 0.9312395738415364
1827149 0.024760280904812026 0.9310309268058103
1827524 0.02552941576002755 0.9311352345029316
1827900 0.02619950964182211 0.9316103952124015
1828275 0.026924243034582167 0.9320772308438116
1828651 0.027479172361799604 0.9320653176274565
1829026 0.027656825496056196 0.9321759826960508
1829402 0.027782731991072857 0.9318214452464145
1829778 0.02795582147994422 0.9316032869900915
1830153 0.028280697931635592 0.931379435796076
1830529 0.02865277966131921 0.9316737931037216
1830904 0.02892279884132955 0.9316941648037566
1831280 0.029236745878629962 0.9319562966675937
1831655 0.029666052236520007 0.9320194522311468
1832031 0.029780978170217298 0.9319143518685336
1832407 0.030103294401554542 0.931761366097255
1832782 0.030366828481471028 0.931689739524799
1833158 0.03079336175828859 0.9315243866246448
1833533 0.030937406066339723 0.9317380893473184
1833909 0.031078874238042824 0.9316455990320331
1834284 0.03139507401407874 0.9317134787259076
1834660 0.03169283964198092 0.9317001887515598
1835036 0.03208084849297042 0.9315389907060996
1835411 0.032402678700873155 0.9312695623103204
1835787 0.03289632220911793 0.9314450292903759
1836162 0.033065326606009436 0.9315020227051157
1836538 0.03332445889083664 0.9315679071107715
1836913 0.03373965437463863 0.9318186758959475
1837289 0.03386906773325687 0.931879109333947
1837665 0.034177695527615036 0.9319875451185696
1838040 0.03448925694922037 0.9317875678730236
1838416 0.034762119468161226 0.9317127178710487
1838791 0.035062073041417875 0.9317232319728226
1839167 0.03526276114926633 0.9318789841970663
1839542 0.035520961385096674 0.9315691577520847
1839918 0.03576378785220115 0.931559854077297
1840294 0.035969767179575236 0.9315222844456088
1840669 0.03635665509397257 0.9315184744213773
1841045 0.03679477400597385 0.9314454999295076
1841420 0.03708294810162558 0.9317236535612549
1841796 0.03735305640221604 0.9316069609065745
1842171 0.03755639895920518 0.931514685325949
1842547 0.03805609560779509 0.9315569775414699
1842923 0.03831611066001357 0.9314660898187798
1843298 0.038546163703556874 0.9313246214402618
1843674 0.03891068723606592 0.9312539695206843
1844049 0.03934050061211468 0.9311624127957009
1844425 0.039445614955815396 0.9312671876335329
1844800 0.039784452442854695 0.931399410582125
1845176 0.039955462929498545 0.9312565019700333
1845552 0.04029818187642629 0.9314816782757268
1845927 0.040442320310981966 0.9315548560730726
1846303 0.04080506536833288 0.9313786142529584
1846678 0.0412247063580669 0.9314442665087219
1847054 0.04150032780983138 0.9315765842578593
1847429 0.04183806228481042 0.9314942113459193
1847805 0.042049457678815454 0.9312516071229854
1848181 0.042348358919642906 0.9314572787339538
1848556 0.04263786101231476 0.9313564879073545
1848932 0.04286574247320552 0.9313279855929001
1849307 0.04325582214000344 0.9312624568944234
1849683 0.04354505499864531 0.9313860627498374
1850058 0.04382148999175456 0.9313774928804698
1850434 0.04408070520011393 0.931172873234337
1850810 0.044462903609609576 0.931206969301908
1851185 0.04462737402242719 0.9312990458991557
1851561 0.044961048554716346 0.9309508146089298
1851936 0.04519652311778807 0.9308783581254425
1852312 0.04567692418184956 0.9311042116241638
1852687 0.04581495547079484 0.9309836154942236
1853063 0.04608250437041318 0.9310988712451871
1853439 0.046408948239358386 0.9311155892283131
1853439 0.046268481383796 0.9313024678846746
1853822 0.04656332163820113 0.9310196380394458
1854205 0.04689878156823872 0.931081372715653
1854589 0.04720060497953219 0.9309976089736054
1854972 0.047614578093358076 0.9311586786829356
1855355 0.04799235339489552 0.9312781914263422
1855739 0.04815074949023661 0.9311361994860177
1856122 0.048426349016374055 0.9310379952394245
1856505 0.048830810918166365 0.9311017490622843
1856889 0.048953036971435084 0.931038773578344
1857272 0.04930143020582697 0.9308786144133285
1857655 0.04960790707671369 0.9307032667230386
1858039 0.04996410453635604 0.9309861211367616
1858422 0.0501662257724775 0.9309599449938384
1858805 0.050648930616791 0.9309719491436674
1859189 0.051047886543889955 0.9310162707801417
1859572 0.051240099925027885 0.9309153563409929
1859955 0.05147477593904153 0.9309230682952977
1860339 0.051879563946497176 0.9307316089309754
1860722 0.05224725471917453 0.9311333089615997
1861106 0.052431771905028665 0.9309237446578552
1861489 0.05266230189924067 0.9308388424094592
1861872 0.05296805216400145 0.9307602099156119
1862256 0.05324478617365828 0.930757104496539
1862639 0.053464784911872607 0.9305316651740668
1863022 0.05376843575993085 0.9305092877953984
1863406 0.05413529120143965 0.9305592487523662
1863789 0.05442182654295882 0.9304887948608297
1864172 0.054781933367129866 0.9303629461840822
1864556 0.05520778398369974 0.930541594888142
1864939 0.05537197776905931 0.9303994562980995
1865322 0.055662982249298 0.9305592404061476
1865706 0.056066258546907326 0.9304394075687756
1866089 0.05633154570668535 0.9303809796568047
1866472 0.056439475127440346 0.930541339710375
1866856 0.056762747343113935 0.9303247397399665
1867239 0.057149475258390585 0.9303604490876377
1867622 0.057411300193566314 0.9304060875351444
1868006 0.0577866722974496 0.930476402720687
1868389 0.05818193999670362 0.9301891578851094
1868773 0.05848418864503881 0.9304715668859977
1869156 0.05858186055064807 0.9301838134744964
1869539 0.05887299169130511 0.9301893460103727
1869923 0.05927104930050519 0.930330068539199
1870306 0.05960220241721551 0.9303686193792235
1870689 0.059870168576358254 0.9304023769816003
1871073 0.06018468642793075 0.930188823926062
1871456 0.060565627126736556 0.9302858218881629
1871839 0.06063837288553788 0.9302942097290733
1872223 0.06098438139732869 0.9301848963470218
1872606 0.061292317574937506 0.9301077340658692
1872989 0.061617416195679876 0.9303453244056967
1873373 0.0618312349939286 0.9301177054274689
1873756 0.06217034656704349 0.9300725171080845
1874139 0.06255903134064746 0.9301653563326663
1874523 0.0628221187332174 0.9302671537318488
1874906 0.06315052329552509 0.9301806825148912
1875289 0.06345820856688458 0.930132330591564
1875673 0.06366491621681086 0.9300610936721256
1876056 0.0638731162580772 0.9301365878612329
1876440 0.06421616678541113 0.929854999073329
1876823 0.06454101989076749 0.9298473149802647
1877206 0.0648281482754926 0.9299447095579592
1877590 0.06510420214543629 0.9299262111437755
1877973 0.0654744367757707 0.9299381350580926
1878356 0.06595276086189897 0.9302411777663662
1878740 0.06608150015298303 0.9297965560664735
1879123 0.06642175534140282 0.929628501585685
1879506 0.06685438584914749 0.929519580161757
1879890 0.06711869555187978 0.9295770150475361
1880273 0.06738394075093158 0.92971412801915
1880656 0.06762152026089796 0.9298081400484075
1881040 0.06801642941762052 0.9295976481942825
1881423 0.06829986632263364 0.9300072972900539
1881806 0.06859915872533168 0.9296839806241437
1882190 0.06898019057597647 0.9295599929871257
1882573 0.06939325626714685 0.9294272016605496
1882956 0.06954454175726045 0.9295959339111238
1883340 0.06986798716553734 0.9297433035586522
1883723 0.07012387210417186 0.9297615985706241
1884107 0.07044397550542376 0.9298135538720805
1884490 0.07080208487984872 0.929526052227045
1884873 0.07116883034018834 0.9295644301740386
1885257 0.07130896206139221 0.929426534205497
1885640 0.07149207075195832 0.9296018456681215
1886023 0.07188686642010175 0.9293665660671918
1886407 0.07213651113148946 0.9294728951054892
1886790 0.07254001008093523 0.929521977814432
1887173 0.0727165355608156 0.9295006375824809
1887557 0.0730459886286871 0.9294063764615856
1887940 0.07343989440431947 0.9295090705659443
1888323 0.07350239792830915 0.9294623274678506
1888707 0.07384114773087451 0.9293207420506608
1889090 0.07431072342201725 0.9292906773573962
1889473 0.07459243890869503 0.9294197798591904
1889857 0.07482221848666316 0.9295525907756129
1890240 0.07524332526012184 0.9292589850039038
1890623 0.07561286458083269 0.9291837119536893
1891007 0.07584468020342282 0.9291805344042883
1891390 0.07617690652834304 0.9289959700592064
1891774 0.07645088739397309 0.929036290459919
1891774 0.0759640933762801 0.929419000317327
1892165 0.07645001519060281 0.9290575803222572
1892556 0.07679233899691079 0.9288666256909337
1892947 0.07711343914893212 0.9287678668922401
1893339 0.07762788079701818 0.928910206413894
1893730 0.07797990246914477 0.9292095470288182
1894121 0.07833183714593574 0.9289536357752589
1894512 0.07855454496775785 0.9289035887569076
1894904 0.07880532810443805 0.9289871842451194
1895295 0.07904582799314111 0.9289319483892832
1895686 0.07937147058481371 0.928755633345038
1896077 0.07975153527615933 0.9287278848653581
1896469 0.07993699763465276 0.928929651025213
1896860 0.08033036005220696 0.9287703407350297
1897251 0.08074267473443003 0.9288273447918679
1897643 0.08090812793600154 0.9289114858276316
1898034 0.08096405238878815 0.9287503561689703
1898425 0.08146845108776317 0.9285296243970972
1898816 0.08170877193808589 0.9285593599306241
1899208 0.08202564567469749 0.9287019904266163
1899599 0.0824248584702109 0.9287182035047473
1899990 0.08291861817819282 0.9289161818224804
1900381 0.08327388422871451 0.9288140524167575
1900773 0.08342711017345034 0.9285979442169058
1901164 0.08369630144716368 0.928280408257461
1901555 0.08387677972515326 0.9282109186940257
1901947 0.08422464394616774 0.928414474563129
1902338 0.08463241086801183 0.928444639582163
1902729 0.08487105942703699 0.9284854224002789
1903120 0.08527602157328747 0.9286479392020262
1903512 0.0855288263975353 0.9283050443632789
1903903 0.08581753043976065 0.9283271579432214
1904294 0.08611355998738833 0.9281739173790075
1904685 0.08627257820203123 0.9280864617462294
1905077 0.08657706173364739 0.9280027662134562
1905468 0.08704776637826024 0.9282767821719433
1905859 0.08733526632314277 0.9280893452089193
1906250 0.08763381858247891 0.9283255093752564
1906642 0.08794318298567393 0.9282383545002308
1907033 0.08825453156239761 0.9280856335161288
1907424 0.08845100950192228 0.9281451080775045
1907816 0.08872113283547355 0.9280477343463046
1908207 0.08911457156509381 0.9279989924224012
1908598 0.08946153021633901 0.9279825144023003
1908989 0.08977552525373625 0.9278958287621509
1909381 0.09012566846004072 0.9280193869987972
1909772 0.09035806414473609 0.9276697193812704
1910163 0.09063345301375333 0.9275591060672728
1910554 0.0909679382745778 0.9273358104106075
1910946 0.0912687025722853 0.927587208161302
1911337 0.0913252107899733 0.9275854301444871
1911728 0.09160232241885059 0.9276366082595914
1912120 0.09197394014466789 0.9277244264337458
1912511 0.09232953191847507 0.9275934839386698
1912902 0.09270102939717662 0.9277133741696758
1913293 0.09296735387447823 0.9275114742884208
1913685 0.09345411659720954 0.927454064468975
1914076 0.09373682746755257 0.9275953335510723
1914467 0.0939078261259066 0.927501440098771
1914858 0.09425385286744066 0.9272991394786014
1915250 0.09469158178136176 0.92743099948834
1915641 0.09490796682271212 0.9273618757250679
1916032 0.09523464941497686 0.9274614511536409
1916424 0.09560638760980324 0.9274289438674987
1916815 0.095848287694847 0.9273160380677002
1917206 0.0960657046556983 0.9271469574982727
1917597 0.09632136014549811 0.92715353180015
1917989 0.09685812562303418 0.9268386479410611
1918380 0.09711504154904266 0.9269918735476741
1918771 0.09738691695098536 0.9268576519873705
1919162 0.0978408534278052 0.9268984001367165
1919554 0.09804658086843784 0.9269271379914649
1919945 0.09820135005922238 0.927060080928877
1920336 0.09833818834244663 0.9267845796701547
1920727 0.09877017968279098 0.9269241596105234
1921119 0.0991288814367408 0.9268024125364532
1921510 0.09952010675564331 0.926869440442187
1921901 0.10004149440743274 0.9266029448179958
1922293 0.10025825608350064 0.9266935611720198
1922684 0.10050087618724847 0.9268371539004796
1923075 0.10086712773910199 0.9265892967507869
1923466 0.10115781152245457 0.9267552331523559
1923858 0.10131583482432098 0.9267225610227493
1924249 0.10168247822615818 0.9266777696266875
1924640 0.10197060008800125 0.9266755949550861
1925031 0.10220532967425723 0.9264310312272644
1925423 0.102430220949849 0.9263551221229387
1925814 0.10276378517092113 0.9263503806318437
1926205 0.1030194608508113 0.9261453798458807
1926597 0.10331176311335585 0.926383845500818
1926988 0.10357960580201714 0.926131858241048
1927379 0.10409806567312947 0.9263525250484607
1927770 0.10442003669570535 0.9262745950835206
1928162 0.10464973874542839 0.9263578843419178
1928553 0.10499356133025771 0.9263282297551528
1928944 0.10522894449361965 0.9262072410700196
1929335 0.10556693240307116 0.9260812413798695
1929727 0.10581879406289071 0.9260881192222322
1930118 0.10614110976610425 0.9262740326273579
1930509 0.1064068707380859 0.9261542273881873
1930901 0.1066184514281549 0.9261225693077375
1930901 0.10656324884616193 0.925851653384029
1931300 0.1069560109314985 0.9258160579638992
1931699 0.10748465987152488 0.925958866596423
1932099 0.10753609394988842 0.9258589248191318
1932498 0.10787134520876568 0.9257909425864173
1932897 0.10827312405944967 0.9258732014749967
1933297 0.10848136250005949 0.9258111507161751
1933696 0.108818869726124 0.9258943140416435
1934095 0.10914705055248079 0.9257644481102029
1934495 0.1095475254428002 0.9258043583898201
1934894 0.10987374899665882 0.9258384971999882
1935293 0.11025814827360478 0.925460331463898
1935693 0.110615797868743 0.9256718620054724
1936092 0.11079813075501918 0.9257363806969644
1936492 0.11115372695624026 0.925604773670866
1936891 0.11157916453627276 0.9256531514035922
1937290 0.11182512508264797 0.9257479301726788
1937690 0.11214186515063455 0.9255629965294131
1938089 0.1125890374620595 0.9251655786897935
1938488 0.11289817652466753 0.9252026750111957
1938888 0.11300812075844394 0.9252139095997672
1939287 0.11336740480332283 0.9250869108885206
1939686 0.11357536131791536 0.925151040151003
1940086 0.11394665323464498 0.9252498181763076
1940485 0.11431325069599016 0.9251161871885563
1940885 0.11467367113216803 0.9248764064873047
1941284 0.11493194664958398 0.9251043077623332
1941683 0.11521262437238536 0.9250915561164408
1942083 0.11546658727281887 0.9248927577719481
1942482 0.11570801104019754 0.924809992653828
1942881 0.11614202837991244 0.9248952967081115
1943281 0.11628075789190093 0.9248884385633999
1943680 0.11670277440512011 0.9248174668599803
1944079 0.11701902697648497 0.9249125120219224
1944479 0.11743573860800757 0.9248905269874061
1944878 0.11779046484369188 0.9248114459286058
1945277 0.1181718418872812 0.9248887687486981
1945677 0.11831081940311135 0.9247743888480017
1946076 0.11860917437478895 0.9246205600633213
1946476 0.11893562375003554 0.9246131639818055
1946875 0.11908367169674774 0.9245141243403399
1947274 0.11935606412177806 0.9245098018772362
1947674 0.11968245175159657 0.9246248128338265
1948073 0.1200023369397299 0.92454754776795
1948472 0.1201193127726876 0.9243974854084009
1948872 0.12070912693392052 0.9242687774676717
1949271 0.12107060805555991 0.9242497049789418
1949670 0.12119256672797026 0.924258586882387
1950070 0.12150873638810505 0.9240554262080629
1950469 0.12188306477895702 0.9241130858046872
1950869 0.12211058840250306 0.924135811147377
1951268 0.12234122409425134 0.9242330367419513
1951667 0.1227435175866182 0.9241178268412414
1952067 0.12312016340605116 0.9238306037581866
1952466 0.12329499750338845 0.9237950456641741
1952865 0.1236900582542242 0.9238253935755553
1953265 0.12408905440867019 0.9239506797232422
1953664 0.1244477889908892 0.9239143726124536
1954063 0.12458798964280267 0.9237839143465384
1954463 0.12498045652394679 0.9236355409125668
1954862 0.12537071614072076 0.923916720465896
1955261 0.12567088651960936 0.9238699829223007
1955661 0.12611480878749093 0.9236331643233783
1956060 0.12641905453532998 0.9236126166073276
1956460 0.1267347362851496 0.9236721180087791
1956859 0.12689846137260144 0.923409885772259
1957258 0.1272779488035896 0.9232631446448264
1957658 0.12759495494904233 0.9232997910479055
1958057 0.1277801507510843 0.9232556648283
1958456 0.12808190974816272 0.9233006898445586
1958856 0.12854367199811756 0.9233308266644528
1959255 0.12877543088837679 0.9231021335363337
1959654 0.12894190005699327 0.9232334098529875
1960054 0.12941000856383117 0.9231060472213605
1960453 0.12965095159919 0.9230101995778144
1960853 0.13003251143454206 0.9231314648285651
1961252 0.13038936530108014 0.9231153201506882
1961651 0.13075562131900031 0.9230510582011873
1962051 0.1310208914068596 0.9230695787271571
1962450 0.13120455138734372 0.9227076901682163
1962849 0.1315403001680161 0.9227625544195732
1963249 0.13184636660174504 0.9227309623408813
1963648 0.13203592611309384 0.9226598088859767
1964047 0.1323784508896218 0.9226939306657833
1964447 0.1326174257655884 0.9228974393585732
1964846 0.1328691099057128 0.9228505736244142
1965245 0.13340349857188002 0.9224453621098205
1965645 0.13398680688090983 0.9226011458813508
1966044 0.13422909030528687 0.9225098903415404
1966444 0.13451034020546007 0.922345716378892
1966843 0.13482968736429077 0.9224277915429602
1967242 0.13514915163895141 0.9223622796858476
1967642 0.1354370406757158 0.9224162528553704
1968041 0.1356515571116763 0.9221070972636503
1968440 0.13606314206053774 0.9223275353033079
1968840 0.1360731077249633 0.9221885625353317
1969239 0.13636023988086135 0.9221772942267851
1969638 0.136816436716386 0.9221515672897637
1970038 0.1372127569215522 0.9222543654172625
1970437 0.13732011692405405 0.92222079406665
1970837 0.13776971240773522 0.9220191721209703
1970837 0.13741406348443969 0.9226950572209738
1971244 0.1379919452945881 0.922060930759365
1971652 0.13832976797223043 0.921823629181662
1972059 0.13872337635151505 0.9218100662251605
1972467 0.13909629423176773 0.9218766697037557
1972875 0.13941350313583056 0.9219546948947729
1973282 0.13967160046707228 0.9217053394838858
1973690 0.1401682257467356 0.9214624318190396
1974097 0.1407667734306521 0.9213450705480531
1974505 0.14121370384121332 0.9212925377697565
1974913 0.1413098348690608 0.9209680323101284
1975320 0.14145403457165326 0.9214327721921546
1975728 0.14132683249134767 0.9214393051702215
1976136 0.1413395688926348 0.9215473537145006
1976543 0.14196053475871856 0.9214699324977244
1976951 0.1423153477919373 0.9213797778741988
1977358 0.14274549359993963 0.9210211199039944
1977766 0.14312365162657853 0.9208885424122263
1978174 0.1433744048071535 0.9209213276396668
1978581 0.1435312022506137 0.9208808779996273
1978989 0.14381959456357238 0.9205263849369837
1979397 0.14410309696468435 0.920772474870304
1979804 0.14458219777826187 0.9207664176014264
1980212 0.14488128302517345 0.920900761843421
1980619 0.14526627012948626 0.9208317447691227
1981027 0.14541170446217544 0.9208261410417344
1981435 0.14560654754471591 0.9207441717312029
1981842 0.1460287015418512 0.9204705593330124
1982250 0.14650665353713532 0.9204424515810834
1982657 0.14673618617570075 0.9203402827750424
1983065 0.14709814803324414 0.9204680718545254
1983473 0.14752602026104453 0.9205091318351566
1983880 0.1477182531257695 0.9204821534399642
1984288 0.14809482982515593 0.9203542294942891
1984696 0.14854579268615573 0.9201338303654314
1985103 0.14883654890968095 0.9200672974564246
1985511 0.14897682653665537 0.9201491542425729
1985918 0.14935468098406757 0.9200174249378241
1986326 0.14966204356769613 0.9200220224249436
1986734 0.14979702225269984 0.9199471829397731
1987141 0.15013766027818296 0.919732960452047
1987549 0.15063205274259914 0.9198337413306055
1987957 0.15079918391379624 0.9199226227175271
1988364 0.15107089186980505 0.9196126765488782
1988772 0.15172089069481157 0.9197297798161714
1989179 0.1518880308942461 0.9199303104426018
1989587 0.15216844783967565 0.9197995125563962
1989995 0.15258057157891197 0.9195211351758289
1990402 0.15302288902520766 0.9195897315645757
1990810 0.15320764652424715 0.9193062247604662
1991218 0.1535789004261085 0.9191486902435174
1991625 0.1540678442526377 0.9193532148614812
1992033 0.15424441426739732 0.9195293287903178
1992440 0.15443072069256786 0.9191193601966391
1992848 0.1548523980786427 0.9190098337016864
1993256 0.15514133063875704 0.9188766223178796
1993663 0.15535029679969622 0.918628857256074
1994071 0.15575249643207476 0.9189906601193312
1994478 0.15596180656476372 0.918927106074441
1994886 0.15616444354728992 0.9189140812135723
1995294 0.15641046995511235 0.91882276497394
1995701 0.1568853959819229 0.9186209379318141
1996109 0.15711999407411004 0.9185633349908622
1996517 0.15748097909685516 0.9184740617712965
1996924 0.15783905371770712 0.9184526769257424
1997332 0.15814330719077468 0.9185918312131486
1997739 0.15846679616955325 0.9184645023902802
1998147 0.15870339119277718 0.9183002492245453
1998555 0.159060148114612 0.9184604894797248
1998962 0.1592954031251162 0.918556738976063
1999370 0.15965856561400116 0.918417131030225
1999778 0.15994815300846552 0.9184144906466871
2000185 0.16022385696775493 0.9184022821223319
2000593 0.16039910148709677 0.9181246662923901
2001000 0.1607583033234218 0.918163137620333
2001408 0.16116088077983434 0.9181558491684442
2001816 0.16141921351244712 0.9178612891440691
2002223 0.16184735294636513 0.9177691122275186
2002631 0.16226269617785838 0.9178756784909003
2003038 0.16237032462947582 0.9178323135651486
2003446 0.16267265780446089 0.9177350135806409
2003854 0.1631443917143543 0.9177669626560843
2004261 0.16338804030574325 0.9177063916138906
2004669 0.16367863470442093 0.9175986939989876
2005077 0.16401310591341672 0.9175028447239006
2005484 0.164461857261113 0.9174445565924326
2005892 0.16469693476734334 0.9172659596797257
2006299 0.16494242511006338 0.9173011136674379
2006707 0.165372976552539 0.917158020782373
2007115 0.16560424615188019 0.9171526946992626
2007522 0.16591780964656824 0.9171866971618231
2007930 0.1662576685283627 0.9172221524245328
2008338 0.16657700403944464 0.9171011247721205
2008745 0.16690893642032323 0.9172577667228556
2009153 0.1672401000547079 0.9171102645386842
2009560 0.16766819191107357 0.9170934515837673
2009968 0.1678950341877522 0.9170405385656087
2010376 0.1681752945801533 0.9168504416969999
2010783 0.16852687926920173 0.9168539145831454
2011191 0.16880309732982027 0.9167799999958872
2011599 0.16913295776339177 0.9163818891942799
2011599 0.16919813941100573 0.9170623135432419
2012015 0.16929651185611921 0.9164644531569945
2012431 0.16981360831446782 0.9163699366608887
2012847 0.17001649926775375 0.9159274776063748
2013263 0.17023969068683692 0.9159105444395739
2013679 0.1707301468189355 0.916394494142507
2014095 0.1708861851302786 0.9163413575908971
2014511 0.17129693934469473 0.9161769673478101
2014927 0.17155743137967897 0.9159279189376287
2015343 0.17205472609606617 0.9159296705946098
2015759 0.1722918854110457 0.9159464303844019
2016175 0.17278685411500563 0.9160019729457918
2016591 0.17308740483470647 0.9161789282482439
2017007 0.17322821800653362 0.9161099445112252
2017423 0.17363352315864566 0.9159329987885563
2017839 0.17399656608362515 0.9157660512787165
2018255 0.17417256364173817 0.9153989485521867
2018671 0.17454727803641162 0.9154563460919112
2019087 0.17501706734836284 0.9154606648150191
2019503 0.17510545524350118 0.9155333210385285
2019920 0.1753433172467115 0.9153503879239744
2020336 0.17587153882244963 0.9152535309357134
2020752 0.17600088528235866 0.9153378035819238
2021168 0.17644340371983233 0.9151480584040939
2021584 0.1768215356772649 0.9149522568348957
2022000 0.1771854720906642 0.9151920455014884
2022416 0.17738571977449663 0.9149258935134867
2022832 0.17776295094831987 0.9149115732285111
2023248 0.1781273712540336 0.9148186249159993
2023664 0.17845463628684852 0.9149857892890033
2024080 0.17880399550217438 0.9148582894986467
2024496 0.17916031489441578 0.9147999664000462
2024912 0.1793605800788358 0.9149142659098419
2025328 0.17968495932088185 0.9146191291306403
2025744 0.1800121385406774 0.9146790284491809
2026160 0.18024791357500414 0.9146691035980383
2026576 0.18061239187318362 0.9144751649716777
2026992 0.18105214789063764 0.9145299648881842
2027408 0.18143033180028775 0.9146102191719967
2027824 0.18156823478876258 0.914557088012133
2028241 0.1818419846425378 0.9145054106835402
2028657 0.18224720709032258 0.9143139630317817
2029073 0.18250349060329482 0.9141801447245524
2029489 0.18292144904897586 0.9140666203769091
2029905 0.18346117746484022 0.9140999961293991
2030321 0.18367328974327615 0.9139792060980925
2030737 0.1837773084390929 0.9138305596189907
2031153 0.18412350794744034 0.9137856739033866
2031569 0.18428452366658452 0.9137462797032516
2031985 0.18462379386859415 0.9137564703972814
2032401 0.18509352867219656 0.9137247290248617
2032817 0.18546234762617483 0.9136520011450445
2033233 0.18569913435578111 0.9134985016881441
2033649 0.1861392982596821 0.9132404709736295
2034065 0.18656155170809544 0.9132018085247002
2034481 0.18695714590254428 0.9131637387698947
2034897 0.18720490848131016 0.9131403489140815
2035313 0.1876494532641363 0.9131092675720023
2035729 0.18797936486745767 0.9132991023383814
2036145 0.18804862476587203 0.9131099772787364
2036562 0.18830047441452197 0.912981587186306
2036978 0.1886483041455213 0.9131036214234589
2037394 0.18891224453477856 0.912803827364319
2037810 0.18916362762641448 0.912519962214734
2038226 0.18957854848180875 0.9130563590489784
2038642 0.1897445840468124 0.9129109906990159
2039058 0.19007316664509796 0.9128952953002879
2039474 0.19040281915070204 0.9127197933438608
2039890 0.19078263219516703 0.9125901915293512
2040306 0.19116858575258025 0.9123378676694621
2040722 0.1916693445776662 0.9121728753230932
2041138 0.191952159096816 0.9123145132252864
2041554 0.19211410667592146 0.9121922718496297
2041970 0.192437193054402 0.9121170431433709
2042386 0.1928999495320197 0.9118784760215874
2042802 0.19305739938656655 0.9118502877025789
2043218 0.19329473044579695 0.9117721925449308
2043634 0.1937583758391154 0.9118592864558747
2044050 0.19405524589297385 0.9115894185654394
2044466 0.19429378717459722 0.9116288967163658
2044883 0.19464826673625635 0.9113970816159749
2045299 0.1950375941443605 0.9116268861917409
2045715 0.1952287326450322 0.911283618631058
2046131 0.19565792651732195 0.9115129838909682
2046547 0.19581706504383964 0.9113466167651982
2046963 0.19605060333414856 0.9111999553489109
2047379 0.19633613527101207 0.9113199468426278
2047795 0.19681834424357708 0.9113032800978954
2048211 0.19720479704813695 0.9109682937013168
2048627 0.19759114677696804 0.9107883053812482
2049043 0.1980771386609863 0.910912464156644
2049459 0.19809038265766443 0.9109232467438745
2049875 0.19826183155847069 0.9108403213173202
2050291 0.19853957076647102 0.910853121381507
2050707 0.19889643555723877 0.9109960451088744
2051123 0.19920338364935455 0.9107660450301163
2051539 0.19970735473220408 0.910555238969047
2051955 0.20007111650801193 0.9104374639483581
2052371 0.20024392233858354 0.9105616367114988
2052787 0.20055694813432437 0.9103635056345388
2053204 0.20079995378294574 0.9103049825115671
2053204 0.200284488679707 0.9104729354717019
2053628 0.20077107473446476 0.9101110498042733
2054053 0.2013334824937987 0.9100681785933808
2054477 0.20187584839039846 0.9099567091953474
2054902 0.2023145037667481 0.9100669011009983
2055327 0.20256791990445674 0.9099628889801962
2055751 0.20277097367584182 0.9097726161562645
2056176 0.20303655299211326 0.9098435064222118
2056601 0.2032709762103181 0.9096956712347547
2057025 0.20378880919455197 0.9095483109263135
2057450 0.20398102578446942 0.9095524763674591
2057875 0.20421759735465603 0.9095689198058566
2058299 0.20464986578179228 0.9092987493401904
2058724 0.20503622038210378 0.909168405298779
2059149 0.20537507220351997 0.9091389768242777
2059573 0.20572903747649177 0.9088462529220486
2059998 0.2061244198044631 0.9090319858540901
2060423 0.20639725591679914 0.9090556587145546
2060847 0.206816722336702 0.9090577567098902
2061272 0.20722151683553536 0.9088074712099019
2061697 0.20731592719761707 0.9085955901615073
2062121 0.20776131749214902 0.9085712499782302
2062546 0.2082239672418627 0.9085735336206726
2062971 0.20850078789628085 0.9086854688162114
2063395 0.2086064289708373 0.9084183415984124
2063820 0.20919795136122254 0.9083609228214455
2064245 0.20948639299377625 0.908538992482237
2064669 0.20957949505345658 0.9083374112303962
2065094 0.20991315993776088 0.9080452461287497
2065519 0.21025410720393525 0.9080677533455503
2065943 0.21054028858693968 0.9081778421670114
2066368 0.2109140045490835 0.9080298035398444
2066793 0.2111656010165781 0.9080416577222457
2067217 0.2113319270974331 0.9076435995660695
2067642 0.21191691885609326 0.9077622964366456
2068067 0.21224105997400666 0.907644230261385
2068491 0.21256997368405495 0.9077058065635565
2068916 0.2128567858776726 0.9075251516978342
2069341 0.21331856491068737 0.9075956135086318
2069765 0.21352271002951037 0.907602379689749
2070190 0.2138184320991316 0.9072088932511788
2070615 0.21416803063479364 0.9071796224877121
2071039 0.21433819987584177 0.9071474061167452
2071464 0.21461980133909397 0.9070668349943409
2071889 0.21503268787872148 0.9070152439742557
2072313 0.2153236049910479 0.9070095591020704
2072738 0.21559469538454484 0.9068896621742947
2073163 0.21600462363862313 0.906866557213905
2073587 0.21646902594583867 0.9068480430055557
2074012 0.21669023592558553 0.9066227653279093
2074437 0.21714851542504304 0.906587727685652
2074861 0.2174484920195478 0.9063161324806053
2075286 0.21775624540873684 0.9063091047974068
2075710 0.21809105766431272 0.9062483882489544
2076135 0.21852205844115108 0.9061381668594329
2076560 0.218879727354124 0.9063969741464967
2076984 0.2190456747657521 0.9061179217255284
2077409 0.21935453909502892 0.9061868390491884
2077834 0.21969109701641767 0.9061603661814465
2078258 0.22003138319197274 0.9060688545006841
2078683 0.2203787711902204 0.9058728263595222
2079108 0.22069914085408057 0.9057614098901846
2079532 0.22101133579234003 0.9058351608629955
2079957 0.22134480643669485 0.9056190601047458
2080382 0.22176087396317726 0.9055862481488283
2080806 0.22198791097345444 0.905719502008507
2081231 0.22233110925376393 0.9054491604682197
2081656 0.22278465581631013 0.9052140897968047
2082080 0.22302405482900417 0.905172218303343
2082505 0.22332281018945124 0.9048854643719435
2082930 0.22366310415248047 0.90464419286719
2083354 0.2238700569184451 0.9047369834737341
2083779 0.2241299176967547 0.904878373983162
2084204 0.2244456656493169 0.9047346486237116
2084628 0.22485678763518147 0.9046636040834287
2085053 0.22515911842574818 0.9048303050252917
2085478 0.2255465795761037 0.9044576960970009
2085902 0.22585282464336573 0.9045413334786203
2086327 0.2261068857634522 0.9045498932711971
2086752 0.22625982808864387 0.9043906221663917
2087176 0.22676759718206782 0.9043868622324231
2087601 0.22703605387656756 0.9043494166802156
2088026 0.22728787188253893 0.9041741567709907
2088450 0.22782754780477776 0.9042201775791441
2088875 0.22813844890711604 0.9040647012244046
2089300 0.22829772312107072 0.9039904269658254
2089724 0.22883564868460746 0.9039842036243739
2090149 0.2291750507420716 0.9038870388562267
2090574 0.22930693400543228 0.9038555057300067
2090998 0.2296374358517536 0.9035201709977164
2091423 0.2300130879890338 0.9034851377256382
2091848 0.23022865136078627 0.9033379355185218
2092272 0.2305290888229359 0.9031770898748437
2092697 0.2310789158770712 0.9028500853286535
2093122 0.23123877594801925 0.9029588168797535
2093546 0.23153478480818407 0.9028431282984566
2093971 0.23170343581128586 0.9027409095714665
2094396 0.23205548421107766 0.9028312989175193
2094820 0.2322981738756097 0.9028816106794176
2095245 0.23280282057853857 0.9027048116211798
2095670 0.23308558005675137 0.902604277593394
2095670 0.2332188137761455 0.902503571413374
2096103 0.23344666588244076 0.9024974350297141
2096536 0.23380192827132107 0.9024177582282363
2096970 0.23414924720884178 0.902346414573746
2097403 0.23446675317773594 0.9022025039510293
2097837 0.23497346011416942 0.902112474717667
2098270 0.23551308969034332 0.9019394176236822
2098704 0.2357402623302873 0.9018561205653028
2099137 0.23581698922856173 0.9018313974537496
2099570 0.23606378981063617 0.9017213188460835
2100004 0.23617081689480324 0.9018648955586096
2100437 0.23657054199435118 0.9016260584983493
2100871 0.23713854486753322 0.901551724841943
2101304 0.23739802502996749 0.9015144130394347
2101738 0.23776556672871066 0.9013449730231641
2102171 0.23814713013641273 0.901259123385456
2102605 0.23836731820688076 0.9013240159627421
2103038 0.23856098435173473 0.9012576976040612
2103471 0.2390476099152885 0.900996529031366
2103905 0.23949302141363507 0.9009394095780756
2104338 0.23968983357050322 0.9007047047412752
2104772 0.24024985321170608 0.9005898493411244
2105205 0.24049980149690103 0.9005467677219035
2105639 0.24048474525877458 0.9003897772129741
2106072 0.24104430743029506 0.9004388912346354
2106506 0.24125489038211623 0.9003559749206033
2106939 0.2416883312529224 0.9002544158741815
2107372 0.24197964976749187 0.90032884997759
2107806 0.24226190952469726 0.9000720730754181
2108239 0.24263982380512558 0.9001929581737966
2108673 0.24275706097932584 0.9000304865067065
2109106 0.24334338601277647 0.9000465289602266
2109540 0.2438002448209235 0.8998778640340029
2109973 0.24407706171511287 0.8997078250366112
2110406 0.24466397710920168 0.8995519109766041
2110840 0.24496286701882586 0.8996045006013201
2111273 0.24498022894227633 0.8993563830719253
2111707 0.2453657056923698 0.8989176336680874
2112140 0.24562328250680343 0.8991879535706543
2112574 0.24594425724830055 0.899155063489562
2113007 0.24633542824457033 0.8991325284285596
2113441 0.24664008523710274 0.8990229472722167
2113874 0.246853192207708 0.8986300204453931
2114307 0.24730155469452486 0.8986308653520526
2114741 0.24746720504903788 0.8985910143511855
2115174 0.2479736613903331 0.8986051129348527
2115608 0.24832613553123276 0.8983162746431361
2116041 0.24867144445618816 0.8983122058271934
2116475 0.24889959375533444 0.8982496595884326
2116908 0.24923189084653888 0.8982105504206462
2117342 0.24947122572376781 0.898136268906662
2117775 0.24972443459535754 0.8981107783726585
2118208 0.2500340604041951 0.89798181570359
2118642 0.2504639872408167 0.8980684773861195
2119075 0.2507002124908712 0.8981156316990933
2119509 0.2510765903073184 0.8977645536289368
2119942 0.2515137321807994 0.8976059592426033
2120376 0.25180997927455406 0.897605073628728
2120809 0.2522119473075891 0.89750615227865
2121242 0.2527585094979985 0.8980831407909396
2121676 0.253175786632334 0.8983984726145733
2122109 0.25364674822964345 0.8987464271451673
2122543 0.25404248543610286 0.8978966961955146
2122976 0.25426976024703846 0.89709479281101
2123410 0.2544350571856405 0.8962957249062419
2123843 0.2547498948617595 0.8962874863370317
2124277 0.254943166478119 0.8967282778654994
2124710 0.255225696226741 0.8969488645540722
2125143 0.25551284249683587 0.8967867890472274
2125577 0.25584774650386916 0.8966651347973618
2126010 0.25606857688400186 0.8965681344185147
2126444 0.2561947840334463 0.8961934876607903
2126877 0.2566030677648495 0.8961894057182294
2127311 0.2569388992217627 0.8960869630351205
2127744 0.25725414425061677 0.8963064704086969
2128178 0.25788044477005434 0.8960369590060904
2128611 0.2579848464034908 0.8960187647535803
2129044 0.25827862892997183 0.8954926535693253
2129478 0.25881417136935997 0.8957668651072245
2129911 0.2590276968714944 0.895666294683888
2130345 0.25923452291399574 0.8954913175071659
2130778 0.2596551096392105 0.8953802909196914
2131212 0.26007460194183235 0.8954609209270306
2131645 0.26026020920594645 0.8953355498975074
2132078 0.26055481737707015 0.8952781964207034
2132512 0.2610036590303946 0.8951918802550936
2132945 0.26122982293302127 0.8950468111441237
2133379 0.26154528651233444 0.8947659013647234
2133812 0.26195684109051437 0.8948670605362467
2134246 0.2622441123155192 0.8948255725238605
2134679 0.26254428076892755 0.8946948926355863
2135113 0.26287760708957203 0.8945086724018038
2135546 0.2631303276749527 0.8944967888415621
2135979 0.2635046170143568 0.894257234173707
2136413 0.2640639859277133 0.8943557800647844
2136846 0.2643498810731918 0.8941723001277702
2137280 0.26463161371448607 0.8939736433583313
2137713 0.2650183661383451 0.894088552622047
2138147 0.2653252914456945 0.8938859434722206
2138580 0.26550753319551773 0.8936596586764339
2139014 0.26577232893119634 0.8935944214046704
2139014 0.2660988416875313 0.8934313603827201
2139456 0.2663098895152149 0.8937634853959923
2139898 0.2664089116121466 0.8936068404826554
2140341 0.26664237067226787 0.8933847142303849
2140783 0.2671278481374144 0.8933523337540147
2141226 0.26733094131781593 0.8930800942515296
2141668 0.2678313069903443 0.8929335112330602
2142110 0.2680998787700402 0.892862476658052
2142553 0.2682930076432895 0.8929671914799324
2142995 0.26864768283392043 0.8926699105520236
2143438 0.2690139848913942 0.8927673291601695
2143880 0.26916215116113396 0.8924408740321721
2144322 0.2697241767209791 0.8922460852952384
2144765 0.27012079324935573 0.8922410256160017
2145207 0.2704573398123988 0.8922843597717367
2145650 0.2708349124363869 0.892114689284528
2146092 0.27113156300670255 0.8920509456633572
2146534 0.27144695704039457 0.8919693619610412
2146977 0.2717575984666267 0.8915535258454761
2147419 0.2723241356019219 0.8919232451052327
2147862 0.2723557679484461 0.891692080402307
2148304 0.27290476871676883 0.8916123194478602
2148747 0.2731144997898706 0.8915323524125267
2149189 0.2733235271404505 0.8913469173408205
2149631 0.2736940179064726 0.8910371161566993
2150074 0.2741798228158848 0.8910857266772931
2150516 0.2746066905809226 0.8910204144818444
2150959 0.27481187287448156 0.890715300774413
2151401 0.27534535382556635 0.8909631601166808
2151843 0.27553154611846775 0.8908580310119915
2152286 0.27585690154892956 0.8905885642315016
2152728 0.2762494518071805 0.890448434903898
2153171 0.2764737973710961 0.8905133768651186
2153613 0.2768103666607516 0.8901882993444754
2154055 0.2771663996084961 0.8899193040694062
2154498 0.2775871584454391 0.8902054485070714
2154940 0.27783620159614586 0.8900278366975873
2155383 0.2781166446941076 0.8900755198362051
2155825 0.2784160605282008 0.8900183975831283
2156267 0.2787249072633688 0.8899691011181745
2156710 0.2790192653447344 0.8898193832071946
2157152 0.279347232497167 0.8897610653293463
2157595 0.2796370419868652 0.8896852871571196
2158037 0.2799577514101687 0.8891932529723889
2158480 0.2802445680440456 0.8890904539144113
2158922 0.28056397592382526 0.8891270331995482
2159364 0.280970992586195 0.8889300910976551
2159807 0.2814074759247471 0.888858108561045
2160249 0.2816214806800342 0.888676214903703
2160692 0.28198913973999085 0.8885231096203143
2161134 0.28228594035759746 0.8886056409477673
2161576 0.28253775593644676 0.8886376036970804
2162019 0.28281234005691974 0.8883755612898625
2162461 0.28317400439652124 0.8885580867551817
2162904 0.28355278613437124 0.8886963202306433
2163346 0.28397860392481483 0.8882298502674005
2163788 0.28438609671888737 0.8881686794983811
2164231 0.2846962741902256 0.8881985112270239
2164673 0.2848589004153371 0.8879339377896657
2165116 0.2852092351466589 0.8878466027996265
2165558 0.2855258436556145 0.8878270916071482
2166001 0.2857330342554405 0.8876397428291807
2166443 0.2861748096704038 0.8875726058829233
2166885 0.2863271183595771 0.8875895515860525
2167328 0.2866642197006831 0.8874525843975856
2167770 0.2871823076157076 0.8871255803283672
2168213 0.28756450126449595 0.887027849863165
2168655 0.28779255377960977 0.8867784202232952
2169097 0.28841311698564653 0.8864168999184072
2169540 0.28869111075336795 0.8867865586145474
2169982 0.2889462904421495 0.8864524246467327
2170425 0.28937334299265877 0.8863390258990579
2170867 0.28944828936787487 0.8863786191358619
2171309 0.2898243626904035 0.8860738016684557
2171752 0.29018782978339774 0.8859332123969257
2172194 0.29049970758256377 0.8860775527769401
2172637 0.29075677619930557 0.885909948386078
2173079 0.2912259147246851 0.8858139053290656
2173521 0.29151911183974727 0.8857401260712254
2173964 0.2917583871580322 0.8856555237583019
2174406 0.29218310990735874 0.8855603694556289
2174849 0.2925725256232363 0.8855921510480771
2175291 0.2927595379180443 0.8853560369581639
2175734 0.29310431421072025 0.8850709575598422
2176176 0.2934784084275092 0.8850429934691009
2176618 0.2937997960688557 0.884700606554975
2177061 0.2943064959117191 0.884714552922514
2177503 0.29473092079739877 0.884614870307432
2177946 0.29490665375972686 0.8844246723257567
2178388 0.2951189018935445 0.8843284508667777
2178830 0.29550646790289253 0.8844975740228861
2179273 0.2957159473609488 0.8845648099507122
2179715 0.2960582266855703 0.884351887787146
2180158 0.29640434873154836 0.8842930185023035
2180600 0.2968184500956135 0.8844570188634147
2181042 0.29715351987178523 0.8840130285754365
2181485 0.29760893508128244 0.8838448371495753
2181927 0.2980100666487301 0.8836608618654286
2182370 0.2983113028271577 0.8835282165652283
2182812 0.29842966251595376 0.8833357162155698
2183255 0.2987325326812436 0.8833963645950722
2183255 0.29888270363127245 0.8833811973746235
2183706 0.29892456219037594 0.8832976311013276
2184158 0.2994312910838743 0.883019571469655
2184609 0.2995913864234301 0.8829496291385015
2185061 0.29999408539151007 0.8825679295020885
2185512 0.30047759440670635 0.8829283899156004
2185964 0.30069633709851723 0.8827605641447087
2186415 0.3011041725483157 0.8827297292070345
2186867 0.3013889811490116 0.8824022144172997
2187319 0.30171612099240497 0.8824435586378633
2187770 0.30199979217259354 0.8821909476176243
2188222 0.30254095102661405 0.8821587936280241
2188673 0.30268186580437995 0.8820107886264322
2189125 0.30297907973429583 0.8818900835719226
2189576 0.3033280388192812 0.8816862523035754
2190028 0.30378578532776057 0.8818058356909391
2190479 0.3041394626507095 0.8815861122974835
2190931 0.30444345973285375 0.881581035144892
2191383 0.30482252156844863 0.8814927914958303
2191834 0.3048013071081896 0.8813771120912155
2192286 0.3050196688557595 0.8810517813279243
2192737 0.30548033860803475 0.8810910795279259
2193189 0.30591212623636543 0.880813081665625
2193640 0.30640393101874575 0.8806859129376372
2194092 0.306657844366435 0.8804680299108544
2194544 0.307061854267871 0.8802067259893367
2194995 0.3076231443739573 0.8801940022266834
2195447 0.30782701575206967 0.8802070782407136
2195898 0.3081516178878996 0.8798650191369114
2196350 0.3087023847901022 0.8799484230441604
2196801 0.3087993696000033 0.8799377182983766
2197253 0.309018221553813 0.8796572559611819
2197704 0.30938543232380744 0.8797652402981448
2198156 0.3096870394486146 0.8794937257085901
2198608 0.3099100684220339 0.8793520197264872
2199059 0.31047235510590215 0.879241448422883
2199511 0.3107233421421118 0.8792293990978398
2199962 0.3110611412308311 0.8791241477646858
2200414 0.31140514278279663 0.8789440457813492
2200865 0.31175422243749523 0.8790089546423338
2201317 0.3120033620490553 0.8788825126000831
2201768 0.31250026796530356 0.8786830994442426
2202220 0.3127547585977985 0.8784966767796043
2202672 0.3131180895642664 0.8783391540365886
2203123 0.3135214252724851 0.8781358582529296
2203575 0.3138458767723495 0.8781656084383632
2204026 0.314208610639894 0.8782298594323766
2204478 0.3146333149869994 0.878004583087596
2204929 0.3148997434933036 0.8778599619318284
2205381 0.3151524355413216 0.8777775973549831
2205833 0.3155016040187112 0.8777294505192306
2206284 0.3159342399019125 0.877737924556983
2206736 0.31613708769765886 0.8774073529077184
2207187 0.3164845113985662 0.8774418542096728
2207639 0.31663550428421056 0.8771329862187558
2208090 0.3169095263487311 0.8771626214039043
2208542 0.31731750223075 0.8770982843057292
2208993 0.3176493257904063 0.8769414086655629
2209445 0.31801775191662485 0.8766927453795067
2209897 0.31835026015652806 0.8764007155610101
2210348 0.3185635854726678 0.8763193003814067
2210800 0.31890376886271865 0.876113297755687
2211251 0.31922708993283966 0.876164922345298
2211703 0.3196442499526543 0.8759847325382635
2212154 0.3200208717548826 0.8757843794649204
2212606 0.32064954196349127 0.8757613833674591
2213057 0.32090735348947524 0.8757299040003333
2213509 0.32116985570466605 0.8755564081735528
2213961 0.32154771638921975 0.87547238434813
2214412 0.32181157645130254 0.8752614338509516
2214864 0.3220193565185788 0.8752369112149813
2215315 0.3224353893190109 0.8751308601579606
2215767 0.3226917998684565 0.8750461743863138
2216218 0.32299893416333864 0.8749079836431994
2216670 0.323391739162916 0.8746288112417824
2217122 0.3236586010377341 0.8744420018282251
2217573 0.32390461099273427 0.8745464379234686
2218025 0.3243923644735552 0.8743194870875904
2218476 0.324857385472338 0.87419069826113
2218928 0.3250613945176447 0.8742036216583141
2219379 0.3255137068649786 0.8742067592176613
2219831 0.3256508505808638 0.874041768116956
2220282 0.32594477485180967 0.873949966006586
2220734 0.3263920179185949 0.8736826264049673
2221186 0.32662399461358693 0.8737332896358552
2221637 0.326842513529771 0.8734318490272882
2222089 0.327302848145064 0.8732015123288808
2222540 0.3276707042329073 0.8730834977457317
2222992 0.3278601184411833 0.8729092238703952
2223443 0.3283013392150547 0.8727160377983344
2223895 0.3285715087634502 0.8726699560253378
2224346 0.3289140245292058 0.8726499181040311
2224798 0.3293345437321409 0.8725439270236307
2225250 0.3297222210280877 0.8723883247698886
2225701 0.32998430249523625 0.8722232758252005
2226153 0.3302039749420149 0.8719392821549098
2226604 0.33068887721234785 0.8719722843441833
2227056 0.33073878201704315 0.8718928477952202
2227507 0.3312194084579697 0.8718013267257594
2227959 0.33158548508720265 0.8716793218251919
2228411 0.3316633933705565 0.8716370376665654
2228411 0.33136208027367947 0.8711788091719236
2228871 0.33224906743735294 0.8712384790669183
2229332 0.3325375647440676 0.8714598069502039
2229793 0.33276917368599196 0.8712197927300229
2230254 0.333266324444494 0.8710434098115337
2230715 0.3335718421941993 0.8710357526139169
2231176 0.3340066666208741 0.8709248104590391
2231637 0.3344871474430012 0.8707585554941136
2232098 0.3347182340982905 0.8708579308655454
2232559 0.3347403159687903 0.8706704726206844
2233019 0.33509767484177966 0.8704144502042689
2233480 0.33553099058131564 0.870250775926276
2233941 0.33573692297175883 0.8699903697388769
2234402 0.33623922213996865 0.8696614686811549
2234863 0.3365718383258944 0.8698632759001222
2235324 0.3369065769347368 0.8698466175617486
2235785 0.3373318050014765 0.8697561172620724
2236246 0.337742940686835 0.8697454289499652
2236707 0.33798317077584544 0.8695187730749488
2237167 0.33843337977266336 0.869140796944026
2237628 0.3386153136235609 0.8690089972743212
2238089 0.3389587227595036 0.8690408972144512
2238550 0.3394267799364374 0.8689079947234934
2239011 0.3397346199161021 0.8688929964660056
2239472 0.3400202197309722 0.8686308417896701
2239933 0.34046650272599344 0.8684446933965291
2240394 0.34068108337787945 0.8684421540420494
2240855 0.34098664267793644 0.8680324305835223
2241315 0.34151375046447113 0.8680029869051117
2241776 0.34173613229603295 0.8679314876839171
2242237 0.34209890067088544 0.8676975255312213
2242698 0.34250409093425443 0.8676325970171316
2243159 0.34263721826045995 0.8675089156733605
2243620 0.3429456940051611 0.8673325784046544
2244081 0.3433280047392079 0.8673013238608381
2244542 0.34353041580170846 0.8670513441860908
2245003 0.3439423933646533 0.8669910884759177
2245463 0.34437881769924983 0.8667999864991323
2245924 0.34460127584291966 0.8666249853396376
2246385 0.34501055176063555 0.866520764128041
2246846 0.3452881270068468 0.8663763433407109
2247307 0.3456744980322691 0.8662735371686346
2247768 0.3460244404239324 0.8659859258070055
2248229 0.3464333382359129 0.8660091577770043
2248690 0.3466573121160501 0.8660418617054009
2249151 0.3470723650342228 0.8658661968876625
2249611 0.3473643442016335 0.8657317284109313
2250072 0.3475242740319517 0.8655645969540315
2250533 0.34801806282375203 0.8655282855555898
2250994 0.3484226802684969 0.8653946005571425
2251455 0.34866914259352966 0.8651253737956248
2251916 0.349082847978816 0.8650133700927868
2252377 0.3493123808625415 0.8649383160321227
2252838 0.3497246261174067 0.8647173591675565
2253299 0.35016555994731535 0.8644896599553907
2253759 0.3505003053167149 0.8643882467000471
2254220 0.35070114195772906 0.8644351836039902
2254681 0.3509774337675393 0.8642336734924886
2255142 0.3514003713634339 0.8640963115894064
2255603 0.35164802820681906 0.8641505662573051
2256064 0.351941231816427 0.8635838437526643
2256525 0.3524497528718742 0.8636049252382312
2256986 0.35271469197869265 0.8634974206665933
2257447 0.3531167383238252 0.8634470715683203
2257907 0.3534749610376234 0.8631912352978324
2258368 0.3535902312086972 0.862986625782182
2258829 0.3539353352237282 0.8627685976182433
2259290 0.3540918001998474 0.8626528409500379
2259751 0.35441307215170503 0.8626171663277148
2260212 0.3550453936204963 0.8624857433855158
2260673 0.35543198466740944 0.8624640280381473
2261134 0.3556389646837804 0.8621759667561432
2261595 0.35597933514879004 0.8620971070526805
2262055 0.35631238392836795 0.8618896700435943
2262516 0.35658119594493937 0.8617607280776467
2262977 0.3570117270451287 0.8618961089695844
2263438 0.3572588765272548 0.86190051948874
2263899 0.3575756959536131 0.8618072374464427
2264360 0.3579522092294968 0.8613057953294253
2264821 0.35843316869162983 0.8615646049186015
2265282 0.35857638635544653 0.8612742952726253
2265743 0.3590530130377796 0.8610536739419555
2266203 0.35921543746367635 0.8608189723353588
2266664 0.3595873958149374 0.860647306687224
2267125 0.3600989915328461 0.8604640239751137
2267586 0.36039076420532556 0.8605624601145795
2268047 0.36078328544630395 0.8604641798234639
2268508 0.3609181016265671 0.8599635853592664
2268969 0.3608620193468914 0.8597320640135522
2269430 0.36101325043459026 0.8593502233810212
2269891 0.3617192916467629 0.8594923684126591
2270351 0.3622274296164751 0.8595511283273027
2270812 0.3628880585632033 0.8596370314684492
2271273 0.36325081178240487 0.8595355182763855
2271734 0.3634351013545047 0.8594303386179086
2272195 0.3635690669837968 0.8590415923235808
2272656 0.3638504475041934 0.8590478700290084
2273117 0.3641648471373227 0.8588308018280054
2273578 0.36460785281433167 0.858636267666638
2274039 0.3651024086217582 0.8583976550898766
2274500 0.36544944374128324 0.8584611673024923
2274500 0.3648073897421022 0.8585264230815736
2274970 0.3657876898250437 0.8581753822376955
2275440 0.3662790249516321 0.8577955003455674
2275911 0.3666774521002206 0.8578758683643489
2276381 0.36698800774283785 0.8577546375799175
2276852 0.3671601118872295 0.8576696352578594
2277322 0.36750469399972874 0.8573770782825906
2277793 0.3678751321943204 0.857251800618227
2278263 0.3683302468561001 0.8573301715777563
2278733 0.36852956189421526 0.8572359355761725
2279204 0.36854210292264855 0.8567949655177977
2279674 0.368913159166736 0.8566556555069069
2280145 0.3692264131202638 0.8566392369444791
2280615 0.36949636370616035 0.8564621928217774
2281086 0.36987137848936485 0.8563259423733726
2281556 0.37021971539164 0.8564835529605498
2282026 0.3704417079821655 0.8560449872203592
2282497 0.37094949609503025 0.856079266427857
2282967 0.3713176434980391 0.8559989408182866
2283438 0.3719220310099603 0.8556891720704299
2283908 0.37240510706459873 0.8555867415869014
2284379 0.3725800110989308 0.855283878471096
2284849 0.3728771184415431 0.8551310656005904
2285319 0.37316603317139346 0.8550372064573574
2285790 0.37332682637641373 0.8548387667220575
2286260 0.37386110124491045 0.854911061674111
2286731 0.37433212281350614 0.8548827539412124
2287201 0.3744715592955987 0.8545852128163787
2287672 0.3748382308966288 0.8543522465882929
2288142 0.37524386572440416 0.8541885226609399
2288612 0.3755584980258526 0.8538868060680731
2289083 0.375877930236263 0.8538680814480012
2289553 0.3760171779345935 0.8539904227893444
2290024 0.37630604642094134 0.8538705300099848
2290494 0.3766716707472136 0.8535245853091011
2290965 0.3770672052409552 0.8533844176156115
2291435 0.37748041081423633 0.8531235472186155
2291905 0.3777745973285216 0.8531561072534494
2292376 0.3780784450409291 0.8532139407212724
2292846 0.37835702040246844 0.8530666837101055
2293317 0.37881351423537163 0.8528664274189021
2293787 0.3791416694230861 0.8526342943192105
2294258 0.37957448475516586 0.8523174421682754
2294728 0.37980177208960714 0.8523319646955599
2295198 0.38003260180763504 0.8521100970666026
2295669 0.38038221624222845 0.8517708864402884
2296139 0.38067746445762213 0.8517488612982771
2296610 0.3810063445786604 0.8513802022077802
2297080 0.3815308002154751 0.8512806681958952
2297551 0.38190290031563 0.851355135140002
2298021 0.3821230380197777 0.8511140869958937
2298491 0.3825854436801552 0.851094933724141
2298962 0.3829269190361283 0.8509326370714644
2299432 0.3832203658185328 0.8506432675671982
2299903 0.3836381032526975 0.8503332304848169
2300373 0.3838609178976076 0.8503395370080962
2300844 0.38413760772003314 0.8501867158136959
2301314 0.3846122990116337 0.8500588221954968
2301784 0.38490242721135287 0.8501968657736688
2302255 0.38528701584748865 0.8497270860977826
2302725 0.38579341377236565 0.8496211247376516
2303196 0.38598163215082093 0.8495887047156605
2303666 0.38621279957529897 0.8491901623327321
2304137 0.38674791664677316 0.8492366069646748
2304607 0.3869964491157759 0.8489743246477287
2305077 0.38731306354252576 0.8487816862506099
2305548 0.3875563387731317 0.8486551441372666
2306018 0.3877848183168832 0.8485003693013495
2306489 0.3881575951506531 0.8483904948581317
2306959 0.3887426099078583 0.848272254315167
2307430 0.389054884771351 0.8481974045685805
2307900 0.38942237073168257 0.8479862344156913
2308370 0.38981919577805363 0.8478802954033884
2308841 0.39002118610785996 0.8476096365746183
2309311 0.39024760957454047 0.8473091262097249
2309782 0.3905773007638447 0.8473591140269426
2310252 0.3906637364035812 0.8473704092733805
2310723 0.3909816259068913 0.84716396850413
2311193 0.3914739412239561 0.8470729614330237
2311663 0.39181045378589385 0.8469032628177878
2312134 0.3921120111831461 0.8467848931493466
2312604 0.3924560594628682 0.8465402495175983
2313075 0.39262478821563995 0.8461062430485026
2313545 0.39316468626898066 0.845781253751855
2314016 0.39359357963060526 0.8457961078042711
2314486 0.39388391452802307 0.845590807781862
2314956 0.39436989852350823 0.8454460883499113
2315427 0.3945952862380704 0.8453950945766338
2315897 0.39473485193795815 0.845215671892016
2316368 0.39519986431604665 0.8450118587368889
2316838 0.3956262638531406 0.8449857039294455
2317309 0.3959313954140254 0.8449193031545593
2317779 0.39636176813357965 0.8447304553227
2318249 0.3967028512760598 0.8446261260385715
2318720 0.3969974988356704 0.8444400496851936
2319190 0.3973939191514393 0.8444397871139246
2319661 0.3974303380235159 0.8440912480420218
2320131 0.39774563124961154 0.8439660818912365
2320602 0.3982336306923605 0.843990109075087
2321072 0.3985294513989536 0.8437674870519942
2321543 0.3990606141420001 0.8434955636920946
2321543 0.3988731386102478 0.8428897244981967
2322023 0.39957618527493144 0.8431909351035763
2322503 0.3996072910286931 0.843217563105369
2322983 0.4000457718224872 0.8431167513933507
2323463 0.4002866743668754 0.8430031917022639
2323943 0.4005526797223585 0.8428927820492275
2324423 0.4008100576766125 0.8426210692407023
2324904 0.4011556506308637 0.8425953039766652
2325384 0.4014650455109471 0.8424356249937791
2325864 0.4019200221230961 0.8420502616746774
2326344 0.4022948529011246 0.8419369320871687
2326824 0.40252275170508023 0.8416813978520739
2327304 0.40298915676789854 0.8416578444196192
2327785 0.40326626230110213 0.8415909054150681
2328265 0.4036337265081882 0.8412471264623795
2328745 0.4039760464806411 0.8413176307455704
2329225 0.404223628641978 0.8411972359702542
2329705 0.40476562680959505 0.8408173053083192
2330185 0.40510998404066706 0.8407819132315271
2330666 0.405399203300218 0.8405179284913615
2331146 0.40574126733369603 0.8403022361864182
2331626 0.40594907731880914 0.8402635761826772
2332106 0.40627993115019095 0.8401305150057928
2332586 0.4066892883371594 0.8398490685248192
2333066 0.40706161842152555 0.8397902917258034
2333547 0.40735119923152074 0.839624704963976
2334027 0.4076223867853939 0.8391619637548223
2334507 0.40801019455370957 0.8391092309369006
2334987 0.4082338416464371 0.8387356505294545
2335467 0.4086690058744345 0.8387721071248336
2335947 0.4089977084126404 0.8387458963821505
2336427 0.40923132893306435 0.8385503769631372
2336908 0.4095783968198033 0.8384406136759661
2337388 0.4098790544230151 0.8383914251954416
2337868 0.41034638466681644 0.8380455695536048
2338348 0.4108093603297352 0.8380727977043259
2338828 0.4110959088219111 0.8380300864099676
2339308 0.4115115446399087 0.8375814204456814
2339789 0.41166617138280415 0.8375709487499339
2340269 0.4120294924035849 0.837295506002146
2340749 0.41253811970005355 0.8372730814421386
2341229 0.41274424838104057 0.8372764451355169
2341709 0.4128731518274564 0.836958164364909
2342189 0.41329019176221476 0.8366105361381663
2342670 0.41374118849884534 0.836488352850721
2343150 0.41406836327747887 0.8361258966489098
2343630 0.4145198775390076 0.8361753701538002
2344110 0.4146783310806788 0.835833782136932
2344590 0.41498057279770467 0.8357696825233137
2345070 0.415452213054322 0.8357574533059404
2345551 0.4158795947325683 0.8357688382605346
2346031 0.41608836179755665 0.8353242983847481
2346511 0.41662514775039927 0.8352167960392145
2346991 0.41669091217836535 0.8350603252690942
2347471 0.41712438642941485 0.8347957820072935
2347951 0.41766016251445165 0.8347362004846677
2348431 0.4179243960006632 0.8346193556253618
2348912 0.4182996113481669 0.8340818717079282
2349392 0.41867368106820957 0.8339502659386115
2349872 0.4189021012778276 0.833902206717124
2350352 0.4191790443205708 0.8337703899000274
2350832 0.4194884494835922 0.8336966764663328
2351312 0.4197917455261162 0.8336344897102221
2351793 0.4201789114847663 0.8332926443195617
2352273 0.42044479284675845 0.8331838434877604
2352753 0.4205721158503201 0.8326519396398201
2353233 0.4211121310707967 0.8326609912026223
2353713 0.4215329705191971 0.8327030888193687
2354193 0.42200625417297355 0.832454949319526
2354674 0.422389646357885 0.8322874806102758
2355154 0.42251321053022256 0.8320103983061857
2355634 0.42285585529137476 0.8316203190059771
2356114 0.42313623143994855 0.8318394746547908
2356594 0.4233585175095903 0.8316735596982441
2357074 0.42369122480150645 0.8315657257390873
2357555 0.4241606755729127 0.8313791116022975
2358035 0.42443272313801234 0.8312520029593881
2358515 0.4249182323886495 0.831010936191893
2358995 0.4251160506297279 0.8307943612147659
2359475 0.4254424515038321 0.8307873946549054
2359955 0.4257123495362485 0.8305853611083102
2360435 0.4261323241682553 0.8304988354607719
2360916 0.42646059520024093 0.8303042184448978
2361396 0.42703733877591604 0.8299528610660044
2361876 0.4272192828609325 0.8298865361716319
2362356 0.4275621034819582 0.8296311908469787
2362836 0.4279475515294105 0.8296892117870347
2363316 0.42826138433243244 0.8295348957996355
2363797 0.42853932036285153 0.829298982725365
2364277 0.4289585437038965 0.8289990404233676
2364757 0.42927587344947504 0.8287962351399486
2365237 0.42958395191254134 0.828531484024674
2365717 0.430008053993019 0.828661708664281
2366197 0.43033277335738657 0.8284730640274462
2366678 0.43072705770621644 0.8280636584925988
2367158 0.43106432442937537 0.8279264179686587
2367638 0.43139176741591223 0.8277110809175933
2368118 0.4316485011638965 0.8275218428665535
2368598 0.4320166865975561 0.8275731779208623
2369078 0.43222056288555 0.8272739511821934
2369559 0.43255726327109895 0.8272226401409785
2369559 0.4323865481710659 0.8275552645276256
2370049 0.43278839232204186 0.8271271415128684
2370539 0.4332034840683912 0.8267931754373843
2371029 0.4336611978997455 0.8266218634897212
2371519 0.4340327670145977 0.8265687391029719
2372009 0.4342167211212171 0.8260932851328713
2372499 0.4345415669579065 0.8261192184551532
2372989 0.4348427906332538 0.8257894680731456
2373479 0.4352836120480142 0.8256230196686045
2373969 0.43571783751473875 0.8256453621245606
2374459 0.43602723823618184 0.8254869559785896
2374949 0.4364392084256073 0.8252547272016344
2375440 0.4366394558214741 0.8250745856883822
2375930 0.43694669404896963 0.8246984617845251
2376420 0.43740767964603977 0.8245994731553713
2376910 0.43763293089777106 0.8244097141374868
2377400 0.43782698594287556 0.8242644059390937
2377890 0.43832734385188166 0.8240586906666163
2378380 0.4386592465409774 0.8239633989136825
2378870 0.43906057345963156 0.823364694423094
2379360 0.43941445941760565 0.823491015604562
2379850 0.4395608128779885 0.8231749210795678
2380340 0.4399852082038753 0.8228134464504068
2380831 0.440223913538621 0.8228520541988656
2381321 0.4406490805541114 0.8227202095031436
2381811 0.44118189744390746 0.8227301607474692
2382301 0.44164319070637725 0.8226957822146825
2382791 0.441736907395282 0.8224384097951176
2383281 0.4420233139168561 0.8222467533391388
2383771 0.44226106920580327 0.8219338615040219
2384261 0.442428798927058 0.821739023543767
2384751 0.4429386569505624 0.8216035248327908
2385241 0.4432521889269069 0.821517723851301
2385731 0.4436686237886357 0.8211439608858297
2386222 0.4441599961140663 0.821051776210052
2386712 0.4442962517725694 0.8207162433376439
2387202 0.4447160163906349 0.8205351342515125
2387692 0.44487060082051333 0.8204195399275007
2388182 0.44529511835298524 0.8203562397141446
2388672 0.4457330714751026 0.8202066984037634
2389162 0.44631967781161924 0.8202385491370997
2389652 0.4464201349572407 0.8197061383686799
2390142 0.4467749975788306 0.8194149027831623
2390632 0.44685327522016 0.8192820843369018
2391122 0.44732610066208783 0.819095165248603
2391613 0.4475530110429004 0.8189290790677726
2392103 0.44792353461267137 0.8187101320202289
2392593 0.44846984329202216 0.8186545686994737
2393083 0.4489205718462279 0.8186046258753711
2393573 0.4491253093228188 0.8182133643655677
2394063 0.4494138433115838 0.8179957573879388
2394553 0.44979541659037775 0.8180108853963979
2395043 0.4500604267896372 0.8177106787066322
2395533 0.45054762716336894 0.8174972525853952
2396023 0.4508685005118265 0.8174793460620228
2396513 0.45122801890445874 0.8170121466374989
2397004 0.4515088203663274 0.8169708981233813
2397494 0.4519035500104925 0.8169050748435034
2397984 0.452474836317376 0.8168936362447592
2398474 0.4527145566453861 0.8164725090080267
2398964 0.4530044891555775 0.8163218316818162
2399454 0.45318352503683534 0.8157899534912403
2399944 0.4534447477763064 0.8157307050928042
2400434 0.45373534517296554 0.8156410231083653
2400924 0.4541682366421424 0.8154515437871281
2401414 0.45446569965253997 0.8155312440413955
2401904 0.4548223040462624 0.8153372979460843
2402395 0.45518046293602993 0.8153084423640173
2402885 0.4556001089952914 0.8149284922095915
2403375 0.45585027086783697 0.8147129301419351
2403865 0.45633908978009996 0.8146896809027684
2404355 0.45653897176684527 0.814591801274265
2404845 0.4570718704752022 0.8143185733137086
2405335 0.45737906007273 0.8140920248318329
2405825 0.4574184080522527 0.8137166594748609
2406315 0.4579827727511271 0.8135510152626779
2406805 0.4581525961105526 0.8132102520007787
2407295 0.45853776111728617 0.8130979853371216
2407786 0.45883695835138755 0.8127093565067635
2408276 0.4590663126845149 0.812451063970317
2408766 0.45943735224753673 0.8124421612181835
2409256 0.4598113330345359 0.812407392720409
2409746 0.4600443799268901 0.8124008114798945
2410236 0.4603864028085781 0.8119816802918579
2410726 0.46083379540841685 0.8119351250765885
2411216 0.4611984861049303 0.8115328235750942
2411706 0.46158551075657694 0.8112600302553339
2412196 0.4617295890893127 0.811200265820179
2412686 0.46235435788861695 0.8111672771819047
2413177 0.46261822514009143 0.8108839886844387
2413667 0.46286125978468523 0.8107920333195827
2414157 0.4631457729643866 0.8106385335322467
2414647 0.4636098059467825 0.8105609433788391
2415137 0.46380954761647064 0.8105299780084865
2415627 0.4640841070183309 0.8101802937789906
2416117 0.4649983191003796 0.8097540073471349
2416607 0.465852973036396 0.8093854252772807
2417097 0.46635588780306153 0.8087764622506162
2417587 0.46604197069271186 0.8088636724099718
2418077 0.4657412618221643 0.8091392282893112
2418568 0.4656693325117117 0.8090384059748444
2418568 0.46542775630466127 0.8096398283755668
2419068 0.46606361855071854 0.8087793442223955
2419568 0.4669332000388746 0.8084159240872982
2420068 0.46754387884857995 0.8081052864768364
2420568 0.46776331854360936 0.8080409743513981
2421069 0.46793301484376704 0.8079941946918521
2421569 0.4682267465041363 0.8078808865297342
2422069 0.4684279469686754 0.8076692563206925
2422569 0.46893151336914307 0.8074459499015973
2423069 0.46930482426969483 0.8072377352398862
2423570 0.4695458388174005 0.8068847918707599
2424070 0.4699357170641675 0.8067710052864134
2424570 0.4703235823417299 0.8064912317198487
2425070 0.47055003813636714 0.8062659063034574
2425571 0.4710593034651093 0.8060741950081224
2426071 0.47130477212867566 0.8059670245720782
2426571 0.4716579311245649 0.8055939290393395
2427071 0.47197687693644735 0.8055809459730549
2427571 0.472163075288236 0.8052370931992754
2428072 0.47259262733272567 0.805091760065888
2428572 0.47309921494193957 0.8050779379058707
2429072 0.47329574066122204 0.8047919189580076
2429572 0.473588255942912 0.8046434044392349
2430073 0.4737134378396004 0.8043817090287283
2430573 0.4742237648919531 0.8042513961239749
2431073 0.4747493407354992 0.8040777766989298
2431573 0.47532153665990995 0.8041327216432574
2432073 0.4754456702465201 0.8037851733477068
2432574 0.4757827111192027 0.8034900504765908
2433074 0.4759728452261196 0.8031654765446339
2433574 0.4765410065887215 0.8029730171423856
2434074 0.4767956742197343 0.8028926937244137
2434575 0.47716913375835246 0.8026259419429587
2435075 0.47744449847932197 0.8025492387200988
2435575 0.47766042824225474 0.80235793313735
2436075 0.4779236307542939 0.8019987783572641
2436575 0.4783436350965496 0.8019010316750378
2437076 0.4786512090351326 0.801784074289642
2437576 0.4790445440020619 0.8016208476926489
2438076 0.47945033797250697 0.8013166703927874
2438576 0.47970378979212275 0.8011229090115991
2439077 0.48006749866870735 0.8005904136378524
2439577 0.4802956482325101 0.8005358254730405
2440077 0.4805827541345676 0.8002559744964746
2440577 0.4808906340974455 0.799988967950328
2441077 0.48117839349369634 0.8000440438051485
2441578 0.48156405323251034 0.7996370026183501
2442078 0.4821228028323763 0.7997945433223267
2442578 0.4823790489148017 0.7994962569216487
2443078 0.4827993166445593 0.7993117462561616
2443579 0.4830998742093751 0.7993197477719091
2444079 0.48329550553794315 0.7989209145118554
2444579 0.48381893929807046 0.798846751934588
2445079 0.48397130062817767 0.7985430643040811
2445579 0.484353563587645 0.7983144186898883
2446080 0.48460234072045466 0.7981072643948237
2446580 0.4850718232064656 0.7978806673111009
2447080 0.48546010185944655 0.7977372228797622
2447580 0.48598673834047174 0.7974577012768703
2448080 0.48621715131047805 0.7973416879361661
2448581 0.48647021607815166 0.7970988854335201
2449081 0.486727439800451 0.7968943125133652
2449581 0.4871650694046895 0.7965636643078192
2450081 0.48765380240055 0.7965300874728254
2450582 0.48781457147694124 0.7964251069753254
2451082 0.4881097712678187 0.7960562145230937
2451582 0.48843763779964655 0.795819595301525
2452082 0.48873319084983446 0.795633896416741
2452582 0.48927154346945284 0.795362680731967
2453083 0.4897059275352061 0.7953523083779971
2453583 0.4898396122839298 0.7951339567825031
2454083 0.49028289004478537 0.7948264359270408
2454583 0.49045049072986624 0.7943626075127425
2455084 0.4907717076062175 0.7940628360554715
2455584 0.4911792140454042 0.7939877205980713
2456084 0.4913384238233315 0.7940438300624572
2456584 0.49168623094169994 0.793920002473118
2457084 0.4920672300674551 0.7937475504627249
2457585 0.49239357781783044 0.7935504673277628
2458085 0.49286865800901875 0.7932210484821882
2458585 0.493115708497049 0.7930941176411666
2459085 0.4931571250183641 0.7929556773254223
2459586 0.4935661353560519 0.7927195888736537
2460086 0.49400792315455216 0.7925368675114612
2460586 0.4944738078131868 0.791986575927528
2461086 0.49481101555552504 0.7919900950013385
2461586 0.49516024044075746 0.7919805663709051
2462087 0.495387236710225 0.7917443265785331
2462587 0.49582346787532977 0.7916339017093961
2463087 0.49616075956972505 0.7913316729497003
2463587 0.49657446115736326 0.7910023297375295
2464088 0.4967330520751339 0.7909213978409879
2464588 0.49699990861765037 0.7906919230669147
2465088 0.49740617265281767 0.7904449167873248
2465588 0.4977594093853582 0.7904414594790823
2466088 0.49793742216717335 0.7899239596300923
2466589 0.49845169672271195 0.7897014222783184
2467089 0.49860384405780656 0.7895831879255413
2467589 0.49900046466861836 0.7893400859301412
2468089 0.49940794646952924 0.7893806451535503
2468590 0.4996511431533588 0.7889826974583661
2468590 0.49939711070088494 0.7888205771893293
2469100 0.5000682074865721 0.7886794066321465
2469611 0.5004230633162714 0.7886492414779184
2470121 0.5006716121012231 0.7882533234945924
2470632 0.5009803388112851 0.7880842768981533
2471142 0.5014698139251417 0.7880425202278639
2471653 0.5017626336194173 0.7875731862375295
2472163 0.5021213117185369 0.7873219760962099
2472674 0.5024500202538815 0.7872774805461061
2473185 0.5028718270676755 0.7870022386451477
2473695 0.5031928789140312 0.786732227551956
2474206 0.5035213653268986 0.7865051500833935
2474716 0.5039642575825061 0.7863731696295505
2475227 0.5040937466779042 0.7862310792754036
2475737 0.5045819475554483 0.7860157731583703
2476248 0.5049441527179653 0.7856387511266405
2476759 0.5051328491064588 0.7851391523024654
2477269 0.5054373607105132 0.784920037946715
2477780 0.5057306742802843 0.7851925008935635
2478290 0.5061160252954356 0.7850021909537697
2478801 0.5065499369887465 0.7848207828939445
2479311 0.5068376326797698 0.7845987122558936
2479822 0.5071430259801244 0.7841539670212493
2480333 0.5075473284064085 0.7841347140950057
2480843 0.5075735576429167 0.7837591430638515
2481354 0.507881141559373 0.7833439526389535
2481864 0.5081824771164348 0.7832457655183866
2482375 0.5086557546654321 0.7831884130528637
2482885 0.5091163972631932 0.7831612628326209
2483396 0.5094907883764043 0.7830251551166184
2483907 0.5098647724486829 0.7827259064898217
2484417 0.510353573852459 0.782609478232392
2484928 0.5106073489036147 0.7821520120431167
2485438 0.5108975545477135 0.7820599688016933
2485949 0.5111582466433049 0.7817913801865837
2486459 0.5114531079971626 0.7814957050464372
2486970 0.5118845428581265 0.7812209095809229
2487481 0.5121385735914422 0.7810110659797803
2487991 0.5125127622799508 0.7806205698152198
2488502 0.5131342320091259 0.7805896671748656
2489012 0.5131770436703061 0.780618894230824
2489523 0.5135437233915173 0.7803521115958874
2490033 0.5138527469218807 0.7803470966712885
2490544 0.5141940019589993 0.7798642133692644
2491055 0.5146397441541157 0.7795742328593305
2491565 0.5149724881282863 0.7793872485270464
2492076 0.5153660806622096 0.779194186497921
2492586 0.5155663476594068 0.7789427103914599
2493097 0.5158909833273968 0.7787069668790152
2493607 0.5163305922994663 0.7783019049147138
2494118 0.5167405781609101 0.778219471207721
2494629 0.5169380162318923 0.7779209441209213
2495139 0.5173711526939769 0.7778896171781045
2495650 0.5175799582016265 0.7777424581775825
2496160 0.5178515548837626 0.7773729586301787
2496671 0.5182596422574969 0.7773250154241982
2497181 0.5186238258790004 0.7771085861923199
2497692 0.5190603678845841 0.776836857709965
2498203 0.5192648175065379 0.776708474933353
2498713 0.5194070640678321 0.7762688058368655
2499224 0.5199142258950163 0.7760206172216091
2499734 0.5201702895868577 0.7758729496915976
2500245 0.5205876743656868 0.7757138093848015
2500755 0.5209258745098502 0.7754865122982594
2501266 0.5212828869961393 0.7750763497553934
2501777 0.5217452981096725 0.775011744485628
2502287 0.5219760926913485 0.7748881880337525
2502798 0.5220175771597612 0.7745714008053005
2503308 0.5225857779236319 0.7745014107743095
2503819 0.5228065473778201 0.7743722741300598
2504329 0.5232284900930142 0.7740447719473904
2504840 0.5235633884205394 0.7736744594293751
2505351 0.5238164051213305 0.7734304417985267
2505861 0.5240916730625097 0.7730786619284907
2506372 0.5244910312500377 0.7729235425054835
2506882 0.524769455355883 0.7726173356536703
2507393 0.5250476367992177 0.7723864871562054
2507903 0.5255137953147406 0.7723559482895175
2508414 0.5257272324796516 0.772151012663295
2508925 0.5260394045122198 0.7718185127571177
2509435 0.5262858135180747 0.7715420287155885
2509946 0.5268037486818777 0.7714642085576107
2510456 0.5272873604231477 0.7715742167755764
2510967 0.527373781560769 0.7709719445536565
2511477 0.527801482595171 0.7708989400673757
2511988 0.5280440959959735 0.7706268645070096
2512499 0.5284461202947976 0.7704004380681848
2513009 0.5288935038685479 0.7702481084011655
2513520 0.5291618720060375 0.7699256557721587
2514030 0.5293732025161693 0.7696969562319848
2514541 0.5296497683507704 0.7695073316691757
2515051 0.5300221228886117 0.7689381830902389
2515562 0.5306006918307224 0.7690511612480957
2516073 0.5308338999416946 0.7689104227713361
2516583 0.5311651646681875 0.7685260354342397
2517094 0.5315662503192043 0.7684074702103943
2517604 0.5318295219063838 0.7682352350299033
2518115 0.5321958970950627 0.7679048395372959
2518625 0.5323905624968002 0.7677251174587626
2519136 0.5326695655431473 0.7672794879720196
2519647 0.5332023199926783 0.767233465756394
2519647 0.5324313225519193 0.7677435087113681
2520168 0.533249145387001 0.7669882764108888
2520689 0.5340599645865312 0.7668123469642469
2521210 0.5341832918555147 0.7666436409356603
2521731 0.5346554355711478 0.766531013441282
2522252 0.5350348659692755 0.7664182519235494
2522773 0.5353252702792254 0.766172239630764
2523294 0.5355204333019365 0.7657771970857904
2523816 0.535865244745565 0.7654904298543963
2524337 0.5362119186504819 0.7653354709411706
2524858 0.5367526683711956 0.7651197424379513
2525379 0.5368405857894339 0.7650489194049387
2525900 0.5370349673032042 0.7648681445562554
2526421 0.5373803638891284 0.7647203320460463
2526942 0.5376574214328057 0.7644696610607574
2527463 0.5382027620524596 0.7641379418812111
2527985 0.5386340730615002 0.7637202571939691
2528506 0.5388467152656321 0.7635232411737878
2529027 0.5393338981223469 0.7631722806928578
2529548 0.539501852757994 0.7631147254931538
2530069 0.5398632895443154 0.7626609925582352
2530590 0.5401129802163472 0.7624377228059522
2531111 0.5404614709025214 0.7622036287898499
2531632 0.5407762713220287 0.7619299738817482
2532154 0.5413574553437188 0.7618032132935321
2532675 0.5417279606172836 0.7617538455547925
2533196 0.5420789691132837 0.7614545527375703
2533717 0.5421579297988229 0.7612965463625067
2534238 0.5426897705333484 0.7609981648114329
2534759 0.5430445606497429 0.7607899915452766
2535280 0.5432532952094307 0.7603432705422681
2535802 0.5435481745970226 0.7599903858462027
2536323 0.5437283413044237 0.7600419537608035
2536844 0.5441750983199971 0.7596815154438025
2537365 0.5444747890496645 0.7596402219158485
2537886 0.5449894166008639 0.7593412105812826
2538407 0.5451549134509971 0.7589936768862776
2538928 0.5456168190776718 0.758936240026212
2539449 0.5460292325764523 0.7587089871499072
2539971 0.546356053712775 0.7584088832871106
2540492 0.5466914346720088 0.7581757315745222
2541013 0.546999432534603 0.7579018978453349
2541534 0.547271346307554 0.7576668431552565
2542055 0.5475190818981794 0.7573713812531944
2542576 0.5478996603483239 0.7571032114571337
2543097 0.5483121800262774 0.7571674282377299
2543618 0.5484275322380111 0.7566740106096882
2544140 0.5489326098634754 0.7563884163120826
2544661 0.5491434245394174 0.7562795390129632
2545182 0.54952706913424 0.7560926118864844
2545703 0.5499249500221984 0.7558412011108003
2546224 0.550166788674787 0.7556121346662372
2546745 0.5506399901900744 0.7551198865611183
2547266 0.5507451071155621 0.7549707499472571
2547788 0.5511566136957352 0.7546101438177274
2548309 0.5514969141836424 0.7546913859287536
2548830 0.5517885427454691 0.7544254353567017
2549351 0.5519754907089847 0.7541424328740949
2549872 0.5524804751164235 0.754016739578656
2550393 0.5527594230451978 0.7536657370144867
2550914 0.5531189503601399 0.7533734673352421
2551435 0.5533732875489632 0.7531032219899091
2551957 0.5538466019976138 0.7527670218079364
2552478 0.5542392657702869 0.752707021026544
2552999 0.5546660915872068 0.7523692985678697
2553520 0.5549423837496327 0.752205326039637
2554041 0.5552466532686695 0.7520855229838445
2554562 0.5554732466804492 0.7518269946924943
2555083 0.5558592230346334 0.7515772049874636
2555604 0.555997574323037 0.7513060485308154
2556126 0.5565287345832077 0.7511166583665014
2556647 0.5568845021727752 0.75080253132471
2557168 0.5570637329228401 0.750626231390557
2557689 0.5575740438384331 0.7503199090276736
2558210 0.5577193009214859 0.7501106001595742
2558731 0.5583116864324679 0.7499981011744301
2559252 0.5585385505564754 0.7496134102591449
2559774 0.5588648360468436 0.7494772000960661
2560295 0.559110810370009 0.7490524316071364
2560816 0.5593535586407841 0.7487869960707022
2561337 0.5597488764727083 0.7485898125506546
2561858 0.5600634643094129 0.7484458823719321
2562379 0.5604735500907895 0.74827749035642
2562900 0.5607754285119091 0.7479358585009579
2563421 0.5608955121870508 0.7479284179235939
2563943 0.561114826116061 0.7477588713802695
2564464 0.5612844524593178 0.7475396179683421
2564985 0.5618364136403936 0.7472582443793055
2565506 0.562389733571389 0.746932164229607
2566027 0.5629374474617553 0.7465330258425045
2566548 0.5629052846921311 0.7462262987911759
2567069 0.5632009500139754 0.7460674192173306
2567590 0.5634159802787551 0.7456898194220373
2568112 0.5639794307519675 0.7454797551034191
2568633 0.5645082511096952 0.7452653575994577
2569154 0.5647311046495083 0.7452666159311234
2569675 0.5650793073371687 0.7447378630911735
2570196 0.565382617883964 0.7445401113880363
2570717 0.565600630098065 0.7443459603339789
2571238 0.5660224762223981 0.7440372018469196
2571760 0.5663387870775245 0.7437785384972171
2571760 0.5659591793281926 0.7437832137706073
2572291 0.5666050520418353 0.743408703836467
2572823 0.5670471133474893 0.7435390640963754
2573355 0.5673424141605604 0.7432673340356104
2573887 0.5676416031933187 0.7428577679827449
2574419 0.5679888374255739 0.7427410437389013
2574951 0.5682908135518163 0.7423659333875114
2575483 0.5687047143194646 0.7422147271985657
2576015 0.569014277212313 0.7419725972391816
2576547 0.569146573660007 0.7414496439071299
2577079 0.5697404326202926 0.7415070038779105
2577611 0.5699113515608066 0.7410698039527011
2578142 0.5702133394110336 0.7407064714680439
2578674 0.570582320107703 0.7404158340141015
2579206 0.571077014609493 0.7400779508804918
2579738 0.5712680187734297 0.739891709860231
2580270 0.5716445238034549 0.7398165963304586
2580802 0.5720704742528321 0.7395686957500982
2581334 0.5724281523739678 0.7393860265918397
2581866 0.5726501520563573 0.7389813565825829
2582398 0.5730223602092094 0.738779334690194
2582930 0.5734109986398904 0.7384619328261388
2583462 0.5736293192461273 0.7381440846469473
2583993 0.5738942735299096 0.7379251119156669
2584525 0.5742258634307351 0.737633943055556
2585057 0.5747377581960391 0.7374492244702399
2585589 0.5749862831418294 0.737408486942758
2586121 0.5753698135617445 0.7369616273380611
2586653 0.5756774498583314 0.7369521312617164
2587185 0.5758780304899439 0.7365823418701332
2587717 0.5761474828416583 0.7362481150294012
2588249 0.5765381965870336 0.7360700967504293
2588781 0.5769355866725502 0.7357454957092097
2589313 0.5772787254792154 0.7356987288980064
2589844 0.5774511292089181 0.7351529750100485
2590376 0.5777986861716149 0.7350304738012797
2590908 0.5780825575245585 0.7347189409001154
2591440 0.5785661266287935 0.7344991882378664
2591972 0.5788652438819776 0.7344376185826504
2592504 0.5791653644883832 0.7340934443872522
2593036 0.579554751074954 0.7338539164719705
2593568 0.5799190657943687 0.7336550458312293
2594100 0.5801628383674884 0.7332926253254792
2594632 0.5805419062322427 0.7332751575717988
2595164 0.580767319070819 0.7328075254528577
2595695 0.5810968808649929 0.7324817521244253
2596227 0.5813117472263611 0.732299495587135
2596759 0.5815550212230473 0.7319571612052208
2597291 0.5822223861268905 0.7318388435403459
2597823 0.5824216581078657 0.731530372801401
2598355 0.5828886590149859 0.7312379365691694
2598887 0.5832340962198979 0.7309872498353397
2599419 0.583596567754309 0.7306967578042289
2599951 0.5840934208531384 0.7304771779781482
2600483 0.5841218622275757 0.7301901592630208
2601015 0.5844745164734572 0.7298351723540978
2601546 0.5848366963660132 0.7296783725348015
2602078 0.58509245481582 0.7294097996802407
2602610 0.5856006649112034 0.7293077249374128
2603142 0.5858230025663729 0.7290755167973381
2603674 0.5860340014233967 0.7285515796261207
2604206 0.586530572600573 0.7285105895256051
2604738 0.58684716163027 0.7281671204249951
2605270 0.5871834485736321 0.7280702204016298
2605802 0.5874805211210304 0.7279092125567819
2606334 0.5877378718528479 0.727404083926566
2606866 0.5881851493842591 0.7271182687235697
2607397 0.5881869052773948 0.7268825252045025
2607929 0.5885539654219002 0.7266964839511492
2608461 0.5889027252871455 0.7263876574251479
2608993 0.5892710181494679 0.7260714453849111
2609525 0.5897415849146231 0.7258990871213412
2610057 0.5900048447695467 0.7257173251963411
2610589 0.5902108909340006 0.7252391186961142
2611121 0.5905104119443974 0.7250871092077691
2611653 0.5909472266403657 0.7248760525929177
2612185 0.5914200764786837 0.7245911655054008
2612717 0.5918472068981665 0.7244429015696835
2613248 0.5920686379213406 0.7241358621347816
2613780 0.5923936576822534 0.723911119836252
2614312 0.5926059547694814 0.7235793024982676
2614844 0.5931005644919995 0.7233548266021045
2615376 0.5932529376761083 0.7231020656769307
2615908 0.5935364792565601 0.7227862855568032
2616440 0.5938712816481735 0.722515468430426
2616972 0.5941328740817494 0.7223747005592461
2617504 0.5946049501878768 0.7222034202873107
2618036 0.5948772144381445 0.7219189352535955
2618568 0.595024381106284 0.7215394723413299
2619099 0.5956033148287886 0.7215448898026539
2619631 0.5956311275827565 0.7211189189716565
2620163 0.5960837989395886 0.7207831942840741
2620695 0.5963977805920394 0.7205329941776821
2621227 0.5967148970045756 0.7201530737065616
2621759 0.5973745949295426 0.7199341869030218
2622291 0.5976632105945495 0.7198146420652969
2622823 0.5979146209998194 0.719346634854341
2623355 0.5982120512884243 0.7191212602062228
2623887 0.5983238039287762 0.7188398218225793
2624419 0.5988732813349544 0.7186943443575081
2624951 0.5989706361065822 0.7184403035884367
2624951 0.5994304178109806 0.7185551142904408
2625493 0.5992253720757073 0.7182141036646073
2626036 0.5994888642528149 0.7177232058108508
2626579 0.5998210250352591 0.7173955734681718
2627122 0.6003712449313822 0.7172911716301532
2627665 0.6006420591072891 0.7169949329533809
2628208 0.6008140517017321 0.716745596819775
2628751 0.6013709667704541 0.7166690977191087
2629294 0.6016609869658707 0.7161162001286651
2629837 0.6021155721344914 0.715910467775403
2630380 0.602359946742969 0.7155615157533828
2630923 0.6026337781770698 0.7152709855428341
2631465 0.6029155210937871 0.7149864275370394
2632008 0.6033622858832827 0.7146610496380158
2632551 0.6038523311498399 0.7147072141995219
2633094 0.604104889459331 0.7143383889795014
2633637 0.6042386555242326 0.7138925408718403
2634180 0.6046976259111008 0.7138387751922214
2634723 0.6048764236330458 0.713378554381496
2635266 0.6053277194597144 0.7129049341126045
2635809 0.6056316620847985 0.7128828917811662
2636352 0.6061336625151383 0.7126659124699909
2636895 0.6062071518511152 0.7123124530296628
2637437 0.6065689562228392 0.7121468361992763
2637980 0.6069378604148518 0.7117683853114342
2638523 0.6072144921689561 0.7116959035833402
2639066 0.6074077423876246 0.711388256869309
2639609 0.6079109215421611 0.711102900426652
2640152 0.607926508126467 0.7108401125240205
2640695 0.6085271728552335 0.7104708956220004
2641238 0.6087139422894898 0.7101279393194911
2641781 0.6091907965489606 0.7097724597678009
2642324 0.6095240168044643 0.7096089379519729
2642867 0.6098663404525133 0.7094555855942094
2643409 0.6102466914102657 0.7091397168873778
2643952 0.6105324048438 0.7090188295111598
2644495 0.6105765858079548 0.7086236105149111
2645038 0.6109537128400007 0.7083130461603994
2645581 0.611310689035437 0.7080338668666389
2646124 0.6120166678166328 0.7078549844310876
2646667 0.612043058747985 0.7076448478862313
2647210 0.612325087239082 0.7070575594766847
2647753 0.6126665746990521 0.7070162542789903
2648296 0.6129510421491211 0.7065320683442605
2648839 0.6133178804338257 0.706291643186282
2649381 0.6136336137010329 0.7060996401982086
2649924 0.6139039599371905 0.7057477379905919
2650467 0.6143683274972683 0.7056568186141211
2651010 0.61454724044886 0.7052756351098548
2651553 0.6149905771591853 0.7048808121135994
2652096 0.6152188748472635 0.704716805619832
2652639 0.6154698846165091 0.7041460364739069
2653182 0.615697575162453 0.7040856171400115
2653725 0.6161965508674222 0.7038630339734195
2654268 0.6166488396021303 0.7035617852241268
2654811 0.61692699019884 0.7034279166058618
2655353 0.6171662773659947 0.703138829624699
2655896 0.61746961272447 0.702824290530601
2656439 0.6177126468776502 0.7025675912094655
2656982 0.618146185097557 0.70216831489669
2657525 0.618482781783271 0.7021920085023498
2658068 0.6187213367968022 0.7017937119290922
2658611 0.6191143662121881 0.7014063068219107
2659154 0.6194958944349205 0.7010529310784763
2659697 0.6198230263621388 0.7008203673855327
2660240 0.6203590885578936 0.7006932874910509
2660783 0.6204662454256588 0.7003561021226027
2661325 0.620942249409858 0.70009457897731
2661868 0.6211713339151712 0.699812596101485
2662411 0.6215057493235866 0.6994212809744847
2662954 0.6218248200432082 0.6991842683311214
2663497 0.6219199389307778 0.6989347923826871
2664040 0.6224248861417241 0.6985950256965114
2664583 0.6228355849578812 0.6983114710279729
2665126 0.6232958932570837 0.6979507961528097
2665669 0.6235439104275913 0.6978050490181564
2666212 0.6236989143891286 0.6977528921041757
2666755 0.6240791430099242 0.6975145558889073
2667297 0.6242451785836127 0.6972291315543981
2667840 0.624580395092946 0.6968360843967242
2668383 0.6248724073395286 0.6966665806884423
2668926 0.6251260352668239 0.6963364162888653
2669469 0.6255955624674175 0.6960726714350111
2670012 0.6258544738173168 0.6956771847139713
2670555 0.6262588437846189 0.6952650664193329
2671098 0.6264739856803708 0.6950751503941937
2671641 0.6268669987872737 0.6949295132078426
2672184 0.6272430633382605 0.6946038678151831
2672727 0.627414406927105 0.6943127223537583
2673269 0.6278155449639934 0.6939387463527364
2673812 0.6282475003750948 0.6938631038114604
2674355 0.6283439250481528 0.6933956347917435
2674898 0.6287671144648179 0.6931266042683529
2675441 0.6290593038574307 0.6927054751867596
2675984 0.6292829522761203 0.6923583284449395
2676527 0.6296660469981813 0.6922018804948477
2677070 0.6299132314702339 0.6919033252847508
2677613 0.6304004678299321 0.6917373545369193
2678156 0.6305284014111243 0.6915246660289361
2678699 0.6311578000280544 0.6912084721727094
2679242 0.6314130036221258 0.6909121553613066
2679242 0.6314614934671146 0.6908023865799955
2679796 0.6316658077631992 0.6905914851752418
2680350 0.6318879020185667 0.6901034689048247
2680904 0.6322238104515047 0.6898270192382504
2681458 0.6325106912376215 0.6893524104533545
2682012 0.6329543539762502 0.6892815193168839
2682566 0.6332451902357298 0.6888998591067879
2683120 0.6336794441499531 0.6886109560272613
2683675 0.6340318869546361 0.6884689554282426
2684229 0.6342654773831156 0.6881011444878619
2684783 0.6344879582548552 0.687748328085016
2685337 0.6349202777951746 0.6877544912442212
2685891 0.6351726661972388 0.687353180826661
2686445 0.6353289453246084 0.6869625042427404
2686999 0.6355513295004173 0.6866228492384328
2687554 0.6360277673419071 0.6865241984888674
2688108 0.6363126774926386 0.6863889370660168
2688662 0.6366893353439239 0.6860719466980929
2689216 0.6370385109218792 0.6856884341808137
2689770 0.6374854580742242 0.6853020334598257
2690324 0.6378200877955899 0.6850548414934973
2690878 0.6378617583815998 0.6846541093460559
2691433 0.6382536449893527 0.6844932475265495
2691987 0.6385132532666046 0.6841059504799326
2692541 0.6389602483365187 0.6838149692054585
2693095 0.6390917513630563 0.6835210664750396
2693649 0.6393820150268843 0.6832300283583678
2694203 0.6397072162644895 0.6829292064714375
2694757 0.6400811714132248 0.6826877458346036
2695312 0.6404787448546527 0.6825023384948239
2695866 0.6408196187015679 0.6823028853659845
2696420 0.6410574027061928 0.6818665908242161
2696974 0.6412848221135762 0.6813569104535573
2697528 0.6416894388566263 0.6811615765728528
2698082 0.6421118809447893 0.6807757881675652
2698636 0.6423172025185221 0.6805605408263621
2699191 0.6425454335985307 0.6801789943537644
2699745 0.6429942748885611 0.6800134878340608
2700299 0.6434148720966653 0.6797393186954385
2700853 0.6437839873609112 0.6794239262709119
2701407 0.6441950508284464 0.6793320175762378
2701961 0.644302443135044 0.6788116938710268
2702515 0.6446284025957847 0.678530301200889
2703070 0.6449239390379716 0.678145220706281
2703624 0.6451393125799093 0.6778953236164549
2704178 0.6456030914654006 0.6776775378721294
2704732 0.6460635548745033 0.677390892618783
2705286 0.6462333763295847 0.6769707433212608
2705840 0.6465176658897844 0.6764757056114263
2706394 0.6469699998437973 0.6763833312649085
2706949 0.6471511365812639 0.6761780282107385
2707503 0.6476036947638932 0.6757944709168039
2708057 0.6478084817236401 0.6755140370551297
2708611 0.6482996304902824 0.6751888012575794
2709165 0.6485349383342287 0.6750011729122055
2709719 0.6487855108515731 0.6746898719004858
2710273 0.6490126906029065 0.6742883169401331
2710827 0.6492965916341442 0.6739176543552124
2711382 0.6498837435153564 0.6730778753404653
2711936 0.6502904639704226 0.6727002057068505
2712490 0.6505117937412189 0.6729742922117545
2713044 0.6508310898192742 0.6731780797321
2713598 0.6510654622197208 0.6730662818480241
2714152 0.6514699082770921 0.6723690711165459
2714706 0.6518437916432624 0.6720191441348112
2715261 0.6518332221836272 0.6716548996491575
2715815 0.6521102581850634 0.6714378878857957
2716369 0.652424176343459 0.671514329689267
2716923 0.6527795555713535 0.6708090328343473
2717477 0.6531881549377244 0.6705263092635226
2718031 0.6534111864498201 0.6701123580585053
2718585 0.6536817173312134 0.6699898287030096
2719140 0.6539080893122868 0.669656175053212
2719694 0.6543113757577218 0.6692706877288065
2720248 0.6546888044276391 0.6691434207563904
2720802 0.6550573560726349 0.6687582295526003
2721356 0.6555226930215173 0.6685351101148361
2721910 0.6555004105140327 0.6682856090440245
2722464 0.6558711164828616 0.667876620000204
2723019 0.6563207228915424 0.6677816119689629
2723573 0.6565625343219746 0.6671389415995301
2724127 0.6569190324193546 0.6669559492253473
2724681 0.6571822203412164 0.6664234948033279
2725235 0.6575546541558974 0.6661147206795105
2725789 0.6578404505009089 0.6660455720502857
2726343 0.6583162679410605 0.6657048223838354
2726898 0.6584851124268449 0.6654788995554758
2727452 0.6587864407266847 0.6651152932138423
2728006 0.659117569729711 0.664835417696007
2728560 0.6594932528848957 0.6646946234883592
2729114 0.6595825099994465 0.6642789174584328
2729668 0.6600003574411942 0.6639729885542712
2730222 0.6603012837163983 0.663582467853586
2730777 0.6606685533233811 0.6633793764852484
2731331 0.6609232906962399 0.6631430664109295
2731885 0.66119998982687 0.6626824662506096
2732439 0.6615884709325643 0.6624566998639714
2732993 0.661900727586992 0.6620608553349678
2733547 0.6623164892857611 0.6619246056989952
2734101 0.6625909413365048 0.6616332833610797
2734656 0.6628070086012269 0.6612900720904621
2734656 0.6627964233994896 0.6619028096813507
2735221 0.6628257966647113 0.6611781581986793
2735787 0.6635142034412059 0.6604454666380334
2736352 0.664197819812927 0.6602338445939252
2736918 0.664353493654489 0.6600633816957087
2737484 0.6645753068741987 0.6599483044584791
2738049 0.6647578726913425 0.6596079175634105
2738615 0.6651259842426007 0.6591531628520597
2739180 0.6656427745062418 0.6589824265559017
2739746 0.6659532677966681 0.6585905787754781
2740312 0.6661736425445339 0.6583256763052965
2740877 0.666435698014687 0.658041181862876
2741443 0.6666811999913134 0.6575343662536204
2742008 0.6671618722096345 0.6574205685229302
2742574 0.6672431542928094 0.6569766077127643
2743140 0.6675877385450735 0.6568052634487924
2743705 0.6677886051121514 0.6563350720163197
2744271 0.6680944089783964 0.6559436417522393
2744836 0.6685764549587374 0.6558344521674914
2745402 0.6689636468245971 0.6557377974071756
2745968 0.669346906835016 0.655322265034217
2746533 0.6695001392936218 0.654578678747972
2747099 0.6699314558714912 0.6542666250843575
2747665 0.670210574904969 0.6542601077429856
2748230 0.6704562505377254 0.6538570068009804
2748796 0.6708075136613156 0.6536451487784292
2749361 0.6709126244593926 0.6531049383804192
2749927 0.6713959934693076 0.653000191052202
2750493 0.6717327003577482 0.6526884242131878
2751058 0.6719426831531248 0.6522859749634863
2751624 0.6722065856205389 0.6519903059059471
2752189 0.6725597704338463 0.6515546364849304
2752755 0.6729463740766175 0.6513170224015213
2753321 0.6733178873052601 0.6510856017454243
2753886 0.673471144186105 0.6505262439317887
2754452 0.6737937509496551 0.6502483490768187
2755017 0.6740893928167351 0.649889353641463
2755583 0.6746061580051723 0.6498391503978355
2756149 0.6747595596241784 0.6494920432747427
2756714 0.675204324598157 0.6492764780437172
2757280 0.6754156770042202 0.6489535006491115
2757846 0.6757119836918881 0.6484598382163
2758411 0.6760318021264112 0.6482382094207426
2758977 0.6762595936223298 0.6478474713075042
2759542 0.6767014081181717 0.6476040533372653
2760108 0.6767689499665611 0.6470480888216495
2760674 0.6772817303774579 0.6467477969704734
2761239 0.6775868263618092 0.6467345856691938
2761805 0.6778813643502483 0.6463176015302059
2762370 0.6782121605260762 0.6459289577552121
2762936 0.6783264097115441 0.6453619609614272
2763502 0.6789511431787871 0.6451584621169288
2764067 0.6790268631939885 0.6451533299591627
2764633 0.6793164987493368 0.6448354633371983
2765198 0.6797114591620389 0.644355961773957
2765764 0.6800823446377171 0.6439172028358303
2766330 0.680567528543366 0.6438351515093419
2766895 0.680587562675544 0.6435569978675988
2767461 0.6808515209765139 0.6432218963731753
2768026 0.6812476906234849 0.642897674778349
2768592 0.6814976419232734 0.6424492319742484
2769158 0.681916234096273 0.6422187080036177
2769723 0.6821868920485632 0.6418525722675341
2770289 0.6824809946095292 0.6415169375541038
2770855 0.6828841320880771 0.6413509151702704
2771420 0.6830973622340651 0.6409107450730436
2771986 0.6833133949419966 0.6407383984726234
2772551 0.6834038172704218 0.6403129359459596
2773117 0.6840801328828792 0.6399265582340588
2773683 0.6841551854268684 0.639541101303544
2774248 0.6847904451689413 0.6392897821276038
2774814 0.6847990752309225 0.6387969317191827
2775379 0.6851602522206072 0.6384811166850649
2775945 0.6855060523184162 0.638217242065138
2776511 0.685580224001216 0.637682075350917
2777076 0.6861289554569229 0.6374157567545302
2777642 0.6863456479790734 0.6370781634366633
2778207 0.6866715767766124 0.6369003156757606
2778773 0.6870327798452839 0.6364425204772889
2779339 0.6873281050796851 0.636059066650936
2779904 0.6877735865175533 0.6359668498947472
2780470 0.6879379160752686 0.6357901457676599
2781036 0.6882129848569866 0.6353877048248984
2781601 0.6884223271608355 0.6350078161468461
2782167 0.6887256649460538 0.6345769307937923
2782732 0.6890856254075824 0.6343799378006199
2783298 0.6891771863134754 0.6337854305959278
2783864 0.6895246408777178 0.6337159165590653
2784429 0.6899006847997282 0.6332752980315249
2784995 0.6902528097765582 0.6328844999171307
2785560 0.6906489447889101 0.6327169347394191
2786126 0.6906879529116561 0.6322873905463197
2786692 0.6912538552512811 0.6319977375097333
2787257 0.6916246622685087 0.6318037822977833
2787823 0.6919307330997598 0.631246315848356
2788388 0.6923088401939589 0.6312437576150194
2788954 0.6923503137520672 0.6307700967650869
2789520 0.6927194550238217 0.6305723849307056
2790085 0.6929737040227096 0.6300444949999838
2790651 0.6936045434467984 0.630123446768296
2791217 0.6938712345261021 0.6297847312100526
2791217 0.6939171467703598 0.6299714084222492
2791794 0.6938570588880763 0.6292374482725199
2792371 0.6942330318328721 0.6290473931867536
2792948 0.694688516047293 0.6283947324895567
2793526 0.6948578199703488 0.6283952113667398
2794103 0.6951892399498079 0.6281124329160467
2794680 0.6955342443725195 0.6276117294846731
2795258 0.6957984332141561 0.6273423084178573
2795835 0.6961653531428663 0.6268088426435466
2796412 0.6961898141726923 0.6266518387032508
2796989 0.6966228919728731 0.6262478326731874
2797567 0.6968698637593371 0.6259235352995631
2798144 0.6971759729980913 0.6256048126325541
2798721 0.697792362007929 0.6253499740705695
2799299 0.6981988736391449 0.6251063130281838
2799876 0.6983636623004656 0.6246778258811546
2800453 0.6986136943287725 0.6243525564198145
2801030 0.6987640465396548 0.6238147286000272
2801608 0.6992204008553706 0.6237095290947113
2802185 0.6993545314736377 0.623372923235391
2802762 0.6995642432508622 0.6230873579568182
2803340 0.6998431924932874 0.6227263629086016
2803917 0.7003790143190122 0.6222858057571456
2804494 0.7006326747549363 0.6221330576010707
2805071 0.7009188324474835 0.6215378291622898
2805649 0.7013235277403369 0.6213385387078143
2806226 0.7013516927258056 0.620915348045489
2806803 0.701732533279889 0.6206040775826532
2807381 0.7019355457689752 0.6203074736544523
2807958 0.7024219479792632 0.6199471245161745
2808535 0.7027874678581687 0.6197515850736136
2809112 0.7030252281257444 0.6190428785173573
2809690 0.7034658711694627 0.6187892939385002
2810267 0.7036982412563053 0.6184821315296309
2810844 0.7039965729664628 0.6180347297298127
2811422 0.7044013874737254 0.6180465830838773
2811999 0.7045274079351572 0.6173903895328977
2812576 0.7050669237101316 0.6173358509748911
2813154 0.7053327411703759 0.6168602177644635
2813731 0.7056580065969955 0.6165404401002184
2814308 0.7059156236269362 0.6161816469619539
2814885 0.7062492216760822 0.6159032104318163
2815463 0.7064933731646699 0.6156947713986406
2816040 0.706788426539199 0.6153150573672946
2816617 0.7070678153180728 0.614849098289236
2817195 0.707173723497824 0.6144608836771175
2817772 0.7077800768943775 0.6141931487837832
2818349 0.7080646038059403 0.6141958551442441
2818926 0.7083015163751065 0.6137682043166114
2819504 0.708454218978051 0.613407890992498
2820081 0.7086818074579453 0.6129075470975037
2820658 0.7090916404870684 0.6126472426668574
2821236 0.7094188481801136 0.6122745658951474
2821813 0.7097312470124927 0.61190284430482
2822390 0.7100056516188498 0.6115539869413756
2822967 0.7104659618415969 0.6112066977481605
2823545 0.71064972762754 0.6109334541236483
2824122 0.7109147715574051 0.6106461053199568
2824699 0.7112561218662738 0.6103619438332618
2825277 0.7114549249472333 0.6097524015513685
2825854 0.7118675094538334 0.6092346837866198
2826431 0.7120952866506765 0.6091678327175498
2827008 0.7123366178545358 0.6086727023491959
2827586 0.7126829954018725 0.6085342313985009
2828163 0.7130225312865076 0.6079258955666539
2828740 0.7136100288387278 0.6075306382934037
2829318 0.7134872125917836 0.6072883160659647
2829895 0.7140245734645533 0.6070843448443382
2830472 0.7141794099239815 0.6067265094045656
2831050 0.7144410962340262 0.6062996313855592
2831627 0.7149909816203401 0.6061070720633027
2832204 0.7150462305688026 0.6057314491077169
2832781 0.7153718070371455 0.605267054427282
2833359 0.7156131616737501 0.6049607783512809
2833936 0.7158883061305797 0.6043600638615312
2834513 0.7162129536159876 0.6042374686720668
2835091 0.7165055978404133 0.6040744348976016
2835668 0.7166920572803536 0.6036654607155608
2836245 0.7169034034102957 0.6032418922340593
2836822 0.7175172685664792 0.602940308747527
2837400 0.7180135936664057 0.6027538236333868
2837977 0.7181491952039054 0.6021904322369682
2838554 0.7183704727235968 0.6020107959560426
2839132 0.7186694245109235 0.6015201312705812
2839709 0.718831563556371 0.6013155212830624
2840286 0.7189846610572976 0.6008414970230076
2840863 0.7193513933636559 0.6007058467864118
2841441 0.71971865185645 0.6002031577357325
2842018 0.7199952980794816 0.5997413815261631
2842595 0.7203290644627091 0.5996093525199867
2843173 0.7205959411518176 0.5993430077593127
2843750 0.7209638213716336 0.5989131277345587
2844327 0.7213134194502878 0.5984114737993764
2844904 0.721663004266358 0.5980175821403175
2845482 0.7219847100566003 0.5978691187281132
2846059 0.7220660212971645 0.5974410980337405
2846636 0.7225456638249115 0.5972622993227273
2847214 0.7227687657551389 0.5967903839830644
2847791 0.7231668529804105 0.5963769737018623
2848368 0.723274623745518 0.5961697247375414
2848946 0.7236897159896352 0.5959250772538572
2848946 0.7233814133344393 0.5964367500508871
2849535 0.7235647252444138 0.595407276184393
2850124 0.7240647024195952 0.5949434877069243
2850713 0.7244039235239074 0.5946489569601057
2851302 0.7245482780572846 0.5944495255968419
2851892 0.7249874479661694 0.5941841193342302
2852481 0.7251860871676415 0.5936299553487498
2853070 0.725713771652759 0.5933091902417298
2853659 0.7259496840662912 0.5930372336719892
2854249 0.7263207628312648 0.592651018364459
2854838 0.7264587675496322 0.5923256925265291
2855427 0.7265675330733146 0.5917296285499829
2856016 0.7271732954920805 0.591713993149529
2856606 0.7271575101465966 0.5912918640702692
2857195 0.7276255549202701 0.5909024134850358
2857784 0.728036936499802 0.5904759265678261
2858373 0.728454390846616 0.590086189405998
2858963 0.7290333444740359 0.5899238826422306
2859552 0.7293304143972694 0.5895226536293998
2860141 0.7294100066143456 0.5890828904087683
2860730 0.7292708483835993 0.5885012803894473
2861320 0.7298634740074568 0.5882716607158437
2861909 0.7299711657920398 0.5880525856427659
2862498 0.7305071640415457 0.5877956920822155
2863087 0.73075107484333 0.5875214345028009
2863677 0.7307289117255135 0.5868495209897796
2864266 0.7312153336816178 0.586531631308495
2864855 0.7313569865910162 0.5862290791763247
2865444 0.7318314647067459 0.5859734649916001
2866033 0.7320462535378597 0.585474264229713
2866623 0.7325864389217465 0.585105419345963
2867212 0.7327435664189692 0.5849149814055364
2867801 0.7330058764753193 0.5843962723000573
2868390 0.7331849771529532 0.5841681063298152
2868980 0.7334784240858283 0.5837050023515531
2869569 0.7339538815444779 0.5835946157440988
2870158 0.734110733456481 0.5830882846474295
2870747 0.7342850346862312 0.5827599862071545
2871337 0.7344528304284156 0.5823383979459476
2871926 0.7349895513928644 0.5820468751552633
2872515 0.7353812210257874 0.5817261939347629
2873104 0.7354261929335504 0.5811343565540231
2873694 0.7357442892346415 0.5808738590498512
2874283 0.7359716119224512 0.5802975753557035
2874872 0.736352119576422 0.5801150240235622
2875461 0.7366117016766381 0.5796921887747581
2876051 0.7370946620171716 0.579389092882402
2876640 0.7374242092792153 0.5791763888102192
2877229 0.737772651978083 0.5788019810360312
2877818 0.7380092248623 0.5785389377589738
2878408 0.7381624607714835 0.5780451922319884
2878997 0.7384381096548458 0.5778889573190085
2879586 0.7386121163383603 0.5774012975625346
2880175 0.7389503503936504 0.5769392190451964
2880764 0.7392978519687261 0.5765568683083275
2881354 0.7395852298018222 0.5760789443737111
2881943 0.739910238405598 0.5758859676089344
2882532 0.7400712528927388 0.5753132293158252
2883121 0.7403725257532635 0.5750304933228507
2883711 0.7406574941339621 0.5747197007112149
2884300 0.7411421414395302 0.57450054968877
2884889 0.741337286961827 0.5741171097710994
2885478 0.7417460261950114 0.5736070527296829
2886068 0.7419356780124684 0.5733637634234526
2886657 0.7421998364019311 0.5729651740236227
2887246 0.7424801021974821 0.572625845260802
2887835 0.7427232711415137 0.572223312256697
2888425 0.7430975146202905 0.5718411191041618
2889014 0.7433638001990137 0.5716191158738538
2889603 0.743622882512464 0.5711957911697668
2890192 0.7438818635989529 0.5708728582907485
2890782 0.7442163374086336 0.5705233978442733
2891371 0.7444808464739546 0.5700936895566207
2891960 0.7447224693730855 0.5696093871813978
2892549 0.7451203790720891 0.5693641916341083
2893139 0.7453360410775369 0.5690196335470213
2893728 0.7457293486252135 0.5686227943056313
2894317 0.746004273806179 0.5682556877161816
2894906 0.7462461996631071 0.5677532639064367
2895495 0.7463470770624056 0.5674919889498867
2896085 0.7466270911860776 0.5669853423100734
2896674 0.7470969983158233 0.5667127712717444
2897263 0.7474052858867115 0.5662075294866319
2897852 0.747776424284559 0.565957342199174
2898442 0.7479954715457182 0.5658345679388802
2899031 0.7483163874299715 0.5654814035081163
2899620 0.7484765403070874 0.5650754380756231
2900209 0.748763221568819 0.5645864820717984
2900799 0.7490017706860246 0.5642560870915304
2901388 0.7493071712945827 0.5639138647700097
2901977 0.749514044630819 0.5635611247999767
2902566 0.7498772777316423 0.5631768615373396
2903156 0.750339738572277 0.562711840943461
2903745 0.7505581196324531 0.562529977609117
2904334 0.7507735221536171 0.5621514768947147
2904923 0.7509684800996709 0.5618468851682816
2905513 0.751290404331641 0.5613378778270568
2906102 0.7516150048249212 0.5608003121053131
2906691 0.7518052900814334 0.5606470598650871
2907280 0.7520541974500742 0.5602139505298107
2907870 0.7523417350342717 0.5597666740619734
2907870 0.7525067093316601 0.5599609892538997
2908471 0.7526128161569927 0.5596216280221126
2909072 0.7529727994762796 0.5593711037642347
2909674 0.7532642865511322 0.5587056171504369
2910275 0.7536962570487274 0.5584206758579967
2910877 0.7538967551225277 0.5581380039957855
2911478 0.7541899717233064 0.5575680513461981
2912080 0.7545330603611884 0.5572484367232673
2912681 0.7547337226741432 0.556806721160647
2913282 0.7549641891465854 0.556610217968281
2913884 0.7554715100322713 0.5560330358110294
2914485 0.7555138151285732 0.5557340591437292
2915087 0.7558969314600422 0.5554174515605883
2915688 0.7562329661357415 0.5550384588675659
2916290 0.7563752662669264 0.5545419635619093
2916891 0.756596461659437 0.5541775499078643
2917492 0.7569565126987059 0.5540062177351085
2918094 0.7572324897725468 0.5534924188280863
2918695 0.757484829957181 0.5531931546519142
2919297 0.7577867160936413 0.5526275170492284
2919898 0.7581466179394379 0.5524480086790803
2920500 0.758308811356662 0.5520909100999456
2921101 0.7586531632894633 0.5518151103981651
2921702 0.7587825962822087 0.5512639762445025
2922304 0.759096016676551 0.550801511874099
2922905 0.7594871707198504 0.5507212733596093
2923507 0.7598036424636606 0.5502369360024268
2924108 0.7599442247731827 0.5497112163174454
2924710 0.7602368208169575 0.5492398763717417
2925311 0.760655513825016 0.549000416916748
2925912 0.7607446306599925 0.5485106586692818
2926514 0.761038781183745 0.5483991115986964
2927115 0.76147677309774 0.5480180983371113
2927717 0.7618094188382297 0.5474458610632048
2928318 0.7621344531580412 0.5471324776510236
2928920 0.7624454976083527 0.546843165394253
2929521 0.7626487524287318 0.5465007888144645
2930122 0.762912556541063 0.5460910018917071
2930724 0.7632235876981771 0.5456568268028822
2931325 0.7633673526625154 0.5451158467346183
2931927 0.7637796273326714 0.5448086715960747
2932528 0.763977826458923 0.5443200434355471
2933130 0.7643618189080955 0.5441177032191175
2933731 0.7646709763920151 0.5437030591923352
2934332 0.7649187230294464 0.543457250716594
2934934 0.7651278398189452 0.5430197011741638
2935535 0.7654201188664312 0.542482016969881
2936137 0.7655450761446995 0.5422299399216446
2936738 0.7658532087487814 0.5418127685745167
2937340 0.7661334118168237 0.5412972491867115
2937941 0.7664789440550773 0.5410331234155876
2938542 0.7667530955850755 0.5407244655076096
2939144 0.7670375668653342 0.5401704807623476
2939745 0.767438488277561 0.5398447042896763
2940347 0.7676062680107306 0.539584496770205
2940948 0.7678781934685909 0.5389251604546101
2941550 0.7682303999383672 0.5387486880798263
2942151 0.7685397017158581 0.5383800674907206
2942752 0.7687641084419135 0.5380094859106088
2943354 0.7689417899888318 0.5375583145996154
2943955 0.7693821804767238 0.5371825542124782
2944557 0.7694163651609098 0.5369212176166464
2945158 0.7698034258090877 0.5367105705855045
2945760 0.7699906322506186 0.5362406595851249
2946361 0.7704662560677835 0.5357634733947343
2946962 0.7707586254165044 0.5354296883881356
2947564 0.7709180136191005 0.5349957221244228
2948165 0.7713292963610885 0.5346380937805397
2948767 0.7715093983224947 0.5341881099197389
2949368 0.7718236343045524 0.5339046047331121
2949970 0.7719007636011537 0.5334496895757355
2950571 0.7723776757924101 0.533139150692655
2951172 0.7724680204037462 0.5326910752722752
2951774 0.7729972478396236 0.532317617516108
2952375 0.7730837283887656 0.5319823657329117
2952977 0.7733018423152772 0.531556020978334
2953578 0.7735729798086753 0.5310871827165526
2954180 0.7737782990543441 0.5308396327466953
2954781 0.7742032147777144 0.5303030460252155
2955382 0.7743420347041848 0.5299511876648163
2955984 0.7748656064685883 0.5295428007889375
2956585 0.7750402532290637 0.52934290806449
2957187 0.7752307621190657 0.5289955826173973
2957788 0.7754637160765782 0.5284734872664877
2958390 0.7758297620607228 0.5280887720760846
2958991 0.7761515743615115 0.5277141508818247
2959592 0.7763203565817042 0.5272696232596982
2960194 0.7766048206948792 0.526916746631119
2960795 0.7767985875325926 0.5264880751699652
2961397 0.7770920356795792 0.5261117513409176
2961998 0.7772215269457398 0.525597849463674
2962600 0.777560370898766 0.5252543738744301
2963201 0.777682229789351 0.524844632324685
2963802 0.778072984617043 0.5244529265356113
2964404 0.7787097477317952 0.5243724922635669
2965005 0.7788221268357144 0.5236983401981959
2965607 0.7790851502240994 0.5233226519554762
2966208 0.7792959532410979 0.5230008355496217
2966810 0.7795545117089436 0.5226086980669407
2967411 0.7797821224133938 0.5224036764255874
2968013 0.7800234399776326 0.5217680176194737
2968013 0.7797791447568063 0.522426303931777
2968626 0.7798256702444073 0.5212815543130672
2969240 0.7804581978034321 0.5207277051631151
2969854 0.7808304593329191 0.5206731080679332
2970468 0.7810027765966895 0.5202762187661195
2971082 0.7811267802080727 0.5198982528805679
2971696 0.781535179696116 0.519349575642158
2972310 0.7818107383223751 0.5188626133836913
2972923 0.7820809511071612 0.5186186892908526
2973537 0.7824582098667431 0.5181766104808913
2974151 0.7827065991193969 0.5178930653826875
2974765 0.7830572857054595 0.5174824724210991
2975379 0.7833140231221472 0.5171544746541012
2975993 0.7835206557073299 0.5166596205994046
2976607 0.7837722090790509 0.516162409995462
2977221 0.7839439350755733 0.5158096890387822
2977834 0.7842179931346366 0.5154534850929587
2978448 0.7844846334208389 0.5150490847406531
2979062 0.7848522894985053 0.5147811463257895
2979676 0.7849947150325752 0.5143447544332583
2980290 0.7854648715980181 0.5138538581730316
2980904 0.7854973107990592 0.5134698705952586
2981518 0.785597184323981 0.513138288259967
2982132 0.7859283719702173 0.5127676751576251
2982745 0.7863401057473413 0.5122912613278419
2983359 0.7866658101594012 0.5117991628986058
2983973 0.787104192273313 0.5114881018574922
2984587 0.7872416023576899 0.510981524983483
2985201 0.7875902403855753 0.510528120509251
2985815 0.7878987458981861 0.5102624378957662
2986429 0.7880861755892516 0.5098089234488199
2987042 0.7884232300528419 0.5094281412394217
2987656 0.788588778878574 0.5089468604525237
2988270 0.7889776411614786 0.5086563950747084
2988884 0.7890867047662252 0.5081845454671249
2989498 0.7893232634517495 0.5077201623925812
2990112 0.7895604283652229 0.5073505382065303
2990726 0.7899047376386941 0.5069315154456566
2991340 0.7900714322208185 0.5066554396886508
2991953 0.7902788499035236 0.5062328844277201
2992567 0.790602989597001 0.5059317023179858
2993181 0.7908124148585095 0.505363650667564
2993795 0.7912178281028731 0.5049961547757571
2994409 0.791489004874784 0.5046544043984253
2995023 0.791565157808781 0.5043299964012875
2995637 0.7918227377183477 0.5037752405509651
2996251 0.7923220488198822 0.5036497547725604
2996864 0.7925488854812305 0.5030680837074037
2997478 0.7929608238692304 0.5028195378156806
2998092 0.7932410358584733 0.5023821628842389
2998706 0.7933783747534443 0.5018522691377673
2999320 0.7934160469193438 0.5014922344663263
2999934 0.7938580674158543 0.5010507182688523
3000548 0.7940071989424317 0.5007023237781003
3001161 0.7943655517803753 0.5002228991146328
3001775 0.7947553395315659 0.500014461966559
3002389 0.7950039440808035 0.49940175890707367
3003003 0.7951498043641237 0.49910880426749704
3003617 0.7954723780222767 0.4986576040284235
3004231 0.7956050141270289 0.4981032051184594
3004845 0.7958206570440707 0.49777850205500546
3005459 0.7959356032531691 0.49721655930320785
3006072 0.7957838352458356 0.49677215339505276
3006686 0.7958527247435213 0.4965805907540466
3007300 0.7965360215937612 0.4961133653417449
3007914 0.7975492220418638 0.49582318987528884
3008528 0.7981945826378913 0.49547985783192405
3009142 0.7980369574502545 0.4948118126058682
3009756 0.7980656036832935 0.4947088493159934
3010370 0.7984015881207471 0.49422692064618323
3010983 0.79884066346926 0.4939516243065274
3011597 0.7988056586327066 0.4933821013163596
3012211 0.7990751270874122 0.4928708217885077
3012825 0.7992845062760026 0.4925844183061775
3013439 0.7996997830998637 0.49210214854302453
3014053 0.7999118435551092 0.49178824190710496
3014667 0.8001708399431396 0.4912157932207791
3015280 0.8003195107432697 0.4909167183278352
3015894 0.8004676853246431 0.49054066682191777
3016508 0.8009665504940819 0.4901792072997623
3017122 0.8011027962701035 0.4896359471697451
3017736 0.8014867778627568 0.4893255006179883
3018350 0.8017003852539999 0.4888895241120286
3018964 0.801931599184623 0.4885576966620365
3019578 0.8021133189470404 0.4881304391758887
3020191 0.8024139531917069 0.48779619751379427
3020805 0.8025313405099133 0.4873414011623387
3021419 0.8029006137439627 0.4870296431253142
3022033 0.8031508615056308 0.4865645544161142
3022647 0.8035169461503873 0.4861599318366494
3023261 0.8038717843894134 0.4859367969910158
3023875 0.80394962356295 0.4851850530491472
3024489 0.8042880459843941 0.48479867015155403
3025102 0.8045749075070845 0.484326014417221
3025716 0.8048718467500378 0.4840573083131779
3026330 0.8049435242524405 0.48358055651184134
3026944 0.8053989507645186 0.4832263418861202
3027558 0.8055541930648955 0.4827926981120905
3028172 0.8058824753539147 0.4824143177741102
3028786 0.8063041670822652 0.48218741827329303
3029400 0.8062878693082567 0.4815101510968491
3029400 0.8062542882545228 0.481814697294664
3030026 0.8065114147661897 0.4812363393925115
3030653 0.8067187182067539 0.4807001185155738
3031279 0.806899707817541 0.4804022775132958
3031906 0.8072701539679042 0.4798324320361478
3032532 0.8076713071222339 0.47945839310702726
3033159 0.8079477103343407 0.4790764144013776
3033785 0.8080478049415774 0.47866461634624374
3034412 0.8081634419016706 0.478258076622029
3035039 0.8086671089183569 0.4779159446644698
3035665 0.8088668511813237 0.4773773011291406
3036292 0.8092250270384054 0.4770307353829264
3036918 0.8093785884995446 0.47660888509009725
3037545 0.8097066889976631 0.47626750710324467
3038171 0.8099440716399895 0.4757732293165367
3038798 0.8101932307515752 0.4752303029745421
3039424 0.8104786182733794 0.47492432563030507
3040051 0.8106764544440677 0.47434818528212425
3040678 0.8108992922806799 0.473926163345206
3041304 0.8112440842494344 0.4735721780226805
3041931 0.8115312531728439 0.47336795285425265
3042557 0.811518946472451 0.4727804143715898
3043184 0.8118943477015954 0.4724053538629322
3043810 0.8122261355735406 0.4720841470210076
3044437 0.8123922009271926 0.4714381598626703
3045064 0.8125858305047599 0.4710979114483783
3045690 0.812926706740197 0.4706521158211861
3046317 0.8129896600280959 0.4701835231778894
3046943 0.813444658037172 0.46984617497675263
3047570 0.8138401187126384 0.4696538669012996
3048196 0.8139923500829738 0.46918777628805675
3048823 0.8143636274130773 0.4686578977795695
3049449 0.814502461690966 0.46827679013504026
3050076 0.8146809613772095 0.4677802938049942
3050703 0.8148599944091363 0.46751722882352437
3051329 0.8152519279541778 0.4669962374214126
3051956 0.8153971926107139 0.4664741301538809
3052582 0.8156137619383679 0.4660480462120927
3053209 0.8159508810744236 0.46560436799213406
3053835 0.8160019235242562 0.4651943099869663
3054462 0.8164498135704754 0.4649891592883217
3055088 0.8166287358069197 0.46446331546778
3055715 0.8169172204688245 0.46403693401340396
3056342 0.8172517608393459 0.4634836098276946
3056968 0.8173032489831 0.46300572913622356
3057595 0.8176258044080347 0.462656503584411
3058221 0.8178938784671184 0.46219454373807034
3058848 0.818192217740004 0.461975148006638
3059474 0.8184835702414113 0.4614654987054657
3060101 0.8187962151031665 0.46110679738418114
3060728 0.8189070162397702 0.4604241737562524
3061354 0.8191826559864817 0.46016002648554355
3061981 0.8191217426311924 0.45958554391237255
3062607 0.8196159556946723 0.4591252323144775
3063234 0.8198259370392158 0.45846036691596076
3063860 0.8200969575607759 0.4582465378808323
3064487 0.8201681867594838 0.45790030890101086
3065113 0.8205609195884266 0.45744535646924284
3065740 0.8206803817141893 0.4570438444240029
3066367 0.8210434068777168 0.4565798964850918
3066993 0.8211914493095543 0.45627568884260905
3067620 0.8214872065114658 0.45564232843403973
3068246 0.8217905550903136 0.45535778920761216
3068873 0.8220873910448107 0.45492204152000254
3069499 0.8225097512315771 0.45484320519591476
3070126 0.822630804730318 0.45412886396805
3070752 0.8229361078435867 0.45372370390424394
3071379 0.8230983018095144 0.45320524553405345
3072006 0.823366010924869 0.45288417568088735
3072632 0.8234458464859161 0.45246442774282963
3073259 0.8238899667748665 0.45209842824879143
3073885 0.8241978229872984 0.4516900613752551
3074512 0.8243842278605482 0.4511585609547171
3075138 0.8243630461428308 0.45078947752420095
3075765 0.8248971197434564 0.45040699404223844
3076392 0.8251533953335336 0.45003880525988865
3077018 0.8254100938472654 0.4494786935327336
3077645 0.8254737310784038 0.449016889345655
3078271 0.8256563198186893 0.44849238349934506
3078898 0.8259758784439662 0.4481760024356795
3079524 0.8261218428717139 0.44758704118275894
3080151 0.8264922686705721 0.4471716145572924
3080777 0.8267272503643586 0.4469912261411306
3081404 0.8269651160955352 0.4465754792284607
3082031 0.8268805486439504 0.4460765170531908
3082657 0.8271289079698773 0.44549091665433804
3083284 0.8275428948049801 0.44524047875048905
3083910 0.8278651858627949 0.44455442930824873
3084537 0.8281205590597004 0.4442834057979591
3085163 0.8283972235811445 0.44379036694614354
3085790 0.8285427514097312 0.4432888858706219
3086416 0.828766900661969 0.44289670436128736
3087043 0.8290152895048922 0.44248004972059246
3087670 0.8290764277870093 0.44203341378627414
3088296 0.8296569942474629 0.4416220128568625
3088923 0.8297261856160828 0.44116768422528785
3089549 0.8300265413383748 0.44084711390407655
3090176 0.8303267607919459 0.44039049371260275
3090802 0.8304411223208957 0.4401818355425144
3091429 0.8306875322316735 0.43982656703469825
3092056 0.8310066493646024 0.4391581091211
3092056 0.8309452862389484 0.43999857008445653
3092695 0.8308482126094372 0.43887408141167883
3093335 0.8315206390973058 0.4382524385360026
3093974 0.831863720830456 0.438055734642797
3094614 0.8319314354571641 0.4375338888549688
3095253 0.8320832804050633 0.4370737769663701
3095893 0.8324562331247152 0.4364399611163332
3096532 0.8326915945792336 0.4362205595771877
3097172 0.8328545819360456 0.43567144075408226
3097811 0.8329147878989086 0.4351289011516615
3098451 0.8332321497310997 0.43473196205950976
3099090 0.8334986846175998 0.4342680174200199
3099730 0.8337012309466052 0.4339129860831394
3100369 0.8339925719726664 0.43346199314263495
3101009 0.8343121369548576 0.4330474221465545
3101648 0.8349700954630144 0.4326823218556393
3102288 0.8349319441981734 0.43219316404515584
3102927 0.8349330291673966 0.431722024415791
3103567 0.8352813599585026 0.4313160422042083
3104206 0.8355801707312147 0.4307397999562359
3104846 0.8356215959075072 0.43032254278912047
3105485 0.8358676238374205 0.42992556004689597
3106125 0.8363011855820508 0.42965514580324154
3106764 0.8364833071883192 0.4290342412110854
3107404 0.8368567933683022 0.4286532186841188
3108044 0.8369322244014037 0.42821905541663163
3108683 0.8371452162846503 0.42755240200776673
3109323 0.8374977711911207 0.4271360942909667
3109962 0.8379132851033361 0.42671639114246357
3110602 0.8379534474531882 0.4263799457478295
3111241 0.8379519127806009 0.4259363620373744
3111881 0.8383431895789397 0.4254853146774311
3112520 0.8386785391415854 0.42498521721289695
3113160 0.8388725947604766 0.42475762990793736
3113799 0.8389822608414522 0.4243164908463473
3114439 0.8393308631412729 0.4237071303620018
3115078 0.8395357421881913 0.4232590365851655
3115718 0.8398570483428289 0.4230465549907993
3116357 0.8397467615608305 0.4224762703399712
3116997 0.8399911230283401 0.4220867714629889
3117636 0.8403248149185901 0.4213494533862496
3118276 0.8407194485327842 0.4209619301769572
3118915 0.8408926892173629 0.4206185805689908
3119555 0.8410387553091005 0.42027888929293217
3120194 0.8412875248009684 0.4196707151355071
3120834 0.8416207188933889 0.41929208710844224
3121473 0.8417439861256785 0.41888172445063004
3122113 0.8419941911516804 0.4185582231946373
3122752 0.8423236319599037 0.41803529676959467
3123392 0.8426730880174552 0.4174539236818427
3124032 0.8427102453899735 0.4170394872463197
3124671 0.8429424617671788 0.4165784661742705
3125311 0.8430910782999084 0.4160962129438144
3125950 0.8434713660467466 0.41557743543402664
3126590 0.8438090277833888 0.41527792012849174
3127229 0.843705751134321 0.4147206305284934
3127869 0.8439515306547878 0.41439805159000637
3128508 0.844317477752325 0.41379026987916656
3129148 0.844482497043281 0.4135346191735277
3129787 0.8445311930499845 0.41291591447206216
3130427 0.8448614180381311 0.412472601108649
3131066 0.8449420751947953 0.41188392087388853
3131706 0.8454996885822903 0.41152893551712927
3132345 0.8455388217086095 0.4110072700969352
3132985 0.8457453921461897 0.41049264731508234
3133624 0.8459962255051066 0.410318767473847
3134264 0.8463719456997659 0.40981088586869896
3134903 0.8465087842260693 0.4094702012190742
3135543 0.8466814988658268 0.4089446064110391
3136182 0.8468889120653701 0.4083211035683755
3136822 0.8470402394869814 0.407811981150324
3137461 0.84743251931376 0.40760880051301357
3138101 0.8475490328307373 0.40702625768589507
3138740 0.8477263581899492 0.40667020782697294
3139380 0.8480380315989576 0.40620091993928115
3140020 0.8482506690483421 0.4056945789933772
3140659 0.8485730359017789 0.40537845262937733
3141299 0.8488431139832816 0.4049864289432832
3141938 0.8488975991445412 0.40435391220689887
3142578 0.8494080509511491 0.4040396087527172
3143217 0.8496362418675415 0.4036869693131408
3143857 0.8497222576417767 0.4031157986911488
3144496 0.8498111531602982 0.40265520964189794
3145136 0.8501582120426463 0.4021600420350702
3145775 0.8502330694397456 0.401776041432841
3146415 0.8505392941067468 0.4013779952591027
3147054 0.8506173751297926 0.40089491204872857
3147694 0.8509199078167999 0.40035250182528376
3148333 0.8512095673924692 0.39999660042807145
3148973 0.851393473847494 0.399570152729612
3149612 0.8518051166552238 0.39924276775926437
3150252 0.8520192152522275 0.3987660783211557
3150891 0.8522504179177247 0.3983454423460438
3151531 0.8523280880171077 0.397703319115241
3152170 0.8525254147084516 0.39725058974215927
3152810 0.8525463925324391 0.3966573415850594
3153449 0.8531107931612866 0.3960774148268086
3154089 0.8533938486482419 0.39562536593288655
3154728 0.8537458975294885 0.3952338046654779
3155368 0.8535155707207706 0.3948994169732896
3156008 0.8538324352862446 0.3943823694253317
3156008 0.8537510424144842 0.3941283432272059
3156660 0.8541387025572371 0.3942546476608103
3157313 0.8542395950528203 0.3937247809062679
3157966 0.8544814934235773 0.3930864467132625
3158619 0.8547384853581127 0.3925928393429108
3159271 0.8549550408259161 0.3921682171013041
3159924 0.8550859845389437 0.39178827056898546
3160577 0.8554147130474958 0.39135140733826407
3161230 0.8556527792218558 0.39078447133344013
3161882 0.8559178878313574 0.39046572208222513
3162535 0.8560015486375709 0.3898377073436494
3163188 0.8564695069504599 0.38941235335539515
3163841 0.8564287943582487 0.3888833243047028
3164493 0.8565595623664414 0.3884551707499654
3165146 0.8568059931110443 0.38805205000925436
3165799 0.8569978184283387 0.3875861532778938
3166452 0.8573437170151759 0.38710601539490874
3167104 0.8576156720699344 0.3866806725551686
3167757 0.8577313797170141 0.38632695987814825
3168410 0.8581209788220008 0.38570653041364505
3169063 0.8581023795999024 0.38520871413355234
3169715 0.8585457519109888 0.3847816897634561
3170368 0.8586871965462599 0.3844709876306292
3171021 0.8588192508401368 0.383830547916022
3171674 0.8589335991789725 0.3833769392592839
3172326 0.8592396095554115 0.3827600295681981
3172979 0.859518785798998 0.38241366162354273
3173632 0.8597178492292291 0.3818532145702952
3174285 0.8598272531613447 0.3816091725520729
3174937 0.860212187962739 0.3811069261381372
3175590 0.8603525102422851 0.3806391155180235
3176243 0.8605861260828649 0.3802025554510608
3176896 0.8606577277938172 0.3797651852983973
3177548 0.861133089978458 0.3793639322722606
3178201 0.8614234999915232 0.3788848996827605
3178854 0.8614704584109633 0.3782834134128962
3179507 0.8615876413141889 0.377893767203967
3180159 0.8618013272253695 0.3773647856352621
3180812 0.8622076154744185 0.37692392667605384
3181465 0.8622788635317438 0.3763710974373121
3182118 0.8624250200742698 0.3759004966706402
3182770 0.8626422632975186 0.3753752120010771
3183423 0.8628936861292129 0.37477967304257553
3184076 0.8630438322657502 0.3745911498384801
3184729 0.8632145475694178 0.374106569361619
3185381 0.8634278040595074 0.3734911561330843
3186034 0.86375158346299 0.37309070206739386
3186687 0.8639932583115726 0.3727207920027994
3187340 0.8643008891506601 0.3722956492923446
3187992 0.8642541284746817 0.3718646783380187
3188645 0.8648642500878422 0.37143366104312575
3189298 0.8648037864642955 0.3710111522981964
3189951 0.8650222653299018 0.3706002315684121
3190603 0.8652329857268506 0.37010793127737435
3191256 0.8655561890673213 0.369497785641731
3191909 0.8656608499853585 0.3691927416081814
3192562 0.8659530999329077 0.36853218835560686
3193214 0.8658951500887231 0.3681662204199944
3193867 0.8661568295557225 0.3676331699325716
3194520 0.8664978896981058 0.36707631796778545
3195173 0.8665953141170513 0.3665273206790133
3195825 0.8668595675053239 0.3662690826709832
3196478 0.8669247120059057 0.36554959016703975
3197131 0.8671332187992083 0.3651680066595592
3197784 0.8674260293280172 0.36485919190558774
3198436 0.8675654319154316 0.3643803502181343
3199089 0.8677984117488576 0.3637718947629113
3199742 0.8682882768779171 0.36341497847271437
3200395 0.8682294020872106 0.3628127913646538
3201047 0.8683095915952072 0.36228539869890364
3201700 0.8687147718010138 0.3619480865595785
3202353 0.8690964461729559 0.36141824543572915
3203006 0.8691886427101917 0.36100542944160285
3203658 0.8692411285839017 0.36050579284713996
3204311 0.8692997785592099 0.3599621786106509
3204964 0.869818125700279 0.3595252353339304
3205617 0.869992035560348 0.35914850661641307
3206269 0.8699935739263164 0.35865983770278054
3206922 0.8701717138503653 0.35824848678347276
3207575 0.8706758812443827 0.357844633818307
3208228 0.8708421872239084 0.3573968034431709
3208880 0.8708910321751726 0.35683282202752886
3209533 0.8709926662861831 0.35628559975380125
3210186 0.8711780329722963 0.355722850455756
3210839 0.8716345402404613 0.35549602303655253
3211491 0.8717839882382397 0.35496498763362555
3212144 0.871906015361236 0.35456050967758806
3212797 0.8720748150407227 0.35407848118675245
3213450 0.8725267344413598 0.3535720909021752
3214102 0.8726213648568938 0.3530389746739923
3214755 0.8726993293910483 0.3525116989777016
3215408 0.872601754139477 0.352080248312396
3216061 0.8731431475622653 0.3515205777455413
3216713 0.8732790943194432 0.35123644786938973
3217366 0.8734526878553169 0.35062600804072386
3218019 0.8736632449086238 0.34999719803925033
3218672 0.8739329428337245 0.349716144990619
3219324 0.8740253935428232 0.3492206881376279
3219977 0.8743379294688619 0.34867905307390634
3220630 0.8744249330831773 0.3482517996610183
3221283 0.874688851316501 0.3476144642800606
3221283 0.8746307856766063 0.3472856802261016
3221949 0.874998264516301 0.3473800912618068
3222615 0.8751339832045582 0.3468110311316556
3223281 0.8753086061993215 0.34641674528950767
3223947 0.8754607133541594 0.34593223723129385
3224614 0.875501508986012 0.34540658127209595
3225280 0.8757604963464314 0.34499657167424547
3225946 0.8760372548456394 0.34449318127042133
3226612 0.8761783794886916 0.3439435710204216
3227279 0.8767089152630547 0.3434918657555278
3227945 0.8768639075754785 0.3430566343007943
3228611 0.8769931886628435 0.342645311386376
3229277 0.8771536181988205 0.3420119928597331
3229944 0.877293380673526 0.34143815161529123
3230610 0.8775729297577138 0.3410695782695043
3231276 0.8777571984531315 0.3404774709282003
3231942 0.8777218839030211 0.3399937560320292
3232609 0.8781696625127551 0.3396001090153883
3233275 0.8782827266203229 0.3389658433472874
3233941 0.8784909752784483 0.33845429682296135
3234607 0.8784084701654123 0.3379573317408734
3235274 0.8789432060428375 0.3377242789775445
3235940 0.8792581151798741 0.3372925798793992
3236606 0.8793407818834403 0.3366931706057697
3237272 0.8792676358837773 0.3360587901939848
3237939 0.8798127711047208 0.3357030011023568
3238605 0.8797143300302211 0.3351821502932927
3239271 0.8801369075454746 0.334821811753481
3239937 0.8803597049664339 0.3342477061261222
3240603 0.8807054577271574 0.3339403828272602
3241270 0.8808544486498976 0.3333903382446845
3241936 0.8807859661223324 0.3328944546918763
3242602 0.881057527962308 0.33254867353898265
3243268 0.881235115831178 0.33190252956997424
3243935 0.8815950451536669 0.3314749504759466
3244601 0.8817852982166096 0.3308574914364398
3245267 0.8819986980639319 0.33050758874459796
3245933 0.882077737092124 0.3298540813944244
3246600 0.88230016490624 0.32944047466089105
3247266 0.8824610486551534 0.32895527406380165
3247932 0.8825519666429426 0.3285211422387254
3248598 0.8827837042931564 0.32787889804041254
3249265 0.8831051049342119 0.327523600674932
3249931 0.883233578305407 0.3269412283547735
3250597 0.8834824244196268 0.32647527732828097
3251263 0.8835190788725835 0.3259826638845282
3251930 0.8839850125242544 0.3257822730007562
3252596 0.8840130781210092 0.3250568736575166
3253262 0.8841612847051296 0.32446342895673536
3253928 0.8844873718488848 0.3239275358402234
3254595 0.8845919813607517 0.32353629685969926
3255261 0.8846328945653843 0.3229362783097092
3255927 0.8848499548002705 0.3224251290759064
3256593 0.8849593889108422 0.321855984198929
3257259 0.8852673268148896 0.3214232586452671
3257926 0.8853266881041288 0.3211503496035162
3258592 0.8855330586605686 0.320601550193806
3259258 0.8856558912609366 0.3199044895918694
3259924 0.8858726691191052 0.3194789195061456
3260591 0.886139583004618 0.31901190080543707
3261257 0.8865444276676893 0.3185137404740543
3261923 0.886556137839576 0.31804369241988767
3262589 0.8868140100461095 0.31760041977290704
3263256 0.8868530004072639 0.3170719005148659
3263922 0.8872262062267708 0.3167362857494522
3264588 0.887234857271132 0.31609570199308473
3265254 0.8873328295696238 0.31574950763140114
3265921 0.8876807448908252 0.3153082497145721
3266587 0.8882270231420375 0.3148207108815562
3267253 0.888131269701255 0.3142011165336318
3267919 0.8882379688910604 0.31367687018808904
3268586 0.888380036304861 0.3132102669880979
3269252 0.8885467053376901 0.31278153569652284
3269918 0.8885492284689859 0.3122655376707899
3270584 0.888840181866071 0.31179308111510445
3271251 0.888827476055638 0.31139036521907393
3271917 0.8893960169832035 0.31087293493748797
3272583 0.889310440669137 0.31033295065257677
3273249 0.8896241521909036 0.309778381247637
3273915 0.8896919302733478 0.30931344586354864
3274582 0.8898198501859124 0.3087944852405075
3275248 0.8900789276238741 0.30845633831614405
3275914 0.8901839354787089 0.30785474703261806
3276580 0.8905063838612934 0.30751741241094827
3277247 0.8907698007434253 0.30692896808828607
3277913 0.8909721628681363 0.30633338960980155
3278579 0.8912118196050465 0.3057075876673052
3279245 0.8912440979422285 0.30539369861158866
3279912 0.8913109525772909 0.30499001360656497
3280578 0.8915832693606481 0.30445674836654685
3281244 0.8917799802259312 0.30358215040754716
3281910 0.8920165677858176 0.3033610927777404
3282577 0.8918759511910751 0.3029310867322884
3283243 0.892073229861949 0.30235236206465127
3283909 0.892181397147815 0.30176832128788317
3284575 0.8926923718443717 0.30137649911223185
3285242 0.8929420223626822 0.30095738081956364
3285908 0.8929954479958513 0.30038629430629826
3286574 0.8932734989312152 0.300004517492134
3287240 0.8934435931774527 0.2995298747163707
3287907 0.8933977207336107 0.2989014465259295
3287907 0.8936505114621833 0.2993788289172762
3288587 0.8934670603963167 0.2987877103320431
3289267 0.8937516576197787 0.2980275836648844
3289947 0.8940910386534138 0.29742614742031065
3290627 0.8942282606383004 0.29689658787743733
3291307 0.8942341789141315 0.29643833835123135
3291987 0.8944957783073789 0.29570098420157553
3292667 0.89485195448625 0.2955951508796157
3293347 0.8948816598515655 0.29496972871630345
3294027 0.8951838228242557 0.2945007963120988
3294707 0.8953157758582467 0.29386781337946716
3295387 0.8953922739299098 0.29332834802481617
3296067 0.895463519788638 0.2928383463551126
3296747 0.8958706876008656 0.29248662969494715
3297427 0.8961055354272977 0.29189315215013856
3298107 0.8961033344986506 0.29138154801067423
3298787 0.896367620552384 0.2909924010940926
3299467 0.896438385278344 0.290555769675213
3300147 0.8967344534315939 0.289831293744739
3300827 0.8967194671649454 0.2895733164023625
3301507 0.896611210565476 0.28916063626216754
3302187 0.8969095993979255 0.2884725657314095
3302867 0.897333418669799 0.287665137163075
3303547 0.8975285436515338 0.2871942971330119
3304227 0.8976233501923687 0.28662723584344924
3304907 0.8977126644079728 0.28623829163957404
3305587 0.8978055234139735 0.2856194054114172
3306267 0.8981627228437951 0.2850641341048015
3306947 0.8983593463031283 0.284723601632044
3307627 0.8985883875543006 0.28428633853793706
3308307 0.898805448125183 0.28370306329019007
3308987 0.8987596277323483 0.283226754958274
3309667 0.8988504340109182 0.2827228307472106
3310347 0.8987634530687607 0.2821468827731869
3311028 0.899182995502677 0.2816384755745228
3311708 0.8994489444007563 0.28126662172174405
3312388 0.8995372586009539 0.2807086153039609
3313068 0.8999670121596127 0.2802290536161228
3313748 0.9000693844515609 0.27970434346344936
3314428 0.9001662081315001 0.27921316070968727
3315108 0.9002383269519374 0.2786397905701008
3315788 0.9004793068523133 0.27814703083290787
3316468 0.9006063914001521 0.2774622128294265
3317148 0.9009431150955404 0.27716638770767804
3317828 0.9010046151019709 0.2764705927883226
3318508 0.9009911577166088 0.276033354378863
3319188 0.9012666341461724 0.2754648661338208
3319868 0.9015458434091289 0.2751619770119399
3320548 0.9015483332015898 0.274536958345149
3321228 0.9018445089148887 0.27414118779891666
3321908 0.9019209219971135 0.27356314601030624
3322588 0.902069343033751 0.2730117829004116
3323268 0.9021592110398522 0.2726399516787596
3323948 0.9024543161452933 0.272202886171076
3324628 0.9026507753734443 0.27146004216099434
3325308 0.902884867226467 0.2709810227353214
3325988 0.9028743989355332 0.2704023450614571
3326668 0.9027960477438992 0.26992995881045534
3327348 0.9032677988445258 0.2694419540725277
3328028 0.9033457939774043 0.2689639409645432
3328708 0.903562012504772 0.26837499239551066
3329388 0.9039105876263493 0.2680098287071674
3330068 0.9039986257322256 0.26725631343191275
3330748 0.904046100704707 0.2669081749486368
3331428 0.904389113066555 0.2662946550110924
3332108 0.9043785891583914 0.2659315337663581
3332788 0.9045510688200531 0.2653141186433912
3333469 0.9048236937664658 0.26484892054987363
3334149 0.9046600764895676 0.2642491039410777
3334829 0.9051616968940487 0.26382908818229506
3335509 0.9052419688186191 0.2632728307465611
3336189 0.9055349050905601 0.26276744706166383
3336869 0.9055098656256227 0.26230160973883127
3337549 0.9054912146543448 0.2616567398465786
3338229 0.9056517238347168 0.2612964299735136
3338909 0.9060260779595325 0.26083284626876285
3339589 0.9059926715938471 0.2602444356828365
3340269 0.9062524190538571 0.259831546811834
3340949 0.9063597359302926 0.25923280812385086
3341629 0.906771978149874 0.2588022386091858
3342309 0.9067114339740794 0.2582471005224292
3342989 0.9068339342161862 0.25774101466081123
3343669 0.9071337124356376 0.25712488030821123
3344349 0.9071668053678582 0.25680743706749426
3345029 0.9074227656091365 0.2561830114046757
3345709 0.907633738396816 0.2557090191822556
3346389 0.9076051522507095 0.25514825286036424
3347069 0.9079704612959721 0.25461442995123695
3347749 0.9079510015240972 0.2542396281698017
3348429 0.9082455663810727 0.2537726651253403
3349109 0.9081481887258905 0.2530952660975649
3349789 0.9086026007318895 0.2525753374494765
3350469 0.9087030844570937 0.2520332224829652
3351149 0.9086175659825706 0.2516345680329789
3351829 0.9088222798281586 0.2509809363313727
3352509 0.9089048913982849 0.25052820645068374
3353189 0.909065997740607 0.2500002051500261
3353869 0.9093905663940025 0.2496604550673433
3354549 0.9094588063017907 0.24912021419454328
3355229 0.909642103196806 0.24866332990584422
3355910 0.9095172920134308 0.24804305624834386
3355910 0.9096756322011316 0.24868687608022974
3356604 0.9095863548697355 0.24765022196078526
3357298 0.9097189137540389 0.24673576692070354
3357992 0.9101224055886947 0.24644658049417345
3358686 0.910288503666478 0.24571628084978864
3359380 0.9101751948954278 0.24538007126544487
3360074 0.9103083297946886 0.24471936576085238
3360768 0.9106640493803234 0.2442139118174551
3361462 0.9107862239637778 0.24370076841495592
3362156 0.9108958333562617 0.2431819808400656
3362851 0.9112195705777779 0.24260036717282385
3363545 0.9112795598298965 0.24220857596375633
3364239 0.9113138903828569 0.2414646202348574
3364933 0.9115744860715873 0.24109785812616272
3365627 0.9116219491560593 0.24050123219135103
3366321 0.9120633919351139 0.24012352313730995
3367015 0.9120688933627612 0.23943932923448877
3367709 0.9122027714173395 0.23910426836936446
3368403 0.9122410765900406 0.23842754081799844
3369097 0.9124331908862031 0.2379011461234161
3369792 0.9125693099664975 0.23747423178174007
3370486 0.9126551570315266 0.23692681948478372
3371180 0.912879935757352 0.23623090482968165
3371874 0.9131110928750683 0.23579360647580463
3372568 0.9131780790978303 0.23532470181442233
3373262 0.9132747797735703 0.23487850253551498
3373956 0.9135673748604547 0.2342078129882324
3374650 0.9135860579381558 0.2338263473465319
3375344 0.9135999835610618 0.23315155604546378
3376038 0.9135333008244679 0.23259617667534674
3376733 0.9138664603290673 0.23216619866218582
3377427 0.9141366877941809 0.23163504845878993
3378121 0.9143503136059687 0.23101875269643216
3378815 0.9144502967040827 0.23054705898782238
3379509 0.914563738792836 0.2300850226399459
3380203 0.914683970735752 0.2295618939845072
3380897 0.9149420416764761 0.22888826225832312
3381591 0.9147133137613896 0.2283647187389617
3382285 0.915053567822315 0.2280403108402497
3382979 0.915017867448629 0.22753371737006675
3383674 0.9155850985043402 0.2269986489452183
3384368 0.9155472759124873 0.22628416259491246
3385062 0.915775758478824 0.22573249514039614
3385756 0.9158482681789062 0.22526532754183654
3386450 0.9162536416473847 0.22490430180409882
3387144 0.9161214617237221 0.22407582039339588
3387838 0.9162812019149994 0.22362002109282053
3388532 0.9164273436402485 0.22303375886668375
3389226 0.9168284026007927 0.22281143237327958
3389920 0.9167676529459046 0.2221301677914162
3390615 0.9168959340804428 0.22162615228543192
3391309 0.9168987258718964 0.22099322344703692
3392003 0.9170263477216875 0.22048490890116576
3392697 0.9173183435491034 0.2200073929428193
3393391 0.9173409927859124 0.21938703260497822
3394085 0.9176119359971083 0.21889876810553824
3394779 0.9176728106247659 0.2185067802116751
3395473 0.9178406623950973 0.21791293632871714
3396167 0.9179273509983061 0.2174293750845197
3396861 0.9180417596714091 0.21676069073367238
3397556 0.9182621456723736 0.216360708990885
3398250 0.9184090009329333 0.2157830626781484
3398944 0.9184479065213119 0.21517211978412415
3399638 0.9183879603515005 0.21460173814887704
3400332 0.9185343879932722 0.21411435492786063
3401026 0.918795362720351 0.2136660442107447
3401720 0.9189678215627286 0.21316786689842354
3402414 0.9192551283223017 0.21250591497825724
3403108 0.9192433427880286 0.21211714167855086
3403802 0.919361526829768 0.21148169977494458
3404497 0.9193943039824646 0.21097891928522558
3405191 0.9193814550188365 0.21023756778223002
3405885 0.9194417139790061 0.2098166928328572
3406579 0.9197671017880737 0.20932304195611837
3407273 0.9199837176202325 0.20881621889544674
3407967 0.9202362038611273 0.2083959334513258
3408661 0.9203167944026375 0.20777909553883345
3409355 0.9205183015456219 0.20720851564576373
3410049 0.920479104039922 0.2066905448840031
3410743 0.9207364494630386 0.20639713708981194
3411438 0.921039185641524 0.20575369000662924
3412132 0.9210231704982577 0.20508936921989876
3412826 0.9209229102218728 0.20464498730764222
3413520 0.9209851464370871 0.20401463507061854
3414214 0.9211725068592633 0.20355366908165062
3414908 0.9215612257281462 0.20300928385803096
3415602 0.9214506355086316 0.20241403553419218
3416296 0.9217722406884818 0.2019714739698646
3416990 0.9218523164657684 0.2014661760593714
3417684 0.9218522030344971 0.2009382860690791
3418379 0.9220990683661687 0.20021741096625442
3419073 0.9222449177034001 0.19994827115083713
3419767 0.9222348937110875 0.19938658485750899
3420461 0.9224194673275115 0.1988846074108642
3421155 0.9224150310578446 0.19829465143348243
3421849 0.9226370970379192 0.197736280219718
3422543 0.922744912323605 0.19719738627341463
3423237 0.9229910907356474 0.19672135552001405
3423931 0.9229363567102424 0.1960685390192226
3424625 0.9231010381256423 0.19551267636261696
3425320 0.9231557745740259 0.19501936112956378
3425320 0.9228876655234143 0.19472680737885686
3426028 0.9235056273828747 0.19448464914408098
3426736 0.923511934412107 0.19391041115113322
3427445 0.9235223335541745 0.19331133725590677
3428153 0.923738791158353 0.192849732247796
3428862 0.9237742194147512 0.1922704848565502
3429570 0.9238306317046957 0.19172133524097448
3430279 0.9240187103285065 0.19118718906156051
3430987 0.923886923823588 0.19047513662102925
3431695 0.9241059655710894 0.19004594862934265
3432404 0.9244864493974819 0.1895288702330864
3433112 0.9245670784472392 0.18900160672725846
3433821 0.9248303058832393 0.18842998365312122
3434529 0.9246548190155407 0.18791371150935873
3435238 0.9248822240373306 0.18732054459671263
3435946 0.9250151892977847 0.18688417269203716
3436655 0.9251601659368718 0.18623079758299763
3437363 0.925224821618085 0.1855442385778206
3438071 0.9254309682254207 0.18515221706961818
3438780 0.9255400457304599 0.18463207567389942
3439488 0.9257104902812945 0.18413754722275205
3440197 0.9257838533210035 0.18356161561724552
3440905 0.9258218506437703 0.1831571550099498
3441614 0.9258684320920376 0.1825751166268766
3442322 0.9259997681533472 0.181985671898014
3443031 0.9261429753335209 0.18137371233725122
3443739 0.926429665273933 0.1808321934418761
3444447 0.9263947376424204 0.18024240477825945
3445156 0.9264806923478933 0.17977422036297264
3445864 0.9265121153113701 0.17921237888943609
3446573 0.9269084601166144 0.1786192341372562
3447281 0.9269171475992297 0.17804073056882624
3447990 0.9268248295663752 0.17752463920630215
3448698 0.9272253512291532 0.17663945236065356
3449406 0.9273812711656064 0.1761378638027106
3450115 0.927476798443653 0.17581266183734115
3450823 0.9273259677425009 0.17553320452436313
3451532 0.9275883778730696 0.17493696009788082
3452240 0.9278365284031375 0.17433978876665968
3452949 0.9277101518029892 0.17363694807376495
3453657 0.9279273098253594 0.17321090051297183
3454366 0.9281965810678481 0.17264117648512142
3455074 0.9280793655294801 0.17219395907520904
3455782 0.9282072810078367 0.17153915566658623
3456491 0.9282553975928349 0.1709262334980803
3457199 0.9283034163626486 0.1702750866366958
3457908 0.928595369463747 0.16982403504854782
3458616 0.9288851505207688 0.16926565958491296
3459325 0.9286009408075082 0.16871646988534172
3460033 0.9289257895917067 0.16822381672356698
3460742 0.9291290736624133 0.16765718768938548
3461450 0.9293903451210904 0.16720562147077406
3462158 0.9293792421336929 0.1666696930981598
3462867 0.9294898890405547 0.16610891360026006
3463575 0.9296144929392028 0.1654589829791887
3464284 0.9296506017687368 0.16510442373488468
3464992 0.9297302311985836 0.1644903037311269
3465701 0.9297954452061673 0.16394574664919173
3466409 0.9297935032390778 0.16334141103489266
3467117 0.9299127272817055 0.16280470800643537
3467826 0.9299269668199547 0.16219107721142287
3468534 0.9301305869065816 0.16161050307589123
3469243 0.9301005804468157 0.16116911429689285
3469951 0.9302273021267765 0.16059342885284947
3470660 0.9303259046764812 0.15986880044118879
3471368 0.9305266928315733 0.15950102741680708
3472077 0.930692008545938 0.15890846127149175
3472785 0.9307340757083915 0.15846250957203062
3473493 0.9308668840196341 0.1578724074602079
3474202 0.9308889513453762 0.15731628271622838
3474910 0.9310088192744314 0.1568387420414064
3475619 0.9311882261356066 0.15643134626345975
3476327 0.9313222405629897 0.15558797269433394
3477036 0.9314586119685601 0.1550884119690749
3477744 0.9314681811113091 0.15456292103096164
3478453 0.9314593473431626 0.15401400315565492
3479161 0.9316571681314466 0.15342287009015657
3479869 0.931898180406245 0.15287844362330025
3480578 0.9319359972213301 0.1524083908846985
3481286 0.9318569345844747 0.1520265920183344
3481995 0.9320971634133712 0.15121748478309888
3482703 0.9324088259621632 0.15062508646370817
3483412 0.9324090828049121 0.15013402686922037
3484120 0.9323637892970342 0.1496025368207163
3484828 0.9325184035829048 0.14926031238084947
3485537 0.9325351223659325 0.1485172333803523
3486245 0.9325710757494575 0.14800564389760362
3486954 0.9327196258074807 0.1473680340928123
3487662 0.9327257874151785 0.14681576636727797
3488371 0.9327876790667049 0.14612755396120902
3489079 0.9330609546190832 0.145851915652227
3489788 0.933307886006293 0.14529995155897588
3490496 0.9333925103443756 0.14466674267737334
3491204 0.9332984379243208 0.14415941139516317
3491913 0.9334347845378144 0.14370300679504916
3492621 0.9336845632635323 0.14291529834944955
3493330 0.9336381027765606 0.14236556462482106
3494038 0.9338671629540147 0.1421041717124043
3494747 0.9337778947815898 0.14137812474821088
3495455 0.9337830105670853 0.14086166081112433
3496164 0.9337534993529972 0.14015659643416087
3496164 0.9332597112783771 0.14003478281245277
3496887 0.9339858419614243 0.13961473589055276
3497610 0.9339797826714659 0.139234825426698
3498333 0.9340922421609802 0.1385883522964983
3499056 0.9342796144084303 0.13794037361524544
3499779 0.9344317534928525 0.13739867263988959
3500502 0.9344136973808426 0.13692765247229444
3501225 0.9343607325562562 0.13638890552140184
3501948 0.9348164447295793 0.13581640759272662
3502671 0.9347346107916856 0.13524721679466864
3503395 0.934817898266226 0.13458166931302562
3504118 0.934649945345909 0.1339591211456423
3504841 0.9350541238997475 0.13340828531880383
3505564 0.9349194631475451 0.13282031193309024
3506287 0.9348557252087837 0.13218235244698862
3507010 0.9352083412779847 0.13181888827207136
3507733 0.9353889955374329 0.13117445400287342
3508456 0.9353649332679987 0.13068527283526096
3509179 0.9354092729973389 0.13017568623284195
3509903 0.9357965323872717 0.1294998567191723
3510626 0.9356950854269804 0.1290694887944296
3511349 0.9356864906268593 0.1284934576070577
3512072 0.9358725560065926 0.12780486707372987
3512795 0.9361303021454481 0.12726113813504558
3513518 0.9360292376549013 0.12669981297505659
3514241 0.936202207780839 0.1261629084963577
3514964 0.9361993267007911 0.12555660972723887
3515687 0.936261746808954 0.12515176854053167
3516411 0.93619419187733 0.12454057157486094
3517134 0.936443027344176 0.12380618795634075
3517857 0.9364148238473109 0.12315288438349903
3518580 0.9366563609059824 0.12270346972687786
3519303 0.9365625224483197 0.12223854368419201
3520026 0.9366848092828175 0.12164835687172937
3520749 0.9368105121444923 0.12108801962385642
3521472 0.9368454683595784 0.12065208767580671
3522195 0.9369182515555807 0.11998650072964402
3522919 0.93703261367224 0.1194778069286424
3523642 0.9372051585878082 0.11872677147994232
3524365 0.9373061980628353 0.11834895782862624
3525088 0.9373159447401149 0.11776381272366214
3525811 0.9374223535674122 0.11711809236567831
3526534 0.937607355411928 0.11644707775411
3527257 0.9374043233469386 0.11595879532810434
3527980 0.9376897010336347 0.11538588702756425
3528703 0.9376018955171654 0.11478754436167074
3529427 0.9377617484809698 0.11441389733436852
3530150 0.937815690732297 0.11377240075441251
3530873 0.9378360622016031 0.11311011449825112
3531596 0.9379248387041 0.11243776108020419
3532319 0.9380874587002965 0.11194024575684769
3533042 0.9379126072330477 0.11146255757937702
3533765 0.9380912498245398 0.11101657581416303
3534488 0.9382942641702212 0.11025454350448673
3535211 0.9383997017788162 0.10974505853473394
3535935 0.9383379309319678 0.10915335543438835
3536658 0.9385215641771881 0.10855500294301876
3537381 0.9385733949751054 0.10796893710439043
3538104 0.9387556561293787 0.10757100684574945
3538827 0.9387996809828955 0.10698616110181729
3539550 0.9389977655997764 0.106427395487983
3540273 0.9390001839135281 0.10584577238586451
3540996 0.9389175528251834 0.10535523172710236
3541719 0.9389008571913033 0.10464072265268429
3542443 0.9390185513371238 0.10396443357113624
3543166 0.9392168902086525 0.1035307097127234
3543889 0.9392399614614583 0.10311230870542337
3544612 0.939271350740042 0.10253874351184415
3545335 0.9393296163981116 0.10190730799742588
3546058 0.9395014956295534 0.1013931146042969
3546781 0.9394193862714553 0.10069399894923776
3547504 0.9395431703845525 0.10014623721423664
3548227 0.93968101574585 0.09956963154048365
3548951 0.9399674701452326 0.09899183160925061
3549674 0.9399406298041416 0.09847459075672116
3550397 0.9397336414508506 0.0978413308230679
3551120 0.9399660738744225 0.09720623897676522
3551843 0.9398841729751498 0.0967480030917928
3552566 0.9401164204386625 0.09624781867775618
3553289 0.9400280973507851 0.09550985650211194
3554012 0.9401711600848035 0.09490505225588433
3554735 0.9401946778781248 0.09441026254822538
3555459 0.9400955912454289 0.09383731715048055
3556182 0.9401853410083122 0.09337797089550937
3556905 0.940429419356194 0.09282207910253006
3557628 0.9404094043588552 0.0921682374971811
3558351 0.9404811109495261 0.09151656877191378
3559074 0.9406064023233347 0.09092095463693436
3559797 0.9407289737351681 0.0905022173661505
3560520 0.9406146573154653 0.08980210581636033
3561243 0.9407875522601203 0.0891967807770277
3561967 0.9410198963712679 0.08878246490897979
3562690 0.94097226405674 0.08821351281347425
3563413 0.9410220711899744 0.08760584785757929
3564136 0.9409358265482648 0.08707613050364486
3564859 0.9410750123612862 0.08647786677379463
3565582 0.9411639753063445 0.08594835055376314
3566305 0.9412304598818595 0.08537593102707128
3567028 0.941342799968738 0.08463081058997009
3567751 0.94151799417826 0.08423078518086725
3568475 0.9413069145598865 0.08371020495821888
3568475 0.9414652488287196 0.08402847344854109
3569213 0.941330449292502 0.08320767616008361
3569951 0.9413653071552512 0.08239729620899597
3570689 0.9415144875848017 0.08201864025694287
3571427 0.9415848229761566 0.08144806021901412
3572165 0.9416789462141496 0.08074184317833573
3572903 0.9419322287646735 0.08022315840215939
3573641 0.9417107483520011 0.07964490404233797
3574379 0.9417904957178337 0.0791166122812014
3575117 0.9417761670251763 0.07851920319040025
3575855 0.9418713658013058 0.07783568114264237
3576593 0.942096658160834 0.0773879077855954
3577331 0.9422516911563303 0.07688692397876178
3578069 0.9422952918810429 0.07605866164079823
3578807 0.942295914406154 0.07568199330829087
3579545 0.9422417990234426 0.07506577168586148
3580283 0.9422243218990565 0.07448595911566089
3581021 0.9423064705303605 0.07374591477638226
3581759 0.9425390992313677 0.07324980420621967
3582497 0.9424504141420779 0.07261249559259882
3583236 0.9422974883707593 0.0720409144312566
3583974 0.94249912868817 0.07156377297062191
3584712 0.9426351786388868 0.0709394910785307
3585450 0.9429680799734924 0.07031026980681565
3586188 0.9429172790171212 0.06960373842823575
3586926 0.9428232885409499 0.06921908063747453
3587664 0.9428534377159594 0.06849410616013489
3588402 0.942763265014286 0.06793080670780244
3589140 0.943057579606172 0.0672628739848406
3589878 0.9428639363909755 0.06696831217756928
3590616 0.943223376077452 0.06617955917613001
3591354 0.9429410889425582 0.06564042634766591
3592092 0.9431897550374868 0.0650732380672814
3592830 0.943170580672939 0.06454168354701234
3593568 0.9432332100821983 0.0640534173326264
3594306 0.9431019577457616 0.06337217106409687
3595044 0.9435835594183131 0.06275535892941425
3595782 0.9436993731178782 0.06231118265720554
3596520 0.9440801278996427 0.06197503766874623
3597258 0.9437848971927226 0.06095874281566444
3597997 0.9434941066875421 0.06025201538683175
3598735 0.943617847170833 0.05987394212069141
3599473 0.9435258315536135 0.05942540565047951
3600211 0.9437169241233783 0.05879168184378071
3600949 0.9438487303943881 0.05807858303807923
3601687 0.9437963606929235 0.057523651545702104
3602425 0.9438109110991106 0.05686775375891007
3603163 0.9438562504042287 0.056451358430924616
3603901 0.943748609075739 0.05581839193812503
3604639 0.9439090840029021 0.05519577634210343
3605377 0.9441184504353352 0.054673060967700415
3606115 0.9439826888381752 0.0541131483009169
3606853 0.9439700851962436 0.05330588306977759
3607591 0.9441043887644658 0.052769573374660456
3608329 0.9442543164012496 0.052284623526540765
3609067 0.9441364739871894 0.05182373430987048
3609805 0.9441349215602602 0.05100244490677617
3610543 0.9442531684752844 0.050435302886517576
3611281 0.9442876989927261 0.05003627535927527
3612019 0.9441228815515974 0.04941731639931382
3612758 0.944420038904175 0.048758487089621876
3613496 0.944512656592805 0.048137780938546954
3614234 0.9444966010285565 0.047684207301479056
3614972 0.9445589596665335 0.04700112172159352
3615710 0.9446697123180446 0.046640238294472884
3616448 0.944558137893157 0.04578800385212107
3617186 0.9445646261399891 0.04533693272356377
3617924 0.944607568832766 0.04473575478808288
3618662 0.944617474989923 0.04413073832106433
3619400 0.9447427908614341 0.043490438963144584
3620138 0.9447648101144959 0.043111922619063874
3620876 0.9448444620565569 0.04235961682898597
3621614 0.9449435836291789 0.04176769637699242
3622352 0.9447885377058328 0.041191929296664716
3623090 0.9447641618936545 0.04066411610776939
3623828 0.9450462997593575 0.040116016904317084
3624566 0.9450826861855682 0.03957272857876404
3625304 0.9449992466850762 0.038987484216164846
3626042 0.9449513066184854 0.03830715025890605
3626780 0.94508012199925 0.03776543160151598
3627519 0.9454442265908843 0.03719003425651216
3628257 0.9454011452055693 0.03655841942333744
3628995 0.9451240443059412 0.03591053802907506
3629733 0.9453255849147374 0.03525347244939608
3630471 0.9454015523558783 0.03475034173500634
3631209 0.9451633745000318 0.03410224597010212
3631947 0.945192330020117 0.033604068523703845
3632685 0.9450502855133202 0.032990470874029114
3633423 0.9451675057999533 0.03241074552708784
3634161 0.9453866494896506 0.03192721610536691
3634899 0.9453486331806112 0.031395630520538315
3635637 0.945466559452741 0.030685418707708235
3636375 0.945452326996681 0.030132998384424618
3637113 0.9455484011451974 0.02968041819591721
3637851 0.9457076975538405 0.028878432327192758
3638589 0.9455098101418865 0.028392068395140684
3639327 0.945601817777765 0.027902108902529144
3640065 0.9455751403089769 0.027256568259067457
3640803 0.9455898992431929 0.02661084760712752
3641541 0.9457492238759841 0.02611931725337211
3642280 0.945409483579328 0.02553335558486267
3642280 0.9455799641134931 0.026100792321204325
3643033 0.9451950323272004 0.024797560063505076
3643786 0.9456081434269289 0.02411879642160978
3644539 0.9457422830239781 0.023921892140312404
3645293 0.9457434594831716 0.023378063733864442
3646046 0.945664105025079 0.02267992733681219
3646799 0.9457891315920465 0.02199179180781874
3647553 0.94559250112793 0.02137490352319782
3648306 0.9455977029868988 0.020725198130097582
3649059 0.9457779006231037 0.020192790994328077
3649813 0.94593941425043 0.01963184081482444
3650566 0.9459381779869476 0.019080517695948946
3651319 0.9457574792078558 0.018422693437322977
3652073 0.9458961364797244 0.01788126222311002
3652826 0.946006004699711 0.017221732287024026
3653579 0.9458365511306955 0.016642769220482426
3654333 0.9459076981834008 0.015912135322585532
3655086 0.9461277775036083 0.015385230070710229
3655839 0.9460961354040379 0.014853806277236032
3656593 0.9461167418156 0.014157203654230281
3657346 0.9461032702924332 0.013591458639541799
3658099 0.9458392025444052 0.013045989790096395
3658853 0.9459153026437943 0.012399158590849035
3659606 0.9460092594976466 0.011683697443421945
3660359 0.9459822746866601 0.011290285163993892
3661113 0.9460208556553 0.01072200279686092
3661866 0.9460825448098237 0.010034311838508102
3662619 0.9461784246222991 0.009487209556107795
3663372 0.9460644604430413 0.00883938435810192
3664126 0.9461251617606976 0.008298768572453282
3664879 0.9461436808065679 0.00763398371131306
3665632 0.9462399751354831 0.007022418772850011
3666386 0.9462713031003634 0.006489292063731799
3667139 0.9461125343944959 0.005945114412111491
3667892 0.9462302141910226 0.0052230314851227375
3668646 0.9461688795824931 0.0046698269544719374
3669399 0.9461429660266051 0.004189641911235519
3670152 0.9460581275793298 0.003543728312821041
3670906 0.9461337844584854 0.0030769380256835616
3671659 0.9462815831198753 0.002392851830391584
3672412 0.9461842884005243 0.001805831178342215
3673166 0.946234963345089 0.000961020582750122
3673919 0.9463710213677172 0.0006056033894433397
3674672 0.9463038692024787 -8.330530418992855e-05
3675426 0.9462297734659648 -0.0005955773415299115
3676179 0.9463698220608572 -0.001282231451337455
3676932 0.9467829811878642 -0.0016734826740696306
3677686 0.9464610643873033 -0.002406996439197897
3678439 0.9461292586388762 -0.0028701123358219984
3679192 0.9464434826196192 -0.0037825814404171807
3679946 0.9461118493004729 -0.004325217282349922
3680699 0.9463894433943542 -0.0048470234912774334
3681452 0.9464313330220722 -0.005506286417861278
3682205 0.946353630738669 -0.006057493213531458
3682959 0.9464370303910615 -0.006776169754280248
3683712 0.9466066210108247 -0.007156892779960835
3684465 0.9465526997749698 -0.007809425534882433
3685219 0.9464292154258381 -0.008410374045921577
3685972 0.9464808878921145 -0.009053093185238982
3686725 0.9462963420231663 -0.009594252466377007
3687479 0.9464558274026917 -0.010255231171596263
3688232 0.9462471197464243 -0.010783920263014833
3688985 0.9462716894389236 -0.011301648898359959
3689739 0.9463482251446175 -0.011981566511353433
3690492 0.946578669653437 -0.012546648914701737
3691245 0.9465195718528774 -0.013225751250798043
3691999 0.9463599950222806 -0.013797586596336984
3692752 0.9464963686303286 -0.014213700171168776
3693505 0.9464207884362276 -0.014726330842146383
3694259 0.946643137892014 -0.015384166299412699
3695012 0.9463777020060075 -0.016165444167821213
3695765 0.9464177055799794 -0.016663617704888903
3696519 0.9464258900796745 -0.01728336610059432
3697272 0.9463725800261044 -0.017945073065412643
3698025 0.9464019878279829 -0.018690770760856595
3698779 0.9464544153699607 -0.019082751441713088
3699532 0.9464672415615468 -0.01956919075795494
3700285 0.9464087686371376 -0.020304386118894062
3701038 0.9466623627067968 -0.021025891918595486
3701792 0.9463790960391676 -0.02153139550884384
3702545 0.946350098663934 -0.021950907430983872
3703298 0.9462459040839484 -0.02272155385807849
3704052 0.9463357177014241 -0.023248356321954877
3704805 0.9463732327266587 -0.02391803947283509
3705558 0.9462832467352162 -0.024503547580102827
3706312 0.9464764536276743 -0.025164613007418783
3707065 0.9464285050049189 -0.02563697185283361
3707818 0.9465490832772429 -0.026199866793965375
3708572 0.946197959002148 -0.026893750952057482
3709325 0.9464759976400288 -0.027375961827049444
3710078 0.94611177507899 -0.028133202118379053
3710832 0.9462309657174047 -0.02863658863050785
3711585 0.946255285861349 -0.029544267378165647
3712338 0.9463298882163391 -0.02992482573403351
3713092 0.9464117573353003 -0.030548183122973086
3713845 0.9462220518771565 -0.03103293810675859
3714598 0.9462168529781462 -0.03164348883569745
3715352 0.9462645693158545 -0.03220377465808773
3716105 0.9461760120212555 -0.03271940074374304
3716858 0.9461277543488086 -0.033364856595626206
3717612 0.9462397504316663 -0.03406765179343084
3717612 0.946443035609681 -0.03425304179504041
3718380 0.946255612968072 -0.03454467871031874
3719149 0.9461215824521765 -0.035185678528028806
3719918 0.9459963834354546 -0.03589404383733546
3720687 0.9462422403141245 -0.036432953343217514
3721456 0.9462703212864753 -0.03693030113236581
3722225 0.9461447823291056 -0.03771019650524817
3722994 0.9460969712726861 -0.03833302837200998
3723763 0.9461955626970404 -0.03881038007276887
3724532 0.9459062083417218 -0.039341992205629686
3725301 0.9460267798434587 -0.0400112827041662
3726070 0.9460202497692101 -0.04064243770959089
3726838 0.9461219065470367 -0.041318571286540325
3727607 0.945715169518832 -0.04197696744164541
3728376 0.9456201737352782 -0.042726716417941915
3729145 0.9456602787618451 -0.04315147104414438
3729914 0.9457550254405436 -0.043805097446130314
3730683 0.9457627989287509 -0.04453580247817566
3731452 0.9458130147297436 -0.044985459944262625
3732221 0.9459583899015531 -0.04554029562998903
3732990 0.9457790400243161 -0.046232024689698774
3733759 0.9460031218132302 -0.04703199637170845
3734528 0.9459261473900461 -0.04748030460696542
3735296 0.9455262648682431 -0.04786706145058495
3736065 0.9456320733999816 -0.04875256289044502
3736834 0.9459282616502646 -0.04926859273940027
3737603 0.9456283093308427 -0.04986965870911289
3738372 0.9456599302919463 -0.05053638881609172
3739141 0.9458097658592949 -0.05116295889211558
3739910 0.9457118834616616 -0.051633278305440976
3740679 0.9455586871078678 -0.05219868088273201
3741448 0.9453283175368175 -0.05296908254299562
3742217 0.9456605647499963 -0.05345870438370057
3742986 0.9454308315327937 -0.05408157033840001
3743754 0.9452387752395909 -0.05476783601241296
3744523 0.9452086059480107 -0.05548727831670758
3745292 0.945495237978445 -0.05588474808495928
3746061 0.9454901707573469 -0.056429883104441164
3746830 0.9452651800476879 -0.05720233983436322
3747599 0.9454148077135819 -0.057866271174163986
3748368 0.9453172045412847 -0.058475446534941446
3749137 0.9455459147055961 -0.0590147362687057
3749906 0.9453595838643966 -0.05981708441609636
3750675 0.9454643957946347 -0.06023930688141197
3751444 0.9453517905683169 -0.060834659590126045
3752212 0.9450060383112031 -0.061665224151663554
3752981 0.9452747473605821 -0.062283015518643486
3753750 0.9451376062460574 -0.06270226529473202
3754519 0.9451117126986566 -0.06312696717490812
3755288 0.9449642081147721 -0.06393341934136561
3756057 0.9449835789956877 -0.06451964823778637
3756826 0.9451127795948254 -0.06510553979846713
3757595 0.9448819931303668 -0.06559148629634594
3758364 0.944986051258463 -0.06627418439955446
3759133 0.9448320977569344 -0.06695344567306115
3759902 0.9446431893294283 -0.0675172455707735
3760670 0.94459044257234 -0.06823944727371388
3761439 0.9448234876281982 -0.06874738451354657
3762208 0.9446957040140979 -0.06953574730066962
3762977 0.9444964846085635 -0.07004375064243983
3763746 0.9447210184419425 -0.07071582352114805
3764515 0.944449939317741 -0.07109949023608085
3765284 0.9445742790964886 -0.07178023377443703
3766053 0.9445169233448354 -0.07238875297468658
3766822 0.9446733342651011 -0.0729708234650322
3767591 0.9445544641973932 -0.07354445842274125
3768360 0.9442902404130468 -0.07415074513528154
3769128 0.9443867667001873 -0.07489268394891373
3769897 0.9442332762810444 -0.07534047844266736
3770666 0.9441529988974401 -0.07603113717100528
3771435 0.9441673456371623 -0.07676792128681476
3772204 0.9439718232786328 -0.07728521093172983
3772973 0.9442002589948786 -0.07787599537332919
3773742 0.9442253087342257 -0.07834973641460868
3774511 0.944219259384594 -0.07923913323631473
3775280 0.9440081873438729 -0.07972836703204303
3776049 0.9439849874868054 -0.08024220046133523
3776818 0.9437524311503662 -0.0809237226025254
3777586 0.9438734674002106 -0.08154338901244251
3778355 0.9437039523407872 -0.08216992230620208
3779124 0.9436766196746694 -0.08281838451029709
3779893 0.9435385824186424 -0.08347138330049048
3780662 0.943611760333057 -0.08413115813837549
3781431 0.9437119771877169 -0.08446846142690509
3782200 0.9435950674262003 -0.08530042325812161
3782969 0.9437716862597462 -0.0858274562035934
3783738 0.943624435380027 -0.08638539811339295
3784507 0.9436084957978657 -0.08686819706076764
3785276 0.9435477861208432 -0.08773147663550247
3786044 0.9434927814680054 -0.08824564333941835
3786813 0.943522076784458 -0.08879680954840244
3787582 0.9431694357592457 -0.08954913158888043
3788351 0.9432363411591224 -0.09010583640951227
3789120 0.9432492478137356 -0.09064783067209846
3789889 0.9431151582412723 -0.0911605291520411
3790658 0.9430294805734085 -0.0919440096869338
3791427 0.9430640530157 -0.0924597815294404
3792196 0.9430586088046752 -0.09307292413900456
3792965 0.9428465573557326 -0.09369777927916197
3793734 0.9428253116000571 -0.09430456853752167
3794503 0.942716209979066 -0.09493978293711454
3794503 0.9433887529518166 -0.09453659652144811
3795287 0.9426625682076649 -0.09532209841711144
3796072 0.942833559418642 -0.09623015261938198
3796857 0.9428149863618324 -0.09670140216128251
3797642 0.9426320103221525 -0.09731378597122765
3798427 0.94240483884377 -0.09809407618787143
3799211 0.9425845612251701 -0.09862246226743608
3799996 0.9425071202703693 -0.09926747048884466
3800781 0.9424626708334612 -0.09960635976684061
3801566 0.9424487296073287 -0.10054166988266185
3802351 0.9421479675697283 -0.10121839966809379
3803135 0.9419967749390797 -0.10170906311028441
3803920 0.9419848435019788 -0.10225270636128975
3804705 0.9420482987591581 -0.10276887973059073
3805490 0.9420257179342216 -0.10356711336345151
3806275 0.9419664518462193 -0.10422021351174793
3807059 0.9418120480221869 -0.10481498004314733
3807844 0.9417696248769536 -0.10540177303528632
3808629 0.9417953795827517 -0.10602629601615259
3809414 0.9417032608876962 -0.1065610452842792
3810199 0.9417628835036208 -0.10712615160748573
3810983 0.9417414776425319 -0.10778729605480254
3811768 0.9415121493780358 -0.1084274057187705
3812553 0.941272479914197 -0.10914282880012163
3813338 0.9413916127883821 -0.10974046948439252
3814123 0.9413020557320466 -0.11026024306237331
3814907 0.9414318128112792 -0.1111242784448413
3815692 0.9412468162329187 -0.11150901425059298
3816477 0.9411650643206357 -0.11205207099608698
3817262 0.9410829784411784 -0.11276717251030245
3818047 0.9408902031525125 -0.11341636237828538
3818831 0.9407790357997508 -0.11398456248076078
3819616 0.9409147630341219 -0.11462093327491987
3820401 0.940719540822286 -0.1152832356245489
3821186 0.9409238111370877 -0.11572568592851708
3821971 0.9406569210660973 -0.11640105270381149
3822755 0.9406393532985934 -0.11705346002649268
3823540 0.9404883354996767 -0.11780862389757439
3824325 0.9402610074265494 -0.11857601957366323
3825110 0.9403565963517421 -0.11889640055799189
3825895 0.9403114268411331 -0.11966155019856331
3826679 0.9403229327183977 -0.120243170466507
3827464 0.9401229240615308 -0.12077717778253956
3828249 0.9400061717320211 -0.12145443339057341
3829034 0.9399500609799876 -0.12221114949622934
3829819 0.9399325608121253 -0.12279432849600731
3830603 0.9399567551517125 -0.12353237446867102
3831388 0.9397481908410132 -0.12415691148341992
3832173 0.9397433467229686 -0.12455766082347498
3832958 0.9394566902499094 -0.12523197968039837
3833743 0.9396107197021701 -0.1257896847946373
3834527 0.939761828182851 -0.12651759183202657
3835312 0.9394913625099519 -0.12719478721641528
3836097 0.9393336110040095 -0.1276810096301994
3836882 0.9395974424590017 -0.12833732428671865
3837667 0.9394055249948238 -0.12897534075034658
3838451 0.9393400384285786 -0.12958867049242256
3839236 0.9389322154844546 -0.13004327786351283
3840021 0.9390092880903246 -0.13077148870448546
3840806 0.9387305366225005 -0.13140677190133318
3841591 0.9387661911613335 -0.1319372478820521
3842375 0.9387724080785786 -0.1327642850925025
3843160 0.9386739082792525 -0.1331414041597196
3843945 0.9385374472328142 -0.13377029729265602
3844730 0.9385156821704002 -0.13438842255017763
3845515 0.9385354594160205 -0.13512965825300266
3846299 0.93810578890578 -0.13576243694356258
3847084 0.9383328958534399 -0.13634775645399985
3847869 0.9382344829847789 -0.13692298575781184
3848654 0.9381978602565383 -0.13751318456581163
3849439 0.9380763457408797 -0.13810991215976137
3850223 0.9379450534788425 -0.13864130295953198
3851008 0.9380561761316376 -0.1393267027280866
3851793 0.9377472550333944 -0.14000879835319807
3852578 0.9375865040577609 -0.14066855173724788
3853363 0.9375221366197478 -0.14135896137328435
3854147 0.9376091038991883 -0.1418100835380697
3854932 0.937400269436826 -0.14242151191758642
3855717 0.9372303781683237 -0.14304616270571377
3856502 0.9373406228383775 -0.14372019392308272
3857287 0.9371758545150948 -0.1443798718632677
3858071 0.9369163463626057 -0.14495285484482817
3858856 0.9366205246371875 -0.1456523263472982
3859641 0.9366693573341442 -0.14626377973843613
3860426 0.9368816118277224 -0.1468356435698099
3861211 0.936578547687404 -0.14741092919377974
3861995 0.9364683448112482 -0.14801456808281446
3862780 0.9364819151081786 -0.14864417632122368
3863565 0.936418120348158 -0.1492881508327578
3864350 0.93614056530406 -0.14994049348653238
3865135 0.9361695153755286 -0.15043201871885126
3865919 0.9361983999997007 -0.15100726398425587
3866704 0.9360934890282628 -0.1516724280646522
3867489 0.9361313660582011 -0.15231784180119973
3868274 0.9359345011639116 -0.1529849209555338
3869059 0.9358460495453557 -0.15358228339509267
3869843 0.9358034870760932 -0.15428921122629105
3870628 0.9355492924554564 -0.15474077416395546
3871413 0.9355598120264916 -0.15540835973962686
3872198 0.9352591947480023 -0.1560304509231852
3872983 0.9353317478860823 -0.15656024574860952
3872983 0.9354150860367935 -0.15677875258758286
3873784 0.9352313727164545 -0.15728805182701447
3874585 0.9350432415299993 -0.15784834184049693
3875386 0.9350097007241629 -0.15857110449868259
3876187 0.9347843326820934 -0.15911326743335025
3876988 0.9347147843944396 -0.15970583520004578
3877789 0.9346745197721266 -0.16038403622664685
3878590 0.9345760458938377 -0.161117862613521
3879391 0.9346968250711605 -0.16182573899040123
3880192 0.9342963484706444 -0.16242968856373297
3880993 0.9341458662942369 -0.16291408223473078
3881794 0.9340182981984629 -0.16359006011541455
3882595 0.9341189915915878 -0.1640891102890858
3883396 0.9340357841248015 -0.16487985851589615
3884197 0.9338336572012959 -0.165382293533568
3884998 0.9337524794493357 -0.16599392772922753
3885799 0.933746706210592 -0.16671255832071313
3886600 0.9337082752832983 -0.16737272527377497
3887401 0.9333737583324234 -0.16783968816033318
3888202 0.9334322387776398 -0.16862850462452184
3889003 0.9332956955468843 -0.16931618634508297
3889804 0.9331474319565861 -0.16983475769329362
3890605 0.9331706498415058 -0.17062158711574343
3891406 0.9331965389549184 -0.17156244034280993
3892207 0.9329061228596278 -0.1718853218730491
3893009 0.932667115493777 -0.17222651608404155
3893810 0.9325551022487345 -0.17288837093661188
3894611 0.9325555403195107 -0.17357329369248994
3895412 0.9324021377894836 -0.17414141422827234
3896213 0.9321881398693088 -0.17478769310968262
3897014 0.9320751212188693 -0.17537247274311207
3897815 0.9319899521839037 -0.17601265549829373
3898616 0.9317546164819497 -0.1766876010033881
3899417 0.931701318006228 -0.177396433441989
3900218 0.9319331995133938 -0.17795737172945686
3901019 0.9314897282624712 -0.17853837274902007
3901820 0.9313717346777296 -0.1791965111094018
3902621 0.9313829237813201 -0.18002241810068254
3903422 0.9311932237805648 -0.18051146872135712
3904223 0.9310002593505345 -0.18111591382242284
3905024 0.9306976789644358 -0.18185891552939568
3905825 0.9307590738024614 -0.18241973261958153
3906626 0.9307187157876964 -0.18301988284428528
3907427 0.9305256858869405 -0.1836618740682905
3908228 0.9303846851455986 -0.18412181045754172
3909029 0.9302381674488535 -0.18483425478370408
3909830 0.9302091253870232 -0.1854225346030016
3910631 0.9301800066782303 -0.18612519272512693
3911432 0.9299796562560065 -0.18673038670635436
3912233 0.9299136883889016 -0.18730260536764384
3913035 0.9297094939390507 -0.18793788657841876
3913836 0.9297140048963077 -0.18862724224068614
3914637 0.9296403303442495 -0.18926223280161905
3915438 0.9294875352802475 -0.18985278358603924
3916239 0.929358305371498 -0.19049202429405737
3917040 0.9292536549593121 -0.19105907220063714
3917841 0.9290151938211078 -0.1917564601739737
3918642 0.9289102866209946 -0.1923817487024292
3919443 0.9288424483820802 -0.1929249820208549
3920244 0.9287774469747865 -0.1935435211799711
3921045 0.9286312743032766 -0.19416399697697814
3921846 0.9285052823838672 -0.19471690914241618
3922647 0.9283842654209951 -0.19540123458252232
3923448 0.9282351304785854 -0.1961239238906604
3924249 0.9280158032349779 -0.1967347599856335
3925050 0.928109191076791 -0.1973014472068052
3925851 0.9278112346341606 -0.19803221397691714
3926652 0.9277592593856774 -0.19870200921187528
3927453 0.9274404550244862 -0.19926178913505457
3928254 0.9272679672364258 -0.1997454768543697
3929055 0.9272684241602809 -0.20045708023824704
3929856 0.9273288396483649 -0.20112532368443245
3930657 0.9269274905714554 -0.20163868978777313
3931458 0.927026651280046 -0.20229050984539135
3932259 0.92677794093781 -0.20304245093197323
3933061 0.9266367345108354 -0.20370461198689052
3933862 0.9267549679538869 -0.20432070628794927
3934663 0.9263803055104561 -0.20475709573417722
3935464 0.9264377532606771 -0.2053486423586667
3936265 0.9261630541423493 -0.20610613390079485
3937066 0.9262399871292127 -0.20661996304569774
3937867 0.9262358944028367 -0.2074191032001958
3938668 0.9260207835328786 -0.2080225399996096
3939469 0.9258171837749076 -0.20847435702300274
3940270 0.9255105046944655 -0.2091974288650602
3941071 0.9252005951056385 -0.20980633402829776
3941872 0.9253302027759338 -0.2105024461603421
3942673 0.9251123391686876 -0.211119438781569
3943474 0.925049039585829 -0.21164405465627192
3944275 0.9247679470010072 -0.21226381547034776
3945076 0.92473053665369 -0.212886736085691
3945877 0.924556719875985 -0.21356815320167827
3946678 0.9241959120429487 -0.21413401743262192
3947479 0.9243329514868328 -0.2147994194384076
3948280 0.9241146060627519 -0.21555204360961652
3949081 0.9240769769678753 -0.2160706838421622
3949882 0.9238880183855176 -0.21667304610227334
3950683 0.9238826134064045 -0.21749486321079142
3951484 0.9238417650661812 -0.21809939950617296
3952285 0.923600720859859 -0.21855987827574344
3953087 0.9233140932122131 -0.21930552675236706
3953087 0.9232881218183621 -0.2187257283266671
3953904 0.9227361890162208 -0.21990393131175998
3954722 0.9230365012874637 -0.2205090337416147
3955539 0.9229362654298416 -0.22087459298466916
3956357 0.9227719281192341 -0.22165628690969458
3957175 0.9227534385798899 -0.22227318406499363
3957992 0.9225849755068141 -0.2230782377192248
3958810 0.9224370105480764 -0.22371376886675692
3959627 0.9223419196076517 -0.22418208366548176
3960445 0.9220928215835416 -0.22479815877994103
3961263 0.9219871719932776 -0.22549035826534267
3962080 0.9216734277653321 -0.22620523591948682
3962898 0.9217986890029486 -0.2266842508850917
3963715 0.9215480141524893 -0.22747612600783473
3964533 0.9211850612976065 -0.22806389956722106
3965351 0.9213150510083818 -0.22859238960230244
3966168 0.9210961489762564 -0.22934398523423055
3966986 0.921014535536954 -0.2299786562361283
3967803 0.9207187339540642 -0.23059723207588678
3968621 0.9206079254896204 -0.23116050455462114
3969439 0.9203800622646274 -0.23176927528616167
3970256 0.9201754151942804 -0.23246169829212826
3971074 0.9202490411399841 -0.23299146473375976
3971892 0.9201156260037481 -0.23370819173296853
3972709 0.9198012253362854 -0.23438183386221745
3973527 0.9198682914789236 -0.2350630274267405
3974344 0.919564895024394 -0.23570118547993107
3975162 0.919488782533913 -0.23635831699260154
3975980 0.9195233651295207 -0.23699192284790527
3976797 0.9192601800471168 -0.23753451849841425
3977615 0.9191799770118052 -0.23818265833586044
3978432 0.9187388469206109 -0.23891846283529808
3979250 0.9186559473291476 -0.2394601987983079
3980068 0.9184826690616685 -0.24027256825930968
3980885 0.9182010170074113 -0.24075208705575513
3981703 0.9181788060821141 -0.24134856241129962
3982520 0.9180335271805995 -0.24208410251643644
3983338 0.9178760977354283 -0.24264151634378864
3984156 0.9176098061696167 -0.24340612701319775
3984973 0.9173501560722995 -0.24390753811028376
3985791 0.917448076435108 -0.24456105657726546
3986609 0.9172088677092258 -0.24514591925531118
3987426 0.9170853827448022 -0.2457600258799702
3988244 0.9168698985259827 -0.24655612500826438
3989061 0.9166062399716898 -0.2470060901757071
3989879 0.9166273464818702 -0.24762809337148867
3990697 0.9161897754118243 -0.2483352062864992
3991514 0.9162277676344394 -0.2488649927289197
3992332 0.916072751723402 -0.24959634805203387
3993149 0.9159712813295898 -0.25013071971861284
3993967 0.915824164898419 -0.2506589729481088
3994785 0.9155994565623552 -0.2514778565979281
3995602 0.9155248878493116 -0.2521028129563453
3996420 0.9154021591932493 -0.2526615864487166
3997237 0.915231757415661 -0.25335470948331795
3998055 0.9149875652292029 -0.2539646880655048
3998873 0.9146465004445511 -0.25456857038960123
3999690 0.9145130523217319 -0.2550849797724689
4000508 0.9145270951456818 -0.2553135055928064
4001325 0.9143036607193391 -0.25630564740968576
4002143 0.9140581041879267 -0.257056210832454
4002961 0.9137629005750116 -0.2577956959100888
4003778 0.9137607493763406 -0.2583938298112365
4004596 0.9136922047303739 -0.2590471936979213
4005414 0.9133254876607113 -0.2595236721578824
4006231 0.9129501295504233 -0.260154019022853
4007049 0.9131318591387008 -0.2609560519107172
4007866 0.9127852953414327 -0.2615435839637591
4008684 0.9126013684870318 -0.2621378316763244
4009502 0.9124615681050459 -0.2627986633824221
4010319 0.9121482079907893 -0.26338592080408263
4011137 0.912190776180967 -0.2640597235634586
4011954 0.9119787419542237 -0.26476138685349276
4012772 0.9118362588393436 -0.26520721354671467
4013590 0.911748046836902 -0.26577942784399106
4014407 0.9114761342287448 -0.26651506643606576
4015225 0.911539239813252 -0.2671705369242828
4016042 0.9110932512571583 -0.2678840071459275
4016860 0.9109067850294873 -0.2684877775184802
4017678 0.9107503026618889 -0.26896632392309056
4018495 0.9105515209771644 -0.2695317285443011
4019313 0.9104350447825148 -0.2700501888944482
4020131 0.9102699944655032 -0.27084347865583724
4020948 0.9100441300865253 -0.2713848954559196
4021766 0.9098459951414319 -0.27217217013635553
4022583 0.9097052793440425 -0.27278700610309925
4023401 0.9095067790084276 -0.2732757733826668
4024219 0.9092781091881004 -0.27412490032387204
4025036 0.9092053710844342 -0.2746506917120617
4025854 0.9088787313042214 -0.2750990263047404
4026671 0.9085172773916111 -0.27567839937110034
4027489 0.9084644912799185 -0.27643060659669305
4028307 0.9084752540505605 -0.2771612205307784
4029124 0.9082272956337396 -0.2776905820451744
4029942 0.9079172545580141 -0.2783704107150977
4030759 0.9078252718352359 -0.2789640590173004
4031577 0.9077161244103858 -0.27960073661752605
4032395 0.9073643399907362 -0.2800610373410654
4033212 0.9072511845789308 -0.2806778787217128
4034030 0.9070852444304226 -0.2815865355414556
4034848 0.9069180489980943 -0.28215685653595163
4034848 0.9070950709352359 -0.28210037249666153
4035682 0.9067813498989009 -0.28264049084015685
4036517 0.9064338030890728 -0.28336807570520556
4037351 0.9063706771766589 -0.28391549252183157
4038186 0.9061369525023476 -0.28456268297550186
4039020 0.9058994489902084 -0.28504985176651715
4039855 0.905780080466686 -0.28572314451916586
4040689 0.9056444697898441 -0.2865404958491898
4041524 0.9054759027323529 -0.2873366165481657
4042358 0.9052347138214638 -0.2877359179876367
4043193 0.904995142105201 -0.288377566232801
4044027 0.9047298899817083 -0.28889593049527057
4044862 0.9045733431082531 -0.28968522898752375
4045696 0.9044340617253168 -0.2901944264638836
4046531 0.9043596474443001 -0.29093297071014695
4047365 0.9039181769069015 -0.29158344821205995
4048200 0.9038388857633681 -0.2921476694768004
4049034 0.9035756688812646 -0.29300115964209694
4049869 0.9032639970509179 -0.29360421384659885
4050703 0.9031363821986735 -0.2940457085975003
4051538 0.9029554114937128 -0.294717993050775
4052372 0.9026683398327219 -0.29525054478708446
4053207 0.902629715979027 -0.29591147802819956
4054041 0.9022706219952923 -0.29661709365028466
4054876 0.9020905246191561 -0.2972026971034772
4055710 0.9021617122799152 -0.29806393811916954
4056545 0.9017142388786656 -0.298482594984716
4057379 0.9014815770191195 -0.29906599328058253
4058214 0.9013360932504462 -0.2997923142717867
4059048 0.9011728177680209 -0.30042186652643527
4059883 0.9009871831580597 -0.3012035209632369
4060717 0.9007268276368016 -0.30185908317871823
4061552 0.9005788877391744 -0.3024907921416461
4062386 0.9002836605952066 -0.3029703623327008
4063221 0.9000770758560557 -0.30358283790039864
4064055 0.9000654428125517 -0.3042887036152665
4064890 0.899822252318342 -0.30488035330479685
4065724 0.8996198642436026 -0.30557142248758284
4066559 0.8992019802835359 -0.30614510311530835
4067393 0.8990670961460517 -0.3066917852258653
4068228 0.8988069450271734 -0.3073741955877141
4069062 0.8986119271809272 -0.3079572696888088
4069897 0.8983076953319754 -0.3085658259572129
4070731 0.8981506891843896 -0.3091250957051571
4071566 0.8979427863786684 -0.3097956123356582
4072400 0.8979488226816049 -0.31061044042376806
4073235 0.8975216733808403 -0.31109821410801997
4074069 0.8973907880310674 -0.3115864406201425
4074904 0.8970009854123258 -0.31233229285698977
4075738 0.8969141817455231 -0.31288569601511423
4076573 0.8967013103173451 -0.3135233197672015
4077408 0.8964424460400966 -0.31427161446367774
4078242 0.8961141203627051 -0.314911299707905
4079077 0.8959279383880187 -0.31544253174244075
4079911 0.8959133939377433 -0.3160291708306604
4080746 0.8955356322950314 -0.31669176576665753
4081580 0.8953243862152511 -0.31750334243848805
4082415 0.8951609887038748 -0.3180002864706749
4083249 0.894965782045154 -0.3186103636068229
4084084 0.8946531738799869 -0.31924845945445046
4084918 0.8944172046015293 -0.3198774568383353
4085753 0.8942940550276289 -0.3205385792251546
4086587 0.8941913671344839 -0.32120386954906843
4087422 0.8939808609262011 -0.3218472658908891
4088256 0.8938400332675793 -0.3223679589495973
4089091 0.8936230239075332 -0.32289879081624084
4089925 0.8932649097520343 -0.3237366494776574
4090760 0.8931001018891248 -0.3244272529755309
4091594 0.8931112535003902 -0.3249530498215705
4092429 0.8927282153070094 -0.3255092106833941
4093263 0.8922290266823111 -0.32626096257880954
4094098 0.8922742025899955 -0.3268088186915552
4094932 0.8919927882777356 -0.32733303074573433
4095767 0.8917699709334345 -0.3281339226142474
4096601 0.8916550128288163 -0.32867036859952137
4097436 0.8912835526826735 -0.32918062369170453
4098270 0.8910980139772174 -0.32982120085306144
4099105 0.8905015312253903 -0.33058671634984904
4099939 0.8906254724176438 -0.3312773162227516
4100774 0.8904874580314726 -0.3318054421268456
4101608 0.8900892165160368 -0.3324524515330544
4102443 0.8900640880146677 -0.33308924546472457
4103277 0.8895740085548571 -0.333678745983471
4104112 0.8893969399046218 -0.3343230337473855
4104946 0.8893289936560851 -0.3350261850820871
4105781 0.8890574176082702 -0.3355437863334485
4106615 0.8889644526970272 -0.3363085149968856
4107450 0.8887033573110074 -0.3369049041368114
4108284 0.8882614833147817 -0.3373062289410115
4109119 0.8880253626261115 -0.33810668977956443
4109953 0.8878055634621135 -0.3386055413244163
4110788 0.8875394371575167 -0.33905998583087554
4111622 0.8873577822998466 -0.3399159556141304
4112457 0.8870165697735037 -0.3407107920180127
4113291 0.8870234117183803 -0.3413422177542027
4114126 0.886889811276682 -0.34195741964884313
4114960 0.8864579018010781 -0.34236453164326947
4115795 0.8863846346936719 -0.34291943417758564
4116629 0.885962785959142 -0.34344030827240557
4117464 0.8857796425510424 -0.3442765299920075
4118299 0.8855114036252303 -0.34510915987854524
4118299 0.8849639732133635 -0.34500602258910296
4119150 0.8854427128529891 -0.34566591589504364
4120002 0.885156822131797 -0.34605942435773396
4120854 0.8848644039376178 -0.34674586585216466
4121706 0.8848304681965188 -0.34751618715158333
4122557 0.8844777358873956 -0.34796934979429284
4123409 0.8840510796318497 -0.3487531224740558
4124261 0.8839295366040311 -0.3494684957401406
4125113 0.8837534400054851 -0.3499221487145285
4125965 0.883568273753388 -0.35058703308899297
4126816 0.8833264331215647 -0.3513584612524894
4127668 0.8830016118648181 -0.3519709797159184
4128520 0.8826946122570187 -0.3525476217140185
4129372 0.8823527523230466 -0.3533313869887431
4130223 0.8823957012436527 -0.353876567350928
4131075 0.8821149190067381 -0.3545224311796861
4131927 0.8816689096431836 -0.3552396232486502
4132779 0.8815350627010554 -0.35578611595600895
4133631 0.8812533409535408 -0.3563015914837183
4134482 0.8809205444151581 -0.3568764112155462
4135334 0.8808816951709962 -0.35760929982311407
4136186 0.880374300636907 -0.35822786707749293
4137038 0.880024998130428 -0.3588958065183959
4137889 0.8800423396653408 -0.3595052907158607
4138741 0.8796188317599476 -0.3601558735688182
4139593 0.8795017563036638 -0.3606330528812059
4140445 0.8793305954084645 -0.3614275266328837
4141297 0.8790435513680529 -0.3619418436394015
4142148 0.8787693368753132 -0.36247783900557323
4143000 0.8785118997577861 -0.3632489868842514
4143852 0.8784014065575773 -0.3637692524684714
4144704 0.8781043133424448 -0.3645054662284046
4145555 0.877687048962449 -0.3652688373048274
4146407 0.8775648502766442 -0.36592626604990847
4147259 0.8774291180178333 -0.36649492667671085
4148111 0.877010110488167 -0.3670061032366568
4148963 0.8767205779042078 -0.367662197790556
4149814 0.8762647534118728 -0.3682790767816902
4150666 0.8761102147440923 -0.36895616637088663
4151518 0.8760966762228853 -0.3697661061575959
4152370 0.8758235665247555 -0.3703260019795104
4153221 0.8753906026441698 -0.3709360577892444
4154073 0.875191181901468 -0.3716154147786497
4154925 0.8748891073920196 -0.3721105994743641
4155777 0.8745745689143971 -0.3726351788989796
4156629 0.874568905509795 -0.37347192311444644
4157480 0.8741746840681289 -0.37414388457792985
4158332 0.8739279681757239 -0.3747539208061511
4159184 0.873557599043865 -0.3753310886841343
4160036 0.8732644387414655 -0.3757922876626604
4160888 0.8731519863143669 -0.376555163297264
4161739 0.8728762631100057 -0.3773121444398086
4162591 0.8728454060995543 -0.37789236452665814
4163443 0.8722645691763178 -0.37831871624224694
4164295 0.8717928227762094 -0.37893963645859746
4165146 0.8716245023629842 -0.3796543384502176
4165998 0.8712922047490016 -0.3802136851752296
4166850 0.8713000156277176 -0.38086859521910005
4167702 0.8710685527380078 -0.38166046631876427
4168554 0.8706536978603305 -0.382201249445043
4169405 0.8705896363080937 -0.3827629193756683
4170257 0.8701531429171211 -0.383393794048268
4171109 0.8698204553579476 -0.38392303123899235
4171961 0.8695299058057228 -0.3845382746655735
4172812 0.8692111966066046 -0.3853262736830782
4173664 0.8689061658572393 -0.38595259130905163
4174516 0.8687758922022992 -0.38664545078905926
4175368 0.8685562722707122 -0.38720952583453716
4176220 0.8681892148413538 -0.3879212049837148
4177071 0.8680875458334026 -0.38843962603327714
4177923 0.8679837535217187 -0.38915205634132294
4178775 0.8675583467106873 -0.38971891588113333
4179627 0.8671602563031722 -0.3902963431873246
4180478 0.8668842514712076 -0.39079299525424416
4181330 0.8665146300721285 -0.39152874011832306
4182182 0.8663929764937861 -0.3922011171210476
4183034 0.8660460208031269 -0.39276393240013113
4183886 0.8656514657355494 -0.39328292976192974
4184737 0.8657671268986558 -0.3940784586714122
4185589 0.8652683172129818 -0.3947194702256154
4186441 0.8651584509742012 -0.39556277019011327
4187293 0.8648114690703338 -0.39594049929251074
4188144 0.864373518221592 -0.39642052152990753
4188996 0.8643045406236921 -0.39719780151271944
4189848 0.8639773233317483 -0.39776400727953276
4190700 0.863551931759742 -0.3984167335523022
4191552 0.8632334852938365 -0.3989787568254368
4192403 0.862900667183578 -0.3994857355512731
4193255 0.8626398269562883 -0.4002219651441534
4194107 0.8623192362573918 -0.40074342357041454
4194959 0.8621106933196959 -0.4013913958150748
4195810 0.8617783280548215 -0.4019372810787379
4196662 0.8615559453853733 -0.40271560693492026
4197514 0.8615177271663477 -0.4034440022727495
4198366 0.8610718321514756 -0.40399089716346687
4199218 0.860614034751163 -0.40458313083731545
4200069 0.8604379674860965 -0.4052317765658874
4200921 0.8600095353214972 -0.40577936193956815
4201773 0.8596744488593101 -0.40630235869248915
4202625 0.8593993135545596 -0.40696674157682866
4203477 0.859421123751949 -0.407757035069886
4203477 0.8593823616599559 -0.4079467314394423
4204346 0.8591487872472602 -0.408239606457305
4205215 0.8588276819067724 -0.40881845998457744
4206085 0.8584389012102589 -0.4093581580495801
4206954 0.8579389108314887 -0.4100399866883355
4207823 0.8576649098099085 -0.4106802164171964
4208693 0.8573549253397507 -0.41123110437846977
4209562 0.8573402364847151 -0.41203123108925793
4210432 0.8569580081016921 -0.4126277903610943
4211301 0.8564898781355882 -0.4131708277832212
4212170 0.8566116367841905 -0.4140003385430777
4213040 0.8561245226917455 -0.41457787941177127
4213909 0.8555923322104185 -0.41530014069852966
4214779 0.8554855123820385 -0.41587343468778315
4215648 0.8551160283833584 -0.41647331782828667
4216517 0.8546371675255913 -0.4171404702993718
4217387 0.854498418838998 -0.4177481139848183
4218256 0.8542732160964388 -0.4182290640572644
4219126 0.8541509236253824 -0.41894255823265814
4219995 0.8539587715641047 -0.4195549564460063
4220864 0.8535003417925507 -0.420126553075525
4221734 0.8531525796549376 -0.42075578689739745
4222603 0.8528082255282867 -0.4214324882953022
4223472 0.8526639602716475 -0.42214894689241345
4224342 0.8524255123915383 -0.4226499609238588
4225211 0.8520127713568134 -0.423364463684374
4226081 0.8517170170201622 -0.4240264547716299
4226950 0.8513211606055441 -0.4245856113947443
4227819 0.850876978841581 -0.4252783978004948
4228689 0.8507195345569017 -0.4258318918332766
4229558 0.8506543245262684 -0.42630847479145395
4230428 0.8501673165103584 -0.42705691775930604
4231297 0.8498493463494681 -0.42776549335423114
4232166 0.849482650566153 -0.42850649673330515
4233036 0.8491128402959034 -0.42891807922051184
4233905 0.8487601689099203 -0.42953966159782647
4234775 0.848515473763581 -0.43008999709105156
4235644 0.8483134720834061 -0.43087172484889247
4236513 0.8479986934728034 -0.4314419184858993
4237383 0.847783643300983 -0.43196076538420003
4238252 0.8472973092998879 -0.43264796638630665
4239121 0.8469860189859425 -0.4332070793846935
4239991 0.8466301162816439 -0.4337214649981397
4240860 0.8461696769402978 -0.4343590234174986
4241730 0.8461499277772634 -0.4352078160194669
4242599 0.8457886757329139 -0.43590146240192634
4243468 0.8454001392645816 -0.4363695437615988
4244338 0.8451542665924974 -0.4370758445164166
4245207 0.8448499343487669 -0.4377125933622322
4246077 0.8444113582648407 -0.43805620922449395
4246946 0.8443398265700903 -0.4387473874220482
4247815 0.8437611529859986 -0.43947248245928533
4248685 0.8434622386458237 -0.43985105178546813
4249554 0.8433148703801984 -0.4406405795024571
4250424 0.8429837982964533 -0.4413601688110267
4251293 0.8424404048762941 -0.4418390719214616
4252162 0.842183166902136 -0.44267477646497455
4253032 0.841865474708983 -0.4431139541332779
4253901 0.8414577665054799 -0.4436279021325193
4254771 0.8412523959388782 -0.4444867366543799
4255640 0.8410945441450123 -0.4449426701399377
4256509 0.8408756490863459 -0.4456448616358275
4257379 0.8405451033360944 -0.4462355820950526
4258248 0.8402690577822843 -0.44683276919002884
4259117 0.8396975586178045 -0.44752074951907356
4259987 0.8393517848423384 -0.4481322741303406
4260856 0.8390832740235782 -0.4487828018544485
4261726 0.8387176258592638 -0.44926304850945054
4262595 0.8383052399634695 -0.4499510866867122
4263464 0.8380283850499013 -0.45067207146430194
4264334 0.8377301633045731 -0.45103542359680243
4265203 0.8376148272340372 -0.4519215596959977
4266073 0.8370879574549137 -0.45256236036459646
4266942 0.8368233565557343 -0.453086352857631
4267811 0.836368172208553 -0.45366062195692103
4268681 0.8360474142116088 -0.45428424987235727
4269550 0.8357275206302971 -0.4548897197210945
4270420 0.8354397599827129 -0.45551232097584926
4271289 0.8350938154062432 -0.4560609350875746
4272158 0.8345924458701368 -0.45653017286157055
4273028 0.8343540130120051 -0.4571195860439769
4273897 0.8340729066619855 -0.4579123774162957
4274766 0.8339071708849772 -0.45855858080458023
4275636 0.8335424683049782 -0.45919400804646454
4276505 0.8331621169863945 -0.4598022440820186
4277375 0.8328956881509865 -0.46024614185640295
4278244 0.8323505420641155 -0.4608123003379636
4279113 0.832145164287075 -0.4615725823696039
4279983 0.8317882471467348 -0.4621848350551422
4280852 0.8315208114913323 -0.46277201944659563
4281722 0.8310629508813511 -0.46342767808116564
4282591 0.8308680057394654 -0.46386425928729696
4283460 0.8304596758137702 -0.4645713200550079
4284330 0.8301403195615579 -0.4653327198122449
4285199 0.8297763400461214 -0.4659704199144931
4286069 0.8294381147030423 -0.4664358432875482
4286938 0.8289869425924671 -0.46696608557779107
4287807 0.8287899680979369 -0.46764533875068043
4288677 0.8284159066368012 -0.4682314280044937
4289546 0.828221810875776 -0.4687553653631582
4290416 0.8279209977563002 -0.4694876642915744
4290416 0.8275295912009842 -0.4696604124278417
4291303 0.8275279141038847 -0.4699781049607939
4292190 0.826939065154066 -0.4705855477269742
4293078 0.8267238433969597 -0.4713337119519727
4293965 0.8264512333016604 -0.47185812496497154
4294852 0.8261172874384574 -0.47232215293891194
4295740 0.8258905709451337 -0.4733135869012606
4296627 0.825591290429221 -0.4738748712164478
4297514 0.8252311300606633 -0.47450936305074537
4298402 0.8247976553544344 -0.4751550739456753
4299289 0.8244068107365865 -0.47577340465708756
4300177 0.8238860784230274 -0.4762131563631049
4301064 0.8236957698254298 -0.4769512469799726
4301951 0.823455060637017 -0.4775116480951793
4302839 0.8230766056158128 -0.4780302479966092
4303726 0.8225582197409375 -0.4787505162328291
4304613 0.822324244083096 -0.479209723916189
4305501 0.8219149479296294 -0.479933790863934
4306388 0.8214482527182507 -0.48070791326743806
4307276 0.8210393546842761 -0.4810450659717429
4308163 0.820899919589151 -0.48186639425569006
4309050 0.8204600113444909 -0.48267379366136504
4309938 0.8204580522001284 -0.48325169416306124
4310825 0.8198842226900984 -0.48364910489566976
4311712 0.8196628191392601 -0.48420439363655154
4312600 0.818991341387519 -0.48474483300331334
4313487 0.8188095441847096 -0.48534495073351186
4314374 0.8184468523274258 -0.48609121158734936
4315262 0.8179727058644097 -0.48664530771864334
4316149 0.8177273803011567 -0.4873510532815496
4317037 0.8171265609721918 -0.4880424279437247
4317924 0.8169493770409068 -0.48865813823310533
4318811 0.8163554009673475 -0.4890677088913575
4319699 0.8160032483308549 -0.489694077074732
4320586 0.815884485099585 -0.4905646311622755
4321473 0.8154282777751934 -0.4911234982600984
4322361 0.8148964068552418 -0.4914575494040259
4323248 0.8146095582081821 -0.4920582962402492
4324136 0.8142894747714219 -0.4927375542065841
4325023 0.8140253118405909 -0.4934780485305548
4325910 0.8137498982482629 -0.49415485290101363
4326798 0.8134543217277527 -0.4947793445522778
4327685 0.8129376451302552 -0.49526020801759646
4328572 0.8125374055208416 -0.495900477728233
4329460 0.8122081126494091 -0.49638697239543056
4330347 0.8118752381233719 -0.4969892962238868
4331235 0.8115913371480531 -0.4978570603076805
4332122 0.8111520409645401 -0.4984396174304821
4333009 0.8105730972115164 -0.49893633682756905
4333897 0.8100495753925505 -0.4995920575236822
4334784 0.809993146503829 -0.5003554752662952
4335671 0.8098161621765112 -0.5009110338399773
4336559 0.8094951506532988 -0.5015572876303691
4337446 0.8089935490931098 -0.5020103971430587
4338333 0.80880553821183 -0.5025064106097118
4339221 0.8080345300550585 -0.5031213228497762
4340108 0.8077283074560606 -0.5038295429928572
4340996 0.8074338114680293 -0.5043776299182211
4341883 0.8070542627904624 -0.5051214194367613
4342770 0.8066603425781971 -0.5056376550482444
4343658 0.8064448298560621 -0.5062362288087866
4344545 0.8058081736354427 -0.506791084586929
4345432 0.8057317170364935 -0.5074938863270427
4346320 0.8052464843559329 -0.5080944484487898
4347207 0.8048093133798658 -0.5087016922221228
4348095 0.8045903883913844 -0.509189471707849
4348982 0.8043201658966149 -0.5099407798410526
4349869 0.8037034010774026 -0.510427121944552
4350757 0.8033304449123813 -0.5109008501673322
4351644 0.80302888923707 -0.5115679032309615
4352531 0.8025195734907992 -0.5122315912246743
4353419 0.8020958538948405 -0.5127361430614806
4354306 0.8018852263079976 -0.5133187160470754
4355194 0.8014864754831752 -0.5142287887626753
4356081 0.801252872803178 -0.5148239948939181
4356968 0.8010216135639742 -0.5153599289100351
4357856 0.800262363037411 -0.5157174984280928
4358743 0.799975542786692 -0.5163819794743122
4359630 0.7996104036619692 -0.5170295700256324
4360518 0.7991175864235983 -0.5175502280678183
4361405 0.7987143254281723 -0.5180728837798005
4362292 0.7983060538007893 -0.5187459401241499
4363180 0.7978696117894415 -0.5191612551386785
4364067 0.7976652530573035 -0.5200404786944962
4364955 0.7970684260021254 -0.5204863205352708
4365842 0.7967642464230884 -0.5210871758077383
4366729 0.7964173343504763 -0.5216603892867563
4367617 0.7961100145126396 -0.5224179937054756
4368504 0.7956397707915489 -0.5228556584078882
4369391 0.795295520931427 -0.5234792613386583
4370279 0.7949106450172412 -0.5241813915317909
4371166 0.7945843149791361 -0.5247525884327703
4372054 0.7940324275000978 -0.5252268122597217
4372941 0.7936936333534664 -0.5258466665081419
4373828 0.7932765537482929 -0.5261780714690938
4374716 0.7929026217512044 -0.5271057513780217
4375603 0.7926057179152096 -0.5278335228401645
4376490 0.7923078958678389 -0.5283235660435422
4377378 0.7918794619863442 -0.5290381289064178
4378265 0.791581235205255 -0.5296606859030357
4379153 0.7910402904266931 -0.5301213490244181
4379153 0.790930593805793 -0.5296523286483152
4380058 0.7905009841586857 -0.5307297187199046
4380964 0.7902543259920402 -0.5312423638056211
4381870 0.7898890837759053 -0.5318742657280763
4382775 0.7894475175157629 -0.5325734037906451
4383681 0.7891613774868472 -0.5332554530296139
4384587 0.7885705902055176 -0.5335878163324443
4385493 0.7884206079119856 -0.5342312413849641
4386398 0.7880503543013052 -0.534785720469457
4387304 0.787635794167873 -0.5355224853107812
4388210 0.7868182976461843 -0.5360988321388559
4389116 0.7864323080474321 -0.5367137975815702
4390021 0.7862346765283663 -0.5372631486802854
4390927 0.7857543263784963 -0.5378295712930181
4391833 0.7855152876975189 -0.5384759923495352
4392738 0.7852854238815482 -0.5390326867282628
4393644 0.7845518828823154 -0.5399934208423085
4394550 0.7842588721219196 -0.5404817196912378
4395456 0.7838866037515344 -0.5410335261458024
4396361 0.7832994550646236 -0.5416161420891649
4397267 0.7832326111945591 -0.5420898658165137
4398173 0.7827985879979136 -0.542648229708467
4399079 0.7823451696055611 -0.5434074093202
4399984 0.7818460098351317 -0.5439668161088642
4400890 0.7812390126292944 -0.5444326660355723
4401796 0.780806002039725 -0.545312325904845
4402701 0.7807670915360909 -0.5458307505364397
4403607 0.780177391184644 -0.5462474154368991
4404513 0.7796304709317813 -0.5468639572640823
4405419 0.7791364670485603 -0.5474006166187971
4406324 0.7788654348437202 -0.5480605526023982
4407230 0.77840015251142 -0.5486824526019756
4408136 0.778132411910861 -0.5492697608478372
4409042 0.7777831296952071 -0.5497767225665271
4409947 0.7769824888096154 -0.5503683019956065
4410853 0.7767924889561227 -0.5512114526365112
4411759 0.776468555276757 -0.5517357183154435
4412665 0.7759558285021558 -0.5521555636122232
4413570 0.7755528233449129 -0.5527575212975044
4414476 0.7751009404950499 -0.5532958666444949
4415382 0.7746015333855562 -0.5540711970907441
4416287 0.7743216784369488 -0.5546567270001803
4417193 0.7739974508648576 -0.5553481534400762
4418099 0.7734146872967738 -0.5558373952992519
4419005 0.7730688713174012 -0.5564654789211994
4419910 0.7727201142265903 -0.5570565429402251
4420816 0.7721274671137578 -0.5575018291975543
4421722 0.7718003384668066 -0.558120668775037
4422628 0.7712064377955267 -0.5587333714625904
4423533 0.7707548894080304 -0.5594258858180426
4424439 0.7704877567194123 -0.5600709419076951
4425345 0.7702283851576157 -0.560649985978567
4426250 0.7696269733081951 -0.56122761670527
4427156 0.7692565158402666 -0.5618903520302406
4428062 0.7689904033777744 -0.5623026074556859
4428968 0.7685531252938577 -0.5630066156829926
4429873 0.7679396035846481 -0.5634349170034135
4430779 0.7674617791924857 -0.5640781126417937
4431685 0.7670136957604833 -0.5646671731069689
4432591 0.7665685521241817 -0.5652657723160992
4433496 0.7661315080939244 -0.5658454910935183
4434402 0.7655936803122707 -0.5664092413702244
4435308 0.7653431635156944 -0.5669476823449119
4436213 0.7650168569692009 -0.567653579012496
4437119 0.7643003330875169 -0.5681615387273272
4438025 0.7640031161496206 -0.5686579422864301
4438931 0.7637578042594878 -0.5693239706668017
4439836 0.7632418017397111 -0.5698844743517691
4440742 0.7627886174142167 -0.5703435316371189
4441648 0.7623340298999192 -0.5709041433071343
4442554 0.7618286747065698 -0.5716828372500267
4443459 0.7614993311034352 -0.5723505348712014
4444365 0.7610212677818706 -0.572682429629409
4445271 0.7605696248993616 -0.5733197486332929
4446177 0.7602641179992637 -0.5740560089356368
4447082 0.7598195076246795 -0.5745226548768178
4447988 0.7594214163900361 -0.5751525986435945
4448894 0.7588793534132227 -0.5758444786532858
4449799 0.7586262658018698 -0.576306819054
4450705 0.7580271853062706 -0.576851986894723
4451611 0.7577238596322066 -0.5773370149188961
4452517 0.7573238448906777 -0.5779540195804109
4453422 0.7569513765803864 -0.5786596249318945
4454328 0.7562593278200325 -0.5791299520802948
4455234 0.7555421067180216 -0.5797429790431066
4456140 0.7551218482533483 -0.5803954725257329
4457045 0.7547766190633225 -0.5809874285032565
4457951 0.7543985052025751 -0.5816485027365615
4458857 0.7541584359704568 -0.5821517954107954
4459762 0.7536807738571096 -0.5825513213368245
4460668 0.7533921360366653 -0.5830779430412621
4461574 0.7528775728891948 -0.5837614901190739
4462480 0.7525633690455094 -0.5841899416449045
4463385 0.7519551148502022 -0.5847794973314312
4464291 0.7514064459368265 -0.5856231466683879
4465197 0.7510500330564002 -0.5862955226684013
4466103 0.7507998588018376 -0.5867279991025772
4467008 0.7503325718885783 -0.587472834744305
4467914 0.7498172389205677 -0.5878950360827837
4468820 0.7494217835251349 -0.5885661589373516
4469726 0.7487747685983495 -0.5890758898412188
4469726 0.7482768314038613 -0.5886717276030287
4470650 0.7485960575715875 -0.589780849786819
4471574 0.7479749959282084 -0.5901463473032836
4472499 0.7474444915743553 -0.5908446138095493
4473423 0.7470683678466017 -0.5914031805458695
4474348 0.7465862764380515 -0.5919809225892515
4475272 0.7461446300877808 -0.5924530293214497
4476197 0.745859970463846 -0.5931140084055511
4477121 0.7455118996546096 -0.5939600116431392
4478046 0.7446825908047605 -0.594243552507751
4478970 0.744240786333335 -0.5949165861019019
4479895 0.7439918969755853 -0.5956330706336648
4480819 0.7431356018112392 -0.5957853782018727
4481743 0.7426403702584886 -0.5960864167173665
4482668 0.7424652699340494 -0.5971446545746406
4483592 0.7418655671234532 -0.5979229981677409
4484517 0.7411732443188906 -0.5983001156905584
4485441 0.7410766646586596 -0.5988576748915464
4486366 0.740606490550176 -0.5993800843773754
4487290 0.7401434539285784 -0.6001724349396254
4488215 0.7396127668995205 -0.6005787128363598
4489139 0.7390392329718001 -0.6011922727031505
4490064 0.7385907020957662 -0.6016776614044047
4490988 0.738156005882114 -0.602322617959934
4491913 0.7376485331363254 -0.6029500841115829
4492837 0.7370755908545246 -0.603474387302151
4493761 0.7368176496203683 -0.6040585781998802
4494686 0.7363176244821503 -0.6046017583215085
4495610 0.7358642136547627 -0.6052344338738406
4496535 0.7355988982868543 -0.6059023750121975
4497459 0.7351196296847954 -0.6064859874444332
4498384 0.7343625886095635 -0.6068687231544297
4499308 0.7341507748745831 -0.6075589331551225
4500233 0.7335575944102275 -0.6080301203433
4501157 0.7330342069413223 -0.608536375747581
4502082 0.7327524051243478 -0.6091317317185971
4503006 0.7321068744988047 -0.6096538799545411
4503931 0.7315955822421137 -0.6103175823165286
4504855 0.731189764075701 -0.610877670175026
4505779 0.7307590593242136 -0.6116144562614131
4506704 0.7304252405218767 -0.6123947503146886
4507628 0.7299665975462317 -0.612841926556235
4508553 0.7293663250080747 -0.6131367943264405
4509477 0.7288419632990555 -0.6135844749792851
4510402 0.7281308456016752 -0.6142756727900045
4511326 0.7279283806142037 -0.614865962120977
4512251 0.7275502657327555 -0.6155179529502864
4513175 0.7268195465431538 -0.6159825473201137
4514100 0.7265039610543887 -0.6165985599454109
4515024 0.7260653032441714 -0.6172746887252367
4515949 0.7256161459801624 -0.6177059187368604
4516873 0.7251670030069433 -0.6182699062440007
4517797 0.7247139872474945 -0.6189769002708623
4518722 0.7241789702603946 -0.6194508981896019
4519646 0.7236405686087584 -0.6200569260848868
4520571 0.7231359528029037 -0.6207216534874731
4521495 0.7226476959460651 -0.6212442106925757
4522420 0.7222994392022325 -0.6218504730042165
4523344 0.7216145585156211 -0.622437730927398
4524269 0.7211298279524267 -0.6229540805948488
4525193 0.720748841927026 -0.6235515321402375
4526118 0.7202818031613488 -0.6241240992381396
4527042 0.7197759443909418 -0.6246300480362397
4527966 0.7194264107061638 -0.6250908324319164
4528891 0.7188122639245611 -0.6254915415900801
4529815 0.718248394379142 -0.6261880588008902
4530740 0.7178155713098981 -0.6269215228756886
4531664 0.7171411605227425 -0.6274246563408219
4532589 0.7168682339004142 -0.6277693296756943
4533513 0.7164214179792253 -0.6285756582762303
4534438 0.7158213542600961 -0.629140700174872
4535362 0.7153978767771312 -0.6297125328027223
4536287 0.7148176485085941 -0.6301101713907795
4537211 0.7144084947686811 -0.6307505273658478
4538136 0.7138005999521599 -0.6312358686288639
4539060 0.7136343916142941 -0.6319077544869703
4539984 0.7131389493622899 -0.6323950092277485
4540909 0.7125522689915071 -0.6331528832407586
4541833 0.7118762582163002 -0.6334591390535405
4542758 0.7115600469951702 -0.6340156089806851
4543682 0.7111038240228378 -0.6347020874236634
4544607 0.7104774575412618 -0.6351411715469996
4545531 0.7102613442524108 -0.6359759416066628
4546456 0.709512028848935 -0.6363165008667037
4547380 0.7090074621707666 -0.6367476162813375
4548305 0.7085123977889758 -0.6373481039407873
4549229 0.7080068442763375 -0.637967926143752
4550154 0.7073849579374303 -0.6383904298489356
4551078 0.7071835006445487 -0.6391295820720907
4552002 0.706727622565067 -0.639643373979672
4552927 0.7061212902924148 -0.6401491895651327
4553851 0.7056364304732249 -0.640690163372713
4554776 0.7051481592895625 -0.6414041726618205
4555700 0.7044562018699356 -0.6418242065536341
4556625 0.7040106031284371 -0.6424314227133737
4557549 0.7037138729030482 -0.6430208550463782
4558474 0.7029040863675493 -0.6435180084532127
4559398 0.7026411317831499 -0.6441510504642934
4560323 0.7021522428456407 -0.6446804314801561
4561247 0.7015120101448669 -0.6451500901933087
4562172 0.7010933200544517 -0.6457280956071145
4562172 0.7008608351925513 -0.6455559395733529
4563115 0.7007972351478382 -0.6463968335176441
4564059 0.7000893379282679 -0.6467224820161465
4565002 0.6995499382792533 -0.6472980183502044
4565946 0.69915321149703 -0.647803999065464
4566889 0.6985251127650732 -0.6485057226475439
4567833 0.6978862359756908 -0.6490620339936553
4568777 0.697611549243694 -0.649589341534033
4569720 0.6972205152156303 -0.6502656711252036
4570664 0.6964892333840256 -0.6507794393208006
4571607 0.6958801416323533 -0.6511729616826352
4572551 0.6953152120379915 -0.651640429545291
4573494 0.6947585217713004 -0.65230268523101
4574438 0.6944546671205685 -0.6529123242837203
4575382 0.6939120456447276 -0.6534175050439108
4576325 0.6933549221839143 -0.6539358328741094
4577269 0.6926695326889646 -0.6542897469028877
4578212 0.6922849727187729 -0.6551782632625636
4579156 0.6918926163055397 -0.6556879329675805
4580100 0.6913147016167657 -0.6562749541156356
4581043 0.6907393177859161 -0.6566811020737627
4581987 0.6904054097100186 -0.6572872135076431
4582930 0.6897031411726326 -0.6579894263743223
4583874 0.689109739461988 -0.6584185555305001
4584817 0.6887845286951298 -0.6589559789240595
4585761 0.6882416374455852 -0.6595703178277713
4586705 0.6876922330835444 -0.6601827082656617
4587648 0.6872118321266396 -0.6605637315811883
4588592 0.6867650976594001 -0.6611490273148011
4589535 0.6858943072678707 -0.6617026355735515
4590479 0.6857153197347172 -0.6624558472679427
4591422 0.6850696083266573 -0.6628392366964182
4592366 0.6843933333955732 -0.6634859052398446
4593310 0.6841134412211286 -0.6638507762085594
4594253 0.6837337479324392 -0.6643476475818241
4595197 0.683001799149776 -0.6650437154603889
4596140 0.6823358867331564 -0.665535874517836
4597084 0.6819499055453979 -0.6661512611776679
4598028 0.6813938358734485 -0.6668199914823846
4598971 0.6808529373890592 -0.6671993300120159
4599915 0.6802680607573681 -0.6674666351467453
4600858 0.6799638712064318 -0.6683528206653412
4601802 0.679296670463505 -0.6689565669290058
4602745 0.6787923287514266 -0.6693223154451802
4603689 0.6781178720827158 -0.6698491748792639
4604633 0.6775732005197688 -0.6703858422707809
4605576 0.6770627445894831 -0.6708248903648554
4606520 0.6766942330927911 -0.6715106991541213
4607463 0.6760238592493374 -0.6720663161282816
4608407 0.6753222414334205 -0.6727282777231829
4609351 0.6750865430501605 -0.6729584582938778
4610294 0.6745708398494957 -0.6735806564373268
4611238 0.673957864371612 -0.6742570908934232
4612181 0.6733485150102498 -0.6746187393709056
4613125 0.6729268074844408 -0.6752198044146277
4614068 0.6721647269804807 -0.6757576175319145
4615012 0.6718925109592301 -0.6761402577403653
4615956 0.6713047927704852 -0.6766310667270795
4616899 0.6706005720884719 -0.6774455579190856
4617843 0.6698874307200221 -0.6777794933276461
4618786 0.6696672340751385 -0.6785609384995195
4619730 0.6691706973424828 -0.6790517269771477
4620673 0.6686934955065195 -0.6794430108586068
4621617 0.668193376616446 -0.6799630493239642
4622561 0.667448286768668 -0.6805201204777523
4623504 0.6668641853197159 -0.6810388126026495
4624448 0.6664724266105925 -0.6816479697377391
4625391 0.6659225600982182 -0.6823433638348044
4626335 0.6652633770509991 -0.6825933262758529
4627279 0.6648059715809633 -0.6831855963542789
4628222 0.6645022723040527 -0.684166793104103
4629166 0.6640240075690584 -0.6848478555382143
4630109 0.6631625638689304 -0.6847665974390864
4631053 0.6628608116246945 -0.6851851985431868
4631996 0.6622404833871157 -0.6858236342637597
4632940 0.6615074237594657 -0.6862736739414587
4633884 0.6609894940531712 -0.686880888167019
4634827 0.6605450415989268 -0.6875142809930087
4635771 0.6597639499065726 -0.6879891152135431
4636714 0.6592646889999519 -0.6884299519845838
4637658 0.6590270603170971 -0.6891883349399387
4638601 0.6583502590034354 -0.689671847170508
4639545 0.657676676522013 -0.6900267442247151
4640489 0.6571365351480734 -0.6907183379493071
4641432 0.6563403963086828 -0.6911535705602045
4642376 0.6559535614902741 -0.6916741236753161
4643319 0.6553303338369217 -0.6921863202132795
4644263 0.6548320438731186 -0.6928042760837685
4645207 0.6544782934383956 -0.6934916291888634
4646150 0.6537577905650851 -0.6939020496905998
4647094 0.6533385722868151 -0.6945247155289388
4648037 0.6530299793762973 -0.6948096131552548
4648981 0.6523775976069675 -0.6953297534503892
4649924 0.651756457234769 -0.6959456543328135
4650868 0.6512303937547651 -0.6964336744627545
4651812 0.6506376657392667 -0.69682719906396
4652755 0.6501125540673283 -0.6974353790262886
4653699 0.6496471435755362 -0.6977734807657175
4654642 0.6490554285422404 -0.6983823196402437
4655586 0.6486840456863583 -0.6991191557717562
4656530 0.6479697380148239 -0.6993641755347699
4656530 0.6487087175727746 -0.6989582170326032
4657493 0.6469693542981781 -0.6997205714230242
4658456 0.646698668788005 -0.7004895471923216
4659419 0.6463994175739353 -0.7011603190956568
4660382 0.645531825980998 -0.7016557867085975
4661345 0.6451192595667165 -0.702252545514145
4662308 0.6445610718301878 -0.7028059685201383
4663271 0.6439266737340664 -0.7033222182872066
4664234 0.6433906347700985 -0.7036217380063863
4665197 0.6427305488029218 -0.7041869867133961
4666161 0.6422162234392162 -0.7048293835705771
4667124 0.6417325760093411 -0.7052532656605383
4668087 0.6412033819711234 -0.7057600169895192
4669050 0.6405816012578847 -0.7063321376710727
4670013 0.6399197346369423 -0.7068098093815977
4670976 0.6391405548249055 -0.7073467410416631
4671939 0.6387764247703362 -0.7079048547024307
4672902 0.6380682778324354 -0.7084373657175311
4673865 0.6376054411988937 -0.7090121323320907
4674828 0.6372520712245561 -0.7094542130172193
4675792 0.6366392627956423 -0.7098628701381392
4676755 0.6358335345900403 -0.7103245593884442
4677718 0.6355249168618099 -0.7110580682168279
4678681 0.6348347431040346 -0.7114325892907047
4679644 0.6342770072942032 -0.7121527318636183
4680607 0.6337089306025461 -0.7126679990674565
4681570 0.6332033851224799 -0.7131241971525473
4682533 0.6322162970956634 -0.7137673865987737
4683496 0.6317649252266582 -0.714190128134693
4684459 0.6312942962282149 -0.7145228086317439
4685423 0.6306636921771107 -0.7151435949284428
4686386 0.6301973616612014 -0.7157307131454672
4687349 0.6296732815175495 -0.7163185764440849
4688312 0.6291774467127262 -0.7167923811585039
4689275 0.6282440318143924 -0.7170338304882516
4690238 0.6278715073609638 -0.7176174240721138
4691201 0.627337268934695 -0.7182530315943001
4692164 0.626625975065424 -0.7187849534415701
4693127 0.6259981292891962 -0.7192877787791327
4694090 0.6254931047781952 -0.7197619025585882
4695054 0.6248927106399046 -0.7203717020301599
4696017 0.6243275945314173 -0.7208661111011632
4696980 0.6239437023026102 -0.7212619657081669
4697943 0.6232667502912488 -0.7217441881078097
4698906 0.6227245006145472 -0.7224610100908562
4699869 0.622075677289763 -0.7228168655831485
4700832 0.6214255136924349 -0.7234190822691121
4701795 0.6207235887331487 -0.7236945240063332
4702758 0.6203195382160158 -0.7243666540969952
4703721 0.6197308629750496 -0.7248420967273254
4704685 0.618964814511658 -0.7251488198036989
4705648 0.6183827576466568 -0.7255295749104103
4706611 0.6177284868501679 -0.7261101880476896
4707574 0.6172505538816198 -0.7270340882986239
4708537 0.6165938146088654 -0.7275767542581032
4709500 0.6159180555241962 -0.7280550854453155
4710463 0.6155600591951548 -0.7286102542182918
4711426 0.6149262918899333 -0.7289453280887469
4712389 0.6140865996948787 -0.7293234441131674
4713352 0.613613430022474 -0.7297225611057173
4714316 0.613184228979057 -0.7303732083294097
4715279 0.6123794779213043 -0.7308798752938556
4716242 0.6117756324055821 -0.731357592635756
4717205 0.6113940306233698 -0.7318765962533681
4718168 0.6108286368310719 -0.7324577964465766
4719131 0.6101028043566644 -0.7327156020478175
4720094 0.609605009681961 -0.7332169893790444
4721057 0.6090514243671062 -0.7337171256466
4722020 0.6084109958017825 -0.7342739630464425
4722983 0.6077557021986235 -0.734723448751024
4723947 0.6073884509740629 -0.7352422071813332
4724910 0.6068879965496119 -0.7357157428545049
4725873 0.6061326020577006 -0.7361946868014697
4726836 0.6053732437054424 -0.7368732374066574
4727799 0.6047856336158398 -0.737107102562849
4728762 0.6042770065996265 -0.7377672271928974
4729725 0.6037604793738812 -0.7383653863143058
4730688 0.6031486265026317 -0.7385886726519587
4731651 0.6025219216143033 -0.7390432185741955
4732614 0.6016827088912426 -0.7395969209813696
4733578 0.6010949609962525 -0.740030727672986
4734541 0.6005919062209021 -0.7405905345200218
4735504 0.6001029997943925 -0.7413906667785116
4736467 0.5993783753271947 -0.7416588606563882
4737430 0.5987639918939158 -0.7419202623310659
4738393 0.5979786211273251 -0.7425171147314336
4739356 0.5975473007017694 -0.7430911124378606
4740319 0.5970224268064807 -0.7434627473712537
4741282 0.596418401358676 -0.7440721756399855
4742245 0.5959086452194424 -0.7447891530393227
4743209 0.595320211698341 -0.7451605690333181
4744172 0.5946321168242554 -0.745506287922471
4745135 0.593909887780511 -0.7462460944510014
4746098 0.5932207593953206 -0.7463954715735568
4747061 0.5927692223589511 -0.7468933778331
4748024 0.5922763075333278 -0.7475259885178794
4748987 0.5916328959405917 -0.7476921115540638
4749950 0.5909143892009348 -0.7482101991153535
4750913 0.59035157456446 -0.7489588656567099
4751876 0.5896647034512471 -0.7495437322748955
4752840 0.5890976984282931 -0.7496297142592909
4752840 0.5888513852416805 -0.7496430501075608
4753823 0.5887301467831761 -0.7503476825408553
4754806 0.5880472267101995 -0.7507465618924573
4755789 0.5871083105330483 -0.7515670425558307
4756772 0.5865584798051006 -0.7518857836797529
4757755 0.5859161389185379 -0.7521935049140632
4758738 0.5855013847140234 -0.7528833627981996
4759721 0.5849592005419817 -0.7533673953031099
4760704 0.5843705762011109 -0.7538584846505566
4761687 0.5835878097862918 -0.7541472703233693
4762670 0.583047736846116 -0.7546452410267427
4763653 0.5822066200692744 -0.7551408676482961
4764636 0.5813405209126848 -0.7556100700000655
4765619 0.5809387518010936 -0.7560805585278956
4766602 0.5803284214680545 -0.756680201734066
4767585 0.5798156860457332 -0.7573044087727696
4768568 0.5790927641710465 -0.7575973974299292
4769551 0.578646966140746 -0.758362352526461
4770534 0.5780026086582034 -0.7590138892645768
4771517 0.5772250716030656 -0.7590612658955981
4772500 0.5765991579561388 -0.759427188740125
4773483 0.5758862224115237 -0.7599015245238567
4774466 0.5753000437275186 -0.7603813919239063
4775449 0.5744607990075091 -0.7609674309603593
4776432 0.5732936712016558 -0.7613944472098525
4777415 0.5734827225336703 -0.7617678321087179
4778398 0.5731824606609262 -0.7623972322329737
4779381 0.572292821682259 -0.763086685885937
4780364 0.5716665054520043 -0.7634067935803218
4781347 0.5711393370899286 -0.7639119553764151
4782330 0.5702370062081202 -0.7642946609761545
4783313 0.56961354673764 -0.7648160760407837
4784296 0.5690162630537917 -0.7652906151997939
4785279 0.5685220320799499 -0.7657812996541625
4786262 0.5677288965720849 -0.7663645158161062
4787245 0.5671345619817505 -0.7666536361062638
4788228 0.56655487408832 -0.7673315675033687
4789211 0.5660854176635701 -0.7677091145842427
4790194 0.5653755212475906 -0.7681882216374325
4791177 0.5646710845122919 -0.7687104083603492
4792160 0.5640823802772125 -0.7687665438113338
4793143 0.5634913930734196 -0.7696177133491395
4794126 0.5627863263785259 -0.7702645495275201
4795109 0.5619612902625476 -0.7704557183855096
4796092 0.5614337367116489 -0.7709717160498953
4797075 0.5608236248336417 -0.7716727010923499
4798058 0.5599621420810549 -0.7719717915184067
4799041 0.5594567896575365 -0.7725435718193283
4800024 0.5589821474466367 -0.7728282291202224
4801007 0.5581692081014612 -0.7731870738707635
4801991 0.5574163396239099 -0.77369955100101
4802974 0.55698636443434 -0.7742832490187316
4803957 0.5564065262649255 -0.7748401258677008
4804940 0.5556934510393627 -0.7751812185541126
4805923 0.5550571664495647 -0.7757817847319726
4806906 0.5545708674974233 -0.7762933633512481
4807889 0.5537313821702243 -0.7765738401450036
4808872 0.5529642864562068 -0.7768109503113956
4809855 0.5525304372559755 -0.7774002124203562
4810838 0.5517710288237015 -0.7781244049390815
4811821 0.5509808302977691 -0.7784704919185956
4812804 0.5504548519493564 -0.7786455426506841
4813787 0.550001326511287 -0.7791891155999424
4814770 0.5492161211003372 -0.7797320315656993
4815753 0.5487008109864008 -0.7804061237603942
4816736 0.5481814865355924 -0.7808423713997472
4817719 0.5473402642376357 -0.7812826289818718
4818702 0.5465525789884609 -0.7816631251925371
4819685 0.5459730881281367 -0.7820981454021139
4820668 0.5455532501964164 -0.7825209625324464
4821651 0.5447970592095525 -0.7827474755455348
4822634 0.5443332257290273 -0.7833498454865094
4823617 0.5435210171209336 -0.7838871011424942
4824600 0.543097422414711 -0.784316497904507
4825583 0.5424129867626054 -0.7848789014254399
4826566 0.5414606803360618 -0.7852680447041324
4827549 0.5409985054046592 -0.7858450006280662
4828532 0.5402605580865866 -0.7862396304201422
4829515 0.5395692206389239 -0.78674347529851
4830498 0.53897029462358 -0.786960523282955
4831481 0.5383485874047816 -0.7875175976451741
4832464 0.5377371818837147 -0.787986408127715
4833447 0.5368760859383142 -0.7884005502042747
4834430 0.5364023628219865 -0.7887174044463989
4835413 0.5358205249333307 -0.7892845784246728
4836396 0.5352660816218737 -0.7896852153575665
4837379 0.5344219744534084 -0.7899279988694835
4838362 0.5337623714091941 -0.7905898243509588
4839345 0.5330881350155173 -0.7910892641447782
4840328 0.5323635651097403 -0.7915716082268259
4841311 0.531753764451784 -0.7918467345966691
4842294 0.5311224852268301 -0.7922730903522178
4843277 0.5302337556129809 -0.7930035184980487
4844260 0.5296711219242203 -0.7933573988703528
4845243 0.5290236216850798 -0.7937025746525347
4846226 0.5284710769967542 -0.7940497889310202
4847209 0.5279126916630001 -0.7946749386970592
4848192 0.527141668146501 -0.7950393506763053
4849175 0.5265190613990673 -0.795521881733811
4850158 0.5258536958972743 -0.7959279328041753
4851142 0.5250888202087379 -0.7963636809887759
4851142 0.5244890238123254 -0.7962417420292827
4852145 0.5248124002322404 -0.7966160925823357
4853148 0.5239462569325241 -0.7971014991863622
4854152 0.5230513768803398 -0.7977130224878394
4855155 0.5222904597326274 -0.7978646582640669
4856158 0.5216262057443433 -0.7984891530630286
4857162 0.5211089172095922 -0.7988711437361711
4858165 0.5203888443693139 -0.7991376585711109
4859168 0.5197027511933028 -0.7996579087967058
4860172 0.5190892158087301 -0.8001230626243402
4861175 0.5185499184651639 -0.8005729440612673
4862178 0.5175806712010269 -0.8011693889004778
4863182 0.5170447454589979 -0.8016995173487494
4864185 0.5164263754125354 -0.8019020803762159
4865188 0.5155918917943817 -0.8024714578044914
4866192 0.5148860660574177 -0.8028398530452902
4867195 0.5141172974172865 -0.8031936197557714
4868198 0.5134874038645414 -0.8039221207326837
4869202 0.512922392778015 -0.8043723024295647
4870205 0.5122115065940401 -0.8045781681606489
4871208 0.511673178575313 -0.8050559441934496
4872212 0.5108976479466141 -0.8054714259615804
4873215 0.5102160681417897 -0.8059118178869698
4874218 0.5095679967741009 -0.8061843015251021
4875222 0.508816825150676 -0.8066793263738112
4876225 0.508259244393644 -0.8072666509754926
4877228 0.5074062346183772 -0.8073509028262774
4878232 0.5068630103271865 -0.808009998843463
4879235 0.5060618938865336 -0.8083582732578468
4880238 0.5054078807284638 -0.8088179280638732
4881242 0.5045966643782559 -0.8093719315215481
4882245 0.5041969546421674 -0.8096696504206632
4883248 0.5033302001100926 -0.8101593774627959
4884252 0.5027126179101866 -0.8107426897470446
4885255 0.501994148630634 -0.8109463780773978
4886258 0.5012764323986426 -0.811329542575325
4887262 0.5006871108626763 -0.8117177297688986
4888265 0.5000285642594559 -0.8123901918189866
4889268 0.4992557601235202 -0.8127487723703507
4890272 0.4985870578698244 -0.8131249035904727
4891275 0.4979932631066761 -0.8135292263957151
4892278 0.49711530618759414 -0.8140530439660314
4893282 0.49645013906855934 -0.8141670019610109
4894285 0.4956882122358248 -0.8146850955797426
4895288 0.4949093800971648 -0.8151479000741095
4896292 0.49428328282020645 -0.8155623522827133
4897295 0.4935993898671702 -0.8159670517386949
4898298 0.49302326689137027 -0.8163479792955566
4899302 0.4926078765447123 -0.8169989306897325
4900305 0.49154848635342907 -0.8173039578650249
4901309 0.49104759038457485 -0.8177585849112724
4902312 0.490306715552367 -0.8179661800543733
4903315 0.4896445274783618 -0.8187268373934399
4904319 0.4888445118815059 -0.8188994481183712
4905322 0.48793905144798394 -0.81921413629416
4906325 0.4874934358828368 -0.8200266970917145
4907329 0.48678484637200486 -0.8203436934840768
4908332 0.48606753296576904 -0.8206740523977577
4909335 0.4853095407627329 -0.8208776243594581
4910339 0.48444558124100345 -0.8213735020631144
4911342 0.48383963290311655 -0.8219102174867707
4912345 0.4831579669041392 -0.8221676124686186
4913349 0.48256736117134835 -0.8225947081082172
4914352 0.4819862200229793 -0.8230520107185102
4915355 0.4813450227111861 -0.823328309243997
4916359 0.4805575688465742 -0.8238743494901651
4917362 0.47998631130718744 -0.8244271317915659
4918365 0.479253934539593 -0.8246731104041478
4919369 0.47814162561899454 -0.8250351196704729
4920372 0.47772174094689673 -0.82561014165674
4921375 0.4769840787597312 -0.8258633672603561
4922379 0.47629147218683726 -0.826488022304265
4923382 0.4759614254833796 -0.8265341886682407
4924385 0.47512085153529016 -0.8266686037572554
4925389 0.474025903077478 -0.8273834313640783
4926392 0.4737529924575968 -0.827838465665242
4927395 0.4726253340436423 -0.8283488410404589
4928399 0.47204191203641 -0.8290880797982477
4929402 0.4714053789001614 -0.8293625528961833
4930405 0.4708496758447565 -0.8297106015576431
4931409 0.47004766783212304 -0.8299005137116024
4932412 0.4693619032070478 -0.8302516888389525
4933415 0.4686391962015403 -0.8308606784039767
4934419 0.46789727478360277 -0.8311238528661222
4935422 0.4670147049067262 -0.8314529115891244
4936425 0.46640865666562437 -0.8317870118091434
4937429 0.4657152554973618 -0.8320456811756279
4938432 0.4649833966424752 -0.8326057450485698
4939435 0.4643657667225339 -0.8329390489084443
4940439 0.4637302894150757 -0.8333472437006226
4941442 0.4628569521422813 -0.8338178284827065
4942445 0.4622673610368446 -0.8339125377266531
4943449 0.46149922455156994 -0.834454021196598
4944452 0.46095582726075124 -0.8349979590571442
4945455 0.4603302976170811 -0.8353196354366041
4946459 0.45943351924800957 -0.8356248228831261
4947462 0.45865593374072233 -0.835938494301729
4948465 0.45794285424242104 -0.8364474509873375
4949469 0.4572479006927462 -0.8370832790962693
4950472 0.4566868067034939 -0.8372889931724491
4951476 0.4561627243927558 -0.837507520117719
4951476 0.4559799358114605 -0.8371952483672918
4952500 0.45521645331931937 -0.8382563086070973
4953524 0.4545686853452949 -0.8387006373579822
4954548 0.45368426516790245 -0.8390141732457083
4955572 0.45291555722147114 -0.8389804542797187
4956596 0.452130570871421 -0.8394627465120349
4957620 0.4512683426899458 -0.8402092410688602
4958644 0.45072810123735785 -0.8405280719463657
4959668 0.450174815112798 -0.8409299176298959
4960692 0.4495143170838499 -0.8412376796762042
4961717 0.4487007270906551 -0.841547007580462
4962741 0.44789451105596995 -0.8418688706575311
4963765 0.44734264452196504 -0.8424212166518544
4964789 0.4465696488428868 -0.8427257097841138
4965813 0.44557955291082835 -0.8433141274597139
4966837 0.4450227831802566 -0.8433672971815835
4967861 0.4443317545816252 -0.8438962915037331
4968885 0.4435567597213415 -0.8442997122987214
4969909 0.44312240045275897 -0.8447040690592952
4970933 0.44217656644098 -0.8448841190404761
4971958 0.4413838524308136 -0.8455132735079486
4972982 0.44071860964297677 -0.8459169518561429
4974006 0.4397769416641586 -0.8462239101506656
4975030 0.43910014576480066 -0.8467393336130619
4976054 0.43839295015352286 -0.8469165227702964
4977078 0.4376209656196437 -0.8475320592972939
4978102 0.4368367594333061 -0.8478649058131258
4979126 0.43590957498420496 -0.8482857961805581
4980150 0.4354244289981147 -0.8486748646626342
4981174 0.43477205753254256 -0.849014036829332
4982199 0.4338777034685618 -0.8494143246648049
4983223 0.4332602623988145 -0.8497345175058078
4984247 0.43261794681855853 -0.8499738280563705
4985271 0.43175192711719695 -0.8502957548883269
4986295 0.4309164569513935 -0.8507774050244749
4987319 0.4301894379678417 -0.8511797317323381
4988343 0.4296667814815027 -0.8517309845437778
4989367 0.42903460533623244 -0.851960271174141
4990391 0.4281983588158629 -0.852283462969769
4991415 0.4273323280240675 -0.8524912365511659
4992440 0.4267353867757691 -0.8530596352179253
4993464 0.4259142661804314 -0.8532611785007674
4994488 0.4250854433782014 -0.8536466672325261
4995512 0.4244901906669632 -0.8541343276639937
4996536 0.42368795881649085 -0.8544663575711253
4997560 0.42294347476364763 -0.8547273106248292
4998584 0.4218931701733208 -0.85512780146
4999608 0.4211816118360648 -0.855510361038156
5000632 0.42064383315395704 -0.8557538971446587
5001656 0.4199437751637469 -0.8562896460873749
5002681 0.4190282025510452 -0.8567038819961618
5003705 0.41864179351938 -0.8571477649553461
5004729 0.4177355128599316 -0.8572328475974866
5005753 0.41691085105761505 -0.857781822263637
5006777 0.41627135100197504 -0.8580499473868326
5007801 0.41562019782039444 -0.8585568550353236
5008825 0.4148212761177945 -0.8587781170224027
5009849 0.4139382413698088 -0.8591821034853687
5010873 0.41326633268560886 -0.8595044512390169
5011897 0.41241256794135783 -0.8598887947300348
5012922 0.41182848975344594 -0.8602806168502632
5013946 0.41120669121982045 -0.8605972968827632
5014970 0.4103059269373232 -0.861080792752786
5015994 0.40951717726185966 -0.8611961691332154
5017018 0.4090137647249696 -0.8613760007366231
5018042 0.40816565394310494 -0.8619131692088454
5019066 0.40740042581639374 -0.8624238164746186
5020090 0.40658722261948965 -0.8625322639147239
5021114 0.40584776967711517 -0.8630856911881903
5022138 0.4051167866936777 -0.8632859160607996
5023163 0.40432840589966035 -0.863745277531493
5024187 0.4037393065163306 -0.8639241697014739
5025211 0.4029026511005834 -0.864463152437871
5026235 0.40219711452919293 -0.8648169743102513
5027259 0.40133501518131204 -0.8651872286268587
5028283 0.40046902264719103 -0.8655153203264866
5029307 0.3999777968485602 -0.8659830296072872
5030331 0.39909297232855767 -0.866469571857416
5031355 0.3983993687820483 -0.8666445981572731
5032379 0.39756247140984974 -0.8669081734708526
5033404 0.39675546988855315 -0.8673053738756188
5034428 0.3960480987106743 -0.8677153700184361
5035452 0.3953433804729806 -0.8679911679852331
5036476 0.3945385884414876 -0.8685633401756874
5037500 0.39387492148303593 -0.8687350866484133
5038524 0.3930542074335811 -0.8688728294803207
5039548 0.39227920751337547 -0.8691990878850335
5040572 0.3914371088552314 -0.8695902594535424
5041596 0.3909067571176419 -0.8697698807178214
5042620 0.39019258761607617 -0.8703348510081247
5043645 0.38932459912059847 -0.8706786546435465
5044669 0.388598263130181 -0.8711833238304293
5045693 0.38778216033692714 -0.8714271114257862
5046717 0.386930194447617 -0.871433236156444
5047741 0.3863296888290899 -0.8720026563332398
5048765 0.38548353288277953 -0.8722354811293589
5049789 0.38462116718515843 -0.8725250957264776
5050813 0.3840719352420791 -0.8731698034788175
5051837 0.38336330904105004 -0.8736163869004205
5052861 0.3823864114110834 -0.8739402659800184
5053886 0.38168247586854565 -0.8741287909367302
5053886 0.38225379633842077 -0.8740543052568335
5054931 0.3808819962871437 -0.8741274884131603
5055976 0.3802656111030221 -0.8746032035213177
5057021 0.37979912766417984 -0.8750185476697064
5058067 0.37871378738728995 -0.875330448029287
5059112 0.37796358236226624 -0.8759119043135627
5060157 0.37718525307166056 -0.8760039248451592
5061202 0.3764803560121816 -0.8764543817483796
5062248 0.3754245568552267 -0.8767128443050569
5063293 0.3747366012122833 -0.8769355232440512
5064338 0.3740018152955234 -0.8771846987164683
5065384 0.37317244154564316 -0.8776489451580176
5066429 0.37245796825251665 -0.8781584288421372
5067474 0.37187133810701717 -0.8784853634491777
5068519 0.371152299542457 -0.8786928852291042
5069565 0.3703409576147469 -0.8792019147549326
5070610 0.3689840116478486 -0.8797232758677811
5071655 0.36803087588890643 -0.8797552493124667
5072701 0.3680405888880408 -0.8797236127913417
5073746 0.36689331883354176 -0.8801207739874359
5074791 0.36614603402419266 -0.8806361353300219
5075836 0.36531823495314075 -0.8807783591546533
5076882 0.3644417305612575 -0.8812590161149593
5077927 0.3638103738508498 -0.8816008576742589
5078972 0.3630879235179171 -0.8819252680201052
5080018 0.36225246670987094 -0.8820896238213549
5081063 0.36144598713333276 -0.882568102825597
5082108 0.3606567077027776 -0.8828994342438866
5083153 0.3600721684300237 -0.8832533171749771
5084199 0.35928315156644003 -0.883420244574699
5085244 0.3585595032231358 -0.8838093203296024
5086289 0.3577742087745456 -0.884043380213892
5087334 0.3569125890100787 -0.8845200288897725
5088380 0.35633601205124615 -0.8848357386949284
5089425 0.3553962434337381 -0.8850542362584065
5090470 0.3544892390405344 -0.8852298923519495
5091516 0.3538814123994757 -0.885502474772112
5092561 0.3529714111821227 -0.8860037450443708
5093606 0.3521048482581959 -0.8865277441822621
5094651 0.35155457581661115 -0.8867123847251137
5095697 0.35047879919105474 -0.8865774958941129
5096742 0.3496363588201453 -0.8870608327918318
5097787 0.3489702610611513 -0.8875847045236309
5098833 0.34834381102862133 -0.8880748551863341
5099878 0.3474008048827129 -0.8880417561355863
5100923 0.34649861319051506 -0.8883856118763187
5101968 0.3457477358078319 -0.888853051863391
5103014 0.3451028475848511 -0.8891357025816499
5104059 0.3440968420918786 -0.8892882642138703
5105104 0.3433042966460282 -0.8894178174544141
5106150 0.3427448961101438 -0.8895115100887429
5107195 0.34185215537890334 -0.8901528583820302
5108240 0.3410287146155785 -0.8907752968165106
5109285 0.34029849153571684 -0.8905523814235894
5110331 0.33961359976107053 -0.8911970670592684
5111376 0.3387615404003809 -0.891590889366552
5112421 0.33810275946251755 -0.8916197613080746
5113466 0.33724664760018946 -0.892049461498204
5114512 0.33649772050532656 -0.8922247955805583
5115557 0.335693164552486 -0.8924685510028343
5116602 0.33476560019355495 -0.8928845108635407
5117648 0.33407364644582543 -0.8928817862991836
5118693 0.3332474076791761 -0.8931922887573567
5119738 0.33244778418711013 -0.8936308030682292
5120783 0.3316658782673337 -0.8938954628575287
5121829 0.33098272523405003 -0.8945233731934153
5122874 0.3300294689478506 -0.8947372548818977
5123919 0.32918133601219945 -0.8950273858887942
5124965 0.32858198284661827 -0.8952870240201046
5126010 0.32783452740745633 -0.8956117207636385
5127055 0.32702585254899635 -0.8956294777113304
5128100 0.3261948010519974 -0.8961660856457626
5129146 0.32534330501628067 -0.896464106448281
5130191 0.32451763448057375 -0.8968140079734327
5131236 0.32379663057153085 -0.8969828902333318
5132282 0.3231006295950086 -0.8972403305583377
5133327 0.32214311293177683 -0.8974158552752423
5134372 0.3212135774476284 -0.8978568673340678
5135417 0.32038433252551596 -0.8978014897939035
5136463 0.3197499248915735 -0.8983599418370123
5137508 0.31899361396942566 -0.8985701613355791
5138553 0.31827779884776036 -0.8988164482041335
5139598 0.31739718333292266 -0.8992939164792999
5140644 0.31672815832148316 -0.8993964953829511
5141689 0.3159509062103833 -0.8994705803291426
5142734 0.3149052433895477 -0.8997447080673839
5143780 0.31418694300571914 -0.9002756437136278
5144825 0.3134191668771376 -0.9003769462822786
5145870 0.3126097719827849 -0.9005559316134403
5146915 0.3118536624847829 -0.9008729125887587
5147961 0.31099253213631844 -0.9012256134315176
5149006 0.3102435326278225 -0.9017766544257804
5150051 0.3095536572023996 -0.9018914408611253
5151097 0.3086959765628218 -0.9024005293577667
5152142 0.3077568645104792 -0.9026692959509296
5153187 0.3070984760051568 -0.9029938482361208
5154232 0.3062114451146544 -0.903178386417579
5155278 0.3055910434664167 -0.9031372141178752
5156323 0.3048303313208399 -0.9034368367372072
5157368 0.30383544018867525 -0.9036937807956189
5158414 0.3029962141736573 -0.9039737595834823
5158414 0.3027703055622894 -0.9036856628875057
5159480 0.302353749954538 -0.9042600744617975
5160547 0.30146694347346265 -0.9043938358255155
5161614 0.300609479085926 -0.9045598496127245
5162681 0.29980291352152594 -0.905046100489957
5163748 0.2990830151865706 -0.9055152504673205
5164815 0.29840348673269607 -0.9057438193789985
5165882 0.29748627025559093 -0.9059560750243757
5166949 0.2965540054451278 -0.9063797288135416
5168016 0.2956237509968071 -0.9066217895147645
5169083 0.29497304587826795 -0.9066961920621428
5170149 0.294059830692313 -0.9070892440824423
5171216 0.2932360102459616 -0.907362869523453
5172283 0.2924604363273977 -0.9076960225779624
5173350 0.2916102369564649 -0.9078754837973263
5174417 0.29070492936259024 -0.9079870724318511
5175484 0.2898897326047152 -0.9084387560333238
5176551 0.2890563072158844 -0.9087109921872851
5177618 0.28808460541219955 -0.9087769234335861
5178685 0.2873657388010948 -0.9089859027751603
5179752 0.28654237279894906 -0.909343238807651
5180818 0.28589371375237316 -0.9095875235582648
5181885 0.28513214227357225 -0.9098667035697563
5182952 0.2842170652571291 -0.9100714498024797
5184019 0.2834903452795892 -0.9104733693496186
5185086 0.2826911684979068 -0.9108506519786573
5186153 0.2815938567145313 -0.9108567800227544
5187220 0.2807520510559337 -0.9112412919581342
5188287 0.2802103991306774 -0.9112966815600567
5189354 0.27905720097699127 -0.911551665567116
5190421 0.27826554241480245 -0.91175707294973
5191487 0.27749201109915944 -0.9119224507224201
5192554 0.27664621607188156 -0.9126400145473137
5193621 0.27607413827066307 -0.9126875344998602
5194688 0.27512308030963645 -0.9131063599138858
5195755 0.2743008661815138 -0.9134359796697782
5196822 0.27344295397115104 -0.9135400825771753
5197889 0.2726150460402528 -0.9138147724289846
5198956 0.271753022161637 -0.9139789105108999
5200023 0.27103157340346734 -0.9142659306634808
5201090 0.27025238081648 -0.9144898102938988
5202156 0.26939402984461375 -0.9145890013141981
5203223 0.2685084506762921 -0.9148422096389832
5204290 0.2674887887563994 -0.915005116462553
5205357 0.2668153723072886 -0.915190973414353
5206424 0.26608803890961974 -0.915556448998706
5207491 0.26526611799047917 -0.9155437228676114
5208558 0.2647008724042911 -0.9157932426557719
5209625 0.2638588162984619 -0.9158655537654411
5210692 0.26284541135128897 -0.9163391357811728
5211759 0.2617456970519626 -0.9167696775912626
5212825 0.2609065944617223 -0.9168079982573336
5213892 0.2602711668218947 -0.9170278370836874
5214959 0.2596160989411308 -0.9171937237165061
5216026 0.2587600258988619 -0.9174462561688123
5217093 0.25774725181635805 -0.9177782974687131
5218160 0.2569595995642406 -0.9179816210384278
5219227 0.2562095523359115 -0.9182667057508027
5220294 0.2551364740962392 -0.9185960908917611
5221361 0.2545337160024853 -0.9186597573952149
5222428 0.2537012039887295 -0.9186839317610976
5223494 0.25282851669633793 -0.9189742600696315
5224561 0.2521945012918421 -0.9192821637462043
5225628 0.25104754884160757 -0.9194627082473386
5226695 0.250328683251408 -0.9195894946038242
5227762 0.24959575519266733 -0.9199660241969718
5228829 0.2485644905849488 -0.920415172994668
5229896 0.2479426068786052 -0.920585024776509
5230963 0.24705409420396823 -0.9206777476080275
5232030 0.24618923677083304 -0.9211755432044466
5233097 0.24555486463160112 -0.9210100062390966
5234163 0.24464812941914782 -0.9213098378842337
5235230 0.24382984165370483 -0.9214604714983365
5236297 0.2427689470049823 -0.9218799469755317
5237364 0.2419896847463877 -0.9220615371014289
5238431 0.24120621025263675 -0.9223648356848259
5239498 0.24040784476358612 -0.9222871010957759
5240565 0.2394543882728293 -0.9226196638712207
5241632 0.23852523105720172 -0.9227271787128404
5242699 0.23786099479370157 -0.9230440761816685
5243766 0.23696331243784238 -0.9232782741935079
5244832 0.23616683129959914 -0.9234363300300108
5245899 0.23531552190176344 -0.9236577649139726
5246966 0.2344706510207219 -0.9238913587468011
5248033 0.2335544615866453 -0.9241554011678369
5249100 0.23282568985004176 -0.9244287102804538
5250167 0.23192726195833072 -0.9246614317156644
5251234 0.23112736797577008 -0.9247880237232117
5252301 0.23042087447462603 -0.9249371254183886
5253368 0.22961143240005533 -0.9251997663861791
5254435 0.22885535574837312 -0.9254363921600377
5255501 0.22803039461053376 -0.9257423581136536
5256568 0.2270600785881557 -0.9260094548836459
5257635 0.2262143606473945 -0.9260292634270745
5258702 0.22541566595801912 -0.926148264791338
5259769 0.22461220765040013 -0.9265003252572197
5260836 0.22347994936858598 -0.9264549354562939
5261903 0.222578162066476 -0.9267168845575944
5262970 0.2219212083439227 -0.9269333488821053
5264037 0.22128678964951948 -0.927025122835555
5265104 0.2204211627918541 -0.9275844704801821
5265104 0.22001296768887332 -0.9279042800099256
5266192 0.21991023893636572 -0.9278530066545563
5267281 0.21866236350870505 -0.9277078041019494
5268370 0.21780257409590603 -0.928048345280268
5269459 0.21700169766696029 -0.928205980659859
5270548 0.2161703651585184 -0.9285260229795838
5271637 0.21524071768056063 -0.9288412966492298
5272726 0.21410271130068737 -0.9289143178699839
5273815 0.2136035443532891 -0.9290311847557249
5274904 0.21256731882215904 -0.9289967778036434
5275993 0.21179690807791363 -0.9291956833162454
5277082 0.21104270178918896 -0.9293683069241641
5278171 0.2099376515402081 -0.9297877911812789
5279260 0.20919207760369085 -0.9299979947219179
5280349 0.20847624040802826 -0.9301419006191497
5281438 0.20765177761396336 -0.9304170874020422
5282527 0.2066239160905947 -0.9304783427484273
5283616 0.2058080254249247 -0.9308693865526083
5284705 0.20495896448108689 -0.9309672943715012
5285794 0.2041441497425076 -0.9308464964084678
5286883 0.2031861519736634 -0.9312062146584944
5287972 0.2023864104124829 -0.9314289413749308
5289061 0.20167362124228225 -0.9316926405567142
5290150 0.20051636815585902 -0.9318345969438145
5291239 0.19952614993611478 -0.9321407203870394
5292328 0.19887539718469927 -0.9320642034774218
5293417 0.19792494565927254 -0.9319346590166733
5294506 0.19685590825504914 -0.9324262426646521
5295595 0.1962968796756124 -0.9326431825333962
5296684 0.19550092757739337 -0.9327233059087754
5297773 0.19460660166982294 -0.9330974916391367
5298862 0.1937504214189197 -0.9332166672469782
5299951 0.19286720154239387 -0.9331405251644862
5301040 0.19198530390185778 -0.9332653804633513
5302128 0.19098628235502207 -0.9335948013640337
5303217 0.19023403215318938 -0.9339918021139586
5304306 0.18939296114826318 -0.9338829975911016
5305395 0.18856447077685126 -0.9341954280949816
5306484 0.18759763471586527 -0.934388963073368
5307573 0.18687773122745058 -0.9345267050789324
5308662 0.18597227171016767 -0.9347497974319036
5309751 0.18508945675502653 -0.9350095274385712
5310840 0.18443097798554714 -0.9351178622160364
5311929 0.1833833274568915 -0.9349426330612455
5313018 0.18261277349243074 -0.935317406479918
5314107 0.181768707063759 -0.9353793894865455
5315196 0.18079537586186212 -0.9353683870975196
5316285 0.17986182373096637 -0.935870510765425
5317374 0.17909355948850472 -0.9360413952062842
5318463 0.17818614477051728 -0.9362388904540773
5319552 0.17710432442619387 -0.9363376444297692
5320641 0.17630452078334352 -0.9361347168517388
5321730 0.17536915373580977 -0.9365251613145642
5322819 0.17462333628950275 -0.9369484860265
5323908 0.17410510408774996 -0.936753406453172
5324997 0.17296756007195224 -0.9371634070406725
5326086 0.1720523008375337 -0.937141340897835
5327175 0.1712780612262923 -0.9372809572012003
5328264 0.1703722525735738 -0.9374783759983948
5329353 0.1695705997260436 -0.9376237870346663
5330442 0.16873415949246953 -0.9379896076084128
5331531 0.16787165175294577 -0.9380942089103298
5332620 0.16685452755959357 -0.9381174740934345
5333709 0.1660821941022731 -0.9382213374632297
5334798 0.16516998250647272 -0.9384244203772248
5335887 0.16445386339460535 -0.9386760676414923
5336976 0.16344604103776955 -0.9388484209634327
5338064 0.16236632034074022 -0.9391229605648366
5339153 0.16170649918317875 -0.9391195748464323
5340242 0.1607179666224873 -0.9392496115639974
5341331 0.15957912414675052 -0.9393859311729288
5342420 0.15896719292138947 -0.9395068996893392
5343509 0.15828159435756503 -0.9397595196056135
5344598 0.1576244144865349 -0.9397616147852988
5345687 0.15669410188727034 -0.9401984472693143
5346776 0.15556870916396007 -0.9402589888997311
5347865 0.15474030491570995 -0.9402895264376779
5348954 0.1538990528219794 -0.940251843382908
5350043 0.15289295904339195 -0.9405438989369019
5351132 0.1522006230668513 -0.9407188333102632
5352221 0.15139487198225735 -0.9405588518051083
5353310 0.15035157953636402 -0.9407351461686362
5354399 0.14949323107070428 -0.9409421055706836
5355488 0.14882307580524928 -0.9413454497742
5356577 0.14787407337903047 -0.9413859470179606
5357666 0.14687269707909226 -0.9411170994948035
5358755 0.14596994919636702 -0.9414903682776024
5359844 0.14525245428872596 -0.9414701484727159
5360933 0.14444554365798773 -0.9417623003045141
5362022 0.14359558413069567 -0.941775029825294
5363111 0.14278335996793046 -0.9419038184222368
5364200 0.14172640694736577 -0.9421043207782239
5365289 0.14054936765852488 -0.9426482738339939
5366378 0.1392415127840282 -0.9431699671273877
5367467 0.13928685293582702 -0.9423180920624934
5368556 0.13827121427880248 -0.9426853668348781
5369645 0.13727756136063315 -0.9426459506374565
5370734 0.1366383498880652 -0.9430606395141233
5371823 0.13599413017886178 -0.943101519755916
5372912 0.13493100445444553 -0.9432767959364602
5374001 0.13414396552411387 -0.9432814690211982
5374001 0.13390312240877233 -0.9435276649947288
5375112 0.13339465079170687 -0.9434966131950541
5376223 0.13221487149016234 -0.9433151394967831
5377335 0.13145583448185327 -0.9437213676202448
5378446 0.13044061327763876 -0.9436831400256263
5379558 0.1294940181289356 -0.9439661866459209
5380669 0.12855888501945736 -0.9435366999479345
5381781 0.12790389344188557 -0.9440536021475998
5382892 0.12710592582678185 -0.9442290507159016
5384004 0.12586320455743702 -0.9442242694480344
5385115 0.125143723613618 -0.9443059012040963
5386227 0.12434496162332412 -0.9444816105697973
5387338 0.12323146777107903 -0.9446443516038093
5388450 0.12221265060652649 -0.944617428808769
5389561 0.12147035871839902 -0.9448390153820071
5390673 0.1206594244914804 -0.9448840820937262
5391784 0.1195649685393504 -0.9449587960534844
5392896 0.11863551632338577 -0.9450543836874448
5394007 0.11801301111868312 -0.9453078457327029
5395119 0.1170097698268257 -0.9453792401510671
5396230 0.11633867153890293 -0.9456001998374881
5397342 0.115406263647585 -0.9456314929316486
5398453 0.11420539285525085 -0.9456561196673253
5399565 0.11334484604948208 -0.9457228848866449
5400676 0.11267511622709887 -0.9459022022518093
5401788 0.11193692286987758 -0.9460362495686386
5402899 0.1109509312138513 -0.9458508126733651
5404011 0.11008921613771436 -0.9461703807598095
5405122 0.10900316452088597 -0.9460630614131994
5406234 0.10801987981795319 -0.9463072748054825
5407345 0.10725834974955226 -0.9462933800966024
5408457 0.10633275000619079 -0.9463878381060304
5409568 0.10540749087191952 -0.9465929150847618
5410680 0.10461125653939174 -0.9467043828357026
5411791 0.10368851711946395 -0.9465665629314782
5412903 0.10276627870160694 -0.9469007749842321
5414014 0.10194791903317241 -0.9469124924471121
5415126 0.10089180567024501 -0.9471024564510644
5416237 0.09992602837889832 -0.9472596762609166
5417349 0.09926231982881555 -0.947455496784537
5418460 0.09845117585432718 -0.9472012111995215
5419572 0.09738295110775143 -0.9473614284578997
5420683 0.09664256691140875 -0.9474494933234421
5421795 0.09541502098128553 -0.9476052980209596
5422906 0.09464505688999364 -0.9478693728754636
5424018 0.09365292330428414 -0.9478039715800298
5425129 0.0928800112741726 -0.9477983837504881
5426241 0.09205596395559058 -0.947931439360936
5427352 0.09101025630890278 -0.947955380886441
5428464 0.0900775737495506 -0.9480719523830987
5429575 0.08920611762406729 -0.9479635712161112
5430686 0.08839751428676147 -0.9481228081116945
5431798 0.08750236459764778 -0.9482580166354909
5432909 0.08656213265253154 -0.9484265048356277
5434021 0.08581002807272044 -0.9485557082074119
5435132 0.08490798502612099 -0.9485419227321963
5436244 0.08392291698563469 -0.9487572335681741
5437355 0.08311861125885751 -0.9486002082401683
5438467 0.08216677915415675 -0.9489160398623337
5439578 0.08138006814847984 -0.9489282481040913
5440690 0.08052532758764185 -0.9490091319259382
5441801 0.07930928879150505 -0.9490622199528219
5442913 0.0786505883474625 -0.9489961648292159
5444024 0.07785854866085071 -0.9489311049257582
5445136 0.07679687403164083 -0.9494739639799319
5446247 0.07598111957791749 -0.9495631708339527
5447359 0.07499857723731326 -0.9492558068093354
5448470 0.0741033073591185 -0.9493268498956244
5449582 0.07305617281157883 -0.9494849045879603
5450693 0.07238181873995785 -0.9495826308679303
5451805 0.07149889986299926 -0.9496830083283253
5452916 0.07063989129646281 -0.9495963064148509
5454028 0.06971851426048443 -0.9495146442830518
5455139 0.06894140864936138 -0.9496780748780892
5456251 0.06822676244714336 -0.9498449863977624
5457362 0.0671017414072226 -0.9499531090606617
5458474 0.0660790642506798 -0.9500798017675883
5459585 0.06521250423601874 -0.9498240536343767
5460697 0.0642214378321314 -0.9499926162184449
5461808 0.06352667250730806 -0.9502078057973777
5462920 0.062446073984937775 -0.9501590670458013
5464031 0.06174975812485681 -0.950278306868561
5465143 0.060820983867812504 -0.9502803685160975
5466254 0.05998464533070448 -0.9504240771419259
5467366 0.05912590692272887 -0.9504230758295592
5468477 0.05826226177727814 -0.9505090753259945
5469589 0.057375643322692786 -0.9503621860049875
5470700 0.0562103129699602 -0.9503880420340047
5471812 0.055175547326347496 -0.9505407676392476
5472923 0.05439247706745435 -0.9505489450273094
5474035 0.05344164252255088 -0.9506576217560657
5475146 0.05283602729339154 -0.9507698809010554
5476258 0.05180128780190784 -0.950795670460007
5477369 0.05094047218956887 -0.9507875250306861
5478481 0.04978981256111778 -0.950754115666537
5479592 0.049117041600603546 -0.9508958344938756
5480704 0.04835427768479079 -0.9510066134852163
5481815 0.04727099488352065 -0.9510630932033453
5482927 0.04645892176887859 -0.95106218133262
5484038 0.04556106972305734 -0.9508673858657707
5485150 0.04468029923184467 -0.9509382804088887
5485150 0.04438304238163514 -0.9507350156581317
5486284 0.04397933114734372 -0.9512071368829937
5487418 0.04263488924981985 -0.9511129592611963
5488553 0.04169296786726678 -0.9512689337769411
5489687 0.04089107407472313 -0.951145614694562
5490822 0.03996534564054791 -0.951222098901619
5491956 0.039295960015940254 -0.9514190737909888
5493091 0.03807753645101804 -0.9512476042499515
5494225 0.037434178253234134 -0.9514269453984353
5495360 0.036399073837061965 -0.9514478230691172
5496494 0.03551311942831665 -0.9514978521325165
5497629 0.03456222026177165 -0.9511782094190313
5498763 0.03350055926975763 -0.9514864784139938
5499898 0.032793157373921626 -0.9513316374306897
5501032 0.03193032118733515 -0.951493198275695
5502167 0.030970069398744225 -0.951663854443914
5503301 0.029995790107349027 -0.9515443996563467
5504435 0.029120842047501694 -0.9513553474893819
5505570 0.028178482094202623 -0.9514977582414358
5506704 0.027156070539000866 -0.951723768702062
5507839 0.026440676837093925 -0.9517476990179176
5508973 0.02523800392526537 -0.9517272444093919
5510108 0.024421015024804225 -0.9517546450159069
5511242 0.023560113517597542 -0.9514553220428628
5512377 0.02255197957906529 -0.9515397765808329
5513511 0.02217906210780223 -0.9512901442119693
5514646 0.020912235673147372 -0.9517805906482696
5515780 0.020006183812688552 -0.9518909145311348
5516915 0.019211438676246802 -0.95151106807507
5518049 0.018353703748206666 -0.9516772483659348
5519184 0.01710965248258218 -0.9516884593860411
5520318 0.01626197312236311 -0.9515565430129698
5521453 0.015511484877856047 -0.9516682876199981
5522587 0.014401118930060226 -0.9519246459446201
5523721 0.013439525629999305 -0.9518968139995635
5524856 0.012588098150769224 -0.9516223947040026
5525990 0.01167408951839481 -0.9517145146306278
5527125 0.010873668269956066 -0.9516050187258022
5528259 0.010114426262972459 -0.951811036632745
5529394 0.00913787092849099 -0.9518113641406538
5530528 0.007933382866678412 -0.9517426929981062
5531663 0.007000037795510048 -0.951805715227445
5532797 0.006118926990180027 -0.9516244422135886
5533932 0.005299158124716371 -0.9518025715912719
5535066 0.004297275665050816 -0.9517227803674191
5536201 0.0033448539974776604 -0.9516714510611616
5537335 0.0025049491258844216 -0.9517608795899998
5538470 0.0016300681533425868 -0.9515298121440093
5539604 0.0005601754835405057 -0.9517561471442737
5540739 -0.00031470364796761213 -0.9518594674796339
5541873 -0.0012683133883349548 -0.9518398451145019
5543007 -0.0021818160423192987 -0.9518998931596748
5544142 -0.003195274148822917 -0.9518621800713135
5545276 -0.003919594885572087 -0.9516921901536298
5546411 -0.00481611990451133 -0.9515907523046204
5547545 -0.005746993233518783 -0.9517689388600037
5548680 -0.006437927414925762 -0.9517808671009039
5549814 -0.0075802002720262215 -0.9516809929142482
5550949 -0.008448053326550692 -0.951704681987231
5552083 -0.00930500955289911 -0.9517203751725368
5553218 -0.010258909256647105 -0.95160795591726
5554352 -0.01120599104407086 -0.9514397610614425
5555487 -0.012160929600288011 -0.9514226023169374
5556621 -0.013039825238403965 -0.9515805053500207
5557756 -0.013852357401894961 -0.9512038641976776
5558890 -0.014792426077878762 -0.9515441447040476
5560025 -0.015822179687972844 -0.951381229864121
5561159 -0.016777847481583414 -0.9514767107941192
5562293 -0.017688530183195574 -0.9516223461035959
5563428 -0.018688836620525243 -0.9516724453061189
5564562 -0.01962196765324506 -0.9512886837792514
5565697 -0.020418250872102674 -0.9512625224086214
5566831 -0.021378644764911005 -0.951261966472972
5567966 -0.022166863562617115 -0.9512921240273698
5569100 -0.023240692215767526 -0.9512660045009594
5570235 -0.023909226514464265 -0.9513603476848654
5571369 -0.024934412129944565 -0.9510762556830389
5572504 -0.025750617856830027 -0.9511788265663276
5573638 -0.026572577108461518 -0.9509239308802184
5574773 -0.02777495025304518 -0.9506933526933783
5575907 -0.028539092803917185 -0.9510503394710513
5577042 -0.02944441142082191 -0.9509335232781144
5578176 -0.030392506562840076 -0.9510098954930475
5579311 -0.03136164315656222 -0.9511974253353047
5580445 -0.03233645939563986 -0.9507347391907299
5581579 -0.033297621983435506 -0.9506521424719183
5582714 -0.03415595267399744 -0.9508102297284514
5583848 -0.03496928004614666 -0.9509199057682067
5584983 -0.035768988413161444 -0.950798321525521
5586117 -0.03692283788765088 -0.9508082252747667
5587252 -0.03792538166521936 -0.9506250183309957
5588386 -0.03879822376172151 -0.9506640461035762
5589521 -0.03958305363323993 -0.9503509998872762
5590655 -0.0405941410218615 -0.950528118179616
5591790 -0.04131843427453582 -0.9505753916782699
5592924 -0.04216327823795146 -0.9505278154622132
5594059 -0.0431341408297026 -0.9503023569987795
5595193 -0.04403222087444935 -0.9503913249515786
5596328 -0.04502977691069285 -0.9503716920187718
5597462 -0.045773495010630355 -0.9502344764178251
5598597 -0.0468100171795234 -0.9500859982907126
5598597 -0.046662572011225 -0.9496905546758649
5599754 -0.04772935466911224 -0.950329630204138
5600912 -0.048671853726998185 -0.9501258844235386
5602070 -0.04995868544371969 -0.9500639769297461
5603228 -0.050603845532434126 -0.9498908507846225
5604386 -0.051342847699442355 -0.9497751208208368
5605544 -0.05241614372794859 -0.9496647089993996
5606702 -0.053481244908199145 -0.9497635657623056
5607860 -0.05430653767264409 -0.9496866129189991
5609018 -0.0551603656280962 -0.949534811708275
5610176 -0.056385363181453145 -0.9495963609984426
5611334 -0.05706112380272111 -0.9494818927566285
5612492 -0.05816616788082072 -0.9493831946860731
5613650 -0.05896563220781604 -0.9493267968138928
5614808 -0.05983966641182175 -0.9491302312113136
5615966 -0.06083756502921552 -0.9492778165537088
5617124 -0.0617299094270797 -0.949456659981622
5618282 -0.06282786664017947 -0.9492805248865854
5619440 -0.06384888988405658 -0.9490589698712163
5620598 -0.06472186340669132 -0.9489483685191891
5621756 -0.0654246913131923 -0.9489703421906206
5622913 -0.06630671874624192 -0.948862195835469
5624071 -0.06731904319242568 -0.9487238630582954
5625229 -0.06828136931554853 -0.9484778183763997
5626387 -0.06923962712109842 -0.9486015648690115
5627545 -0.07015115312706355 -0.9486137461836981
5628703 -0.07110161751786934 -0.9485146618559585
5629861 -0.07222055767499487 -0.9485214379500855
5631019 -0.07321871679773058 -0.9482195375687995
5632177 -0.07413427432685933 -0.9482751966138621
5633335 -0.07473344525533182 -0.9484147130778333
5634493 -0.07580847292948376 -0.9480949551458021
5635651 -0.0767502305105041 -0.9478395620895235
5636809 -0.07748270360857305 -0.9477126316730593
5637967 -0.07847516408656542 -0.9477574519784441
5639125 -0.07957887481130653 -0.9476556245614054
5640283 -0.08068133053524484 -0.9475487725301175
5641441 -0.08155068964651312 -0.9477769209578691
5642599 -0.08233438834804932 -0.9474297785099454
5643757 -0.08317985952688013 -0.9471309276963558
5644915 -0.0841904834947058 -0.9473298200959935
5646072 -0.0851904578533446 -0.9470302267473955
5647230 -0.08593139760343735 -0.9469326923642462
5648388 -0.08687371935362158 -0.9469439240240687
5649546 -0.08790134927196461 -0.9467855431878113
5650704 -0.08902080261580499 -0.9466577013142866
5651862 -0.08990310056293925 -0.9466621317185654
5653020 -0.09077063880284683 -0.9465818825812267
5654178 -0.09145184887829623 -0.9463829905768801
5655336 -0.0923853822215365 -0.9463281403275888
5656494 -0.09355064324075002 -0.9460659274101594
5657652 -0.09438888065829054 -0.9462038944355327
5658810 -0.09529111941388121 -0.9460071228052785
5659968 -0.0962570166999722 -0.9462703277446033
5661126 -0.0978665238361525 -0.9468930068454755
5662284 -0.09813290394971541 -0.945557853383376
5663442 -0.09872399276693704 -0.9452830034718459
5664600 -0.09999556916517144 -0.9454483177535054
5665758 -0.10087216561677224 -0.9453568060140368
5666916 -0.1014765849559161 -0.9452377691770647
5668074 -0.10292691045932742 -0.9451961137796215
5669231 -0.10357943580949554 -0.9451301902060965
5670389 -0.10449381198750364 -0.9451833794731972
5671547 -0.10533992330367789 -0.9450021230851922
5672705 -0.10667356294039801 -0.9447824715062483
5673863 -0.10739577670364456 -0.944732463705386
5675021 -0.10818203860705845 -0.9444228035226812
5676179 -0.10916072764404591 -0.9442860700135125
5677337 -0.11019083928675669 -0.9441769174041513
5678495 -0.11107564949189812 -0.9438075234765879
5679653 -0.11195225948192955 -0.9436888466481171
5680811 -0.11304904464696366 -0.9438345650293593
5681969 -0.11386575778379904 -0.9437193000476921
5683127 -0.11470113470705046 -0.9437071588446924
5684285 -0.11575702793486609 -0.9433418408209454
5685443 -0.11665947891804679 -0.9434477228157842
5686601 -0.11758953649730222 -0.9434052093921041
5687759 -0.1184408179567308 -0.9429786954845716
5688917 -0.11922451391348365 -0.942893670906299
5690075 -0.12029028598603334 -0.9427578751097299
5691233 -0.12118052688768137 -0.9427632333698087
5692390 -0.12200668854464626 -0.9426402596616336
5693548 -0.12301136551560027 -0.9425853215792108
5694706 -0.12373874651657323 -0.9425168221735545
5695864 -0.12490280393371973 -0.9424214771934326
5697022 -0.12584082331718752 -0.9422575493513503
5698180 -0.1266422923493747 -0.9420864315111813
5699338 -0.1275250264899901 -0.941729841548818
5700496 -0.12873259614037297 -0.9416132989954211
5701654 -0.12961285383820895 -0.9415546796653153
5702812 -0.13058008638028878 -0.9412998544706939
5703970 -0.13141173638225662 -0.9413923123419528
5705128 -0.1324677169854821 -0.9412358032174045
5706286 -0.1333458399153662 -0.9409467932154904
5707444 -0.13399417141496273 -0.9408171097114373
5708602 -0.13505936754708153 -0.9405993604634806
5709760 -0.13613499631781134 -0.9403794601730096
5710918 -0.1369072264238868 -0.940501137526064
5712076 -0.1380251934759681 -0.940394683105324
5713234 -0.13860769952180818 -0.940045955737241
5714392 -0.13965593691377354 -0.9400724057745276
5714392 -0.13946421142296575 -0.9405029696437042
5715573 -0.14045423442316204 -0.9397311010296588
5716755 -0.14166040613962455 -0.9400050144339407
5717937 -0.14248920641006402 -0.9395340868395067
5719119 -0.14332426178021254 -0.9391788734542473
5720301 -0.14432450069692324 -0.9390944504751184
5721483 -0.14531849645142697 -0.9391671808307903
5722665 -0.14612647903206516 -0.938893008612671
5723847 -0.14700071224229477 -0.9387563822123837
5725029 -0.14799460979911502 -0.9386046911570625
5726210 -0.1489243433509185 -0.9384429287924355
5727392 -0.1501242438676554 -0.9381765814769721
5728574 -0.1511232457984319 -0.9380505721721248
5729756 -0.1520564995394191 -0.9380532501771289
5730938 -0.15295001365322874 -0.9374139369390418
5732120 -0.15381858482039196 -0.9376697210467297
5733302 -0.1546791457264883 -0.9375049342975743
5734484 -0.15562808548418636 -0.9371841529134084
5735666 -0.15647889816404187 -0.937122714330967
5736847 -0.15746571811538407 -0.9368834071812581
5738029 -0.15851767364600772 -0.9367410060843899
5739211 -0.15941781966651566 -0.9365842666648226
5740393 -0.1604710022464766 -0.9365553140797126
5741575 -0.16104775241744865 -0.9363534996357685
5742757 -0.1621323930960567 -0.9362033510213261
5743939 -0.16293176615880794 -0.935867319362708
5745121 -0.1640782855789966 -0.9358519896562261
5746303 -0.16509387806001657 -0.935574262644077
5747484 -0.1658186354572796 -0.9354798671455312
5748666 -0.16687082081007354 -0.9353949598688578
5749848 -0.16782265319234138 -0.9350872878323958
5751030 -0.16875541997609503 -0.9347534742591781
5752212 -0.16968531547349516 -0.9347562636603839
5753394 -0.17082128328789428 -0.9344820685919601
5754576 -0.17174704565522023 -0.934466592324394
5755758 -0.17245792204503996 -0.9340332411965904
5756940 -0.17352230379685998 -0.9337335609268661
5758121 -0.17448260802970408 -0.933532298649875
5759303 -0.1753650465999271 -0.9334594801382605
5760485 -0.17615112004108704 -0.9334067488392169
5761667 -0.17729952785518688 -0.9330634195502343
5762849 -0.1781328814896464 -0.9332150001358959
5764031 -0.1789709003878515 -0.932991562695909
5765213 -0.17994200567817625 -0.9326267040340478
5766395 -0.180924158459324 -0.9325174434466468
5767577 -0.18171757060024651 -0.9320800824617111
5768758 -0.1826953593042565 -0.9321073994867485
5769940 -0.18360164514819272 -0.9318357082048857
5771122 -0.1846624876041088 -0.9318427770267097
5772304 -0.18565050167172129 -0.9313468545629929
5773486 -0.1864119192279046 -0.931129193113379
5774668 -0.1873699795163015 -0.9310059351949423
5775850 -0.18838540157140968 -0.9308551759512844
5777032 -0.18922812432898792 -0.9305818123702525
5778214 -0.1901544726357812 -0.9302831791181209
5779395 -0.1910338685362172 -0.9302049472499193
5780577 -0.1922045777385014 -0.9298332000273662
5781759 -0.1931627709522159 -0.9297521674844963
5782941 -0.19404818368338567 -0.9296238213056075
5784123 -0.19494701651748372 -0.9293035450590342
5785305 -0.1957707187938445 -0.9291979464964564
5786487 -0.1967689774742608 -0.928955210762729
5787669 -0.1974262906234357 -0.9288052288584492
5788851 -0.1983614566891302 -0.9286901107661777
5790032 -0.199568571287475 -0.928421110847274
5791214 -0.20039800345290315 -0.9282015986739195
5792396 -0.2012624795824452 -0.9278181407107473
5793578 -0.2020796857574393 -0.9280635355657993
5794760 -0.20314156202088074 -0.9276755706428578
5795942 -0.20419722410706947 -0.927296338528068
5797124 -0.20493649306917042 -0.9269793858649268
5798306 -0.20577212477690482 -0.9268093412998054
5799488 -0.20681174592246113 -0.9266266707525397
5800669 -0.20799805714864802 -0.9264256652048465
5801851 -0.20903697767098767 -0.9259340277052832
5803033 -0.20976949688936053 -0.9257747463250371
5804215 -0.21044440246421933 -0.9260718378632126
5805397 -0.21165052369716691 -0.9254887963275756
5806579 -0.21241110042394776 -0.9254244939882975
5807761 -0.21324367266686897 -0.9249926124422393
5808943 -0.21430023087096337 -0.9245402850403265
5810125 -0.2152819335850609 -0.9250075494926174
5811306 -0.21622812762781915 -0.9243467758210704
5812488 -0.2172306904601759 -0.9240863055230369
5813670 -0.21812359296530506 -0.9239451750566888
5814852 -0.21885174046234632 -0.9237642550885922
5816034 -0.21967698464980492 -0.9234873183217177
5817216 -0.22093480517893105 -0.9233007261187338
5818398 -0.22169213067452614 -0.9231635461011399
5819580 -0.22274567231950426 -0.9227989532621002
5820762 -0.2236421398076972 -0.9222881028482418
5821943 -0.22451005025385548 -0.9219904093366673
5823125 -0.2256615869626944 -0.9219756589711313
5824307 -0.22613147067094955 -0.9214059674460595
5825489 -0.22736749239834408 -0.9215483053434013
5826671 -0.22809138347660662 -0.9213920971663015
5827853 -0.22917075852881102 -0.9210032293787903
5829035 -0.23017745895808361 -0.9208067011714998
5830217 -0.23113971889392126 -0.9207342238643408
5831399 -0.2320723500490481 -0.9204923412753927
5832581 -0.23289629910657866 -0.9201938427350835
5832581 -0.23279482914690316 -0.9198499335018198
5833787 -0.23382148413255807 -0.9201932987877228
5834993 -0.23424932689015332 -0.9196896610401077
5836199 -0.23572774725477258 -0.919481370555626
5837406 -0.23660131797697664 -0.9192839791243211
5838612 -0.23757060837803065 -0.9189173710825299
5839818 -0.23841181790228388 -0.9184294290284611
5841025 -0.23933264847700716 -0.9182130645814601
5842231 -0.24045361619680322 -0.9182689922587227
5843437 -0.24106495756639562 -0.9177818524985882
5844644 -0.2424149998627128 -0.9177492209276203
5845850 -0.24328741944392246 -0.9172726799992386
5847056 -0.24412742278114943 -0.9169865939931431
5848263 -0.2450687510822421 -0.9169689794477542
5849469 -0.24578848101706283 -0.9166678033780288
5850675 -0.24681046647692106 -0.9163248961610211
5851882 -0.24795765820377788 -0.9160065854536245
5853088 -0.24875505526593 -0.9156892257180171
5854294 -0.2494958487005948 -0.9154393441228764
5855501 -0.2506991141657006 -0.9150536882665059
5856707 -0.25150091444467276 -0.9150931774996374
5857913 -0.2525430759792511 -0.9146742277707931
5859120 -0.25331954822732644 -0.9145750701785107
5860326 -0.25434584114171394 -0.9141978053313674
5861532 -0.25527746114150934 -0.9138844564030189
5862739 -0.2561341012898629 -0.9136755866282228
5863945 -0.2571121701212543 -0.9136592938793386
5865151 -0.25794904758084175 -0.913023805656599
5866358 -0.2590216188749609 -0.9128592962819101
5867564 -0.2598937181614531 -0.9124805491900058
5868770 -0.2607013038428294 -0.9123288418764558
5869977 -0.2618244138777542 -0.9119152358560169
5871183 -0.2626960107067035 -0.911395895828934
5872389 -0.2637351996682423 -0.9111738527843821
5873596 -0.2645933958509773 -0.9109715940810489
5874802 -0.2655950154661 -0.910764333933126
5876008 -0.266456776500618 -0.9104035134037645
5877215 -0.2674123973295699 -0.9102535595647367
5878421 -0.2685919897531374 -0.9099841796856442
5879627 -0.2694482918842335 -0.9096414608526345
5880834 -0.2701446613059192 -0.9094070100884469
5882040 -0.27117900037413667 -0.9091076596832027
5883246 -0.27217870160547664 -0.9088875121259725
5884453 -0.2727604054706931 -0.9082912407359873
5885659 -0.274009396702862 -0.9082794293099713
5886865 -0.27491170589355696 -0.9079617196984092
5888072 -0.27581383875127363 -0.9075490139423947
5889278 -0.27662167733434656 -0.9072188272781774
5890484 -0.2775376562006403 -0.9068101133942411
5891691 -0.27828040025073575 -0.9068159394543073
5892897 -0.279405441732643 -0.9066735918708294
5894103 -0.2803241083392819 -0.9062037123296405
5895310 -0.2811696599798813 -0.9059567932921745
5896516 -0.28212456099076366 -0.9057128882322512
5897722 -0.28306446338590124 -0.9052817834697676
5898929 -0.28414291878403247 -0.9047984117955955
5900135 -0.28499528105010874 -0.9048571407609096
5901341 -0.28598948135648194 -0.9043716195599476
5902548 -0.2867489764529058 -0.9038472147026039
5903754 -0.28762267921859047 -0.9035796889083317
5904960 -0.2883940388275798 -0.9034241409746577
5906167 -0.2896698332627121 -0.9030960280722823
5907373 -0.2904619402250714 -0.9026951848586798
5908579 -0.29129248268205016 -0.9022381773787005
5909786 -0.29228031507558305 -0.901933027582359
5910992 -0.293157752281755 -0.9017446297721523
5912198 -0.2939648985669595 -0.9016604975264573
5913405 -0.2950035276280941 -0.9010824687560576
5914611 -0.2960351286160375 -0.9009370071880152
5915817 -0.2968214431821622 -0.9003569199911783
5917024 -0.2976872847921594 -0.9001286045197381
5918230 -0.29879849420612614 -0.8998195465676605
5919436 -0.29986435299694825 -0.8998108936124007
5920643 -0.30081514838849854 -0.8990589158689933
5921849 -0.3017981720780315 -0.8988485553368084
5923055 -0.30251167900812626 -0.8985407513148853
5924262 -0.3034082973155464 -0.8982044886749184
5925468 -0.3045052033403758 -0.8981645230544104
5926674 -0.3052775717979039 -0.8976775866138365
5927881 -0.3059134652836974 -0.897283004654518
5929087 -0.3069067311287596 -0.8969230400119272
5930293 -0.30786988144586364 -0.8965965623007636
5931500 -0.30892627523067656 -0.8963045727136281
5932706 -0.30982298565950644 -0.8960284476565877
5933912 -0.3105538886019719 -0.8955436653069221
5935119 -0.3114735744371726 -0.8953860847873517
5936325 -0.31237653801094173 -0.895089475017856
5937531 -0.31318623414791985 -0.8947573105169592
5938738 -0.31414813752979226 -0.8943057665915348
5939944 -0.31518098617962276 -0.8939562993710888
5941150 -0.31631183922301354 -0.8937165639267255
5942357 -0.31703153395318734 -0.8932326088371438
5943563 -0.31796819466121273 -0.892970479304896
5944769 -0.3189827835211497 -0.8926880930749036
5945976 -0.3197418977351013 -0.89205506254725
5947182 -0.3207594527812972 -0.8918457522344065
5948388 -0.3215260989733281 -0.8917075682617817
5949595 -0.3225647455374596 -0.8911941478212364
5950801 -0.32335904706878726 -0.8909509365986036
5952007 -0.3242792111092812 -0.8905436140872506
5953214 -0.3254693171070651 -0.8903667177910082
5953214 -0.3256155400198805 -0.8906750234646231
5954445 -0.32598102410448565 -0.8897943711423466
5955676 -0.3266963353426836 -0.890544448568009
5956907 -0.3280199163651265 -0.8895045112647312
5958139 -0.3290814048142831 -0.8887500862857439
5959370 -0.32959893683481734 -0.8886743404503714
5960601 -0.330679383222988 -0.8882942110851326
5961833 -0.3316071805784991 -0.8878845041797842
5963064 -0.3326241256395499 -0.8876956851686577
5964295 -0.33354904509837285 -0.887309097218946
5965526 -0.33452536459604837 -0.8868815119117027
5966758 -0.335356327160656 -0.8864677410154768
5967989 -0.33616032998984846 -0.8860243892561626
5969220 -0.33722132681940953 -0.8858098218800549
5970452 -0.3381036413723493 -0.8852963448372111
5971683 -0.3391006977412252 -0.8850970607960201
5972914 -0.34011112184450526 -0.8846917328818641
5974145 -0.3410021517623101 -0.8843203946834459
5975377 -0.34184637549832575 -0.8839985233904851
5976608 -0.3428007009079625 -0.8835015738792986
5977839 -0.34346399531970406 -0.8833966980777633
5979071 -0.344528177013285 -0.8827761283861122
5980302 -0.34535550655300695 -0.8823765577470859
5981533 -0.346372440930801 -0.8820160328519654
5982764 -0.3472406401327998 -0.8815858772342803
5983996 -0.3480828527584653 -0.8809862057924182
5985227 -0.34926905743683523 -0.8808262145165607
5986458 -0.3499831901663037 -0.8803519239097756
5987690 -0.3510142902219076 -0.8801257949250118
5988921 -0.35198016822835476 -0.8797710314484205
5990152 -0.35282929460622175 -0.879593035118518
5991383 -0.3537402413830455 -0.8789765839108894
5992615 -0.3546771115419256 -0.878400481516634
5993846 -0.3556122816555128 -0.8784202224562505
5995077 -0.3564942982000668 -0.8778037698676269
5996309 -0.3572144050885799 -0.8773606016984085
5997540 -0.3583210509783493 -0.877251171285448
5998771 -0.35916450107241016 -0.8767160419807135
6000003 -0.36013729569484904 -0.8764151428716228
6001234 -0.36101718369426644 -0.8757818605141673
6002465 -0.36160530455301154 -0.8752108871446291
6003696 -0.3627554307113102 -0.8750182412111304
6004928 -0.3638346343515142 -0.8749951338030699
6006159 -0.36472720343017023 -0.8745828748673825
6007390 -0.3654063728329931 -0.8741166172624113
6008622 -0.3661819874404696 -0.8736574316796808
6009853 -0.3675374131049669 -0.8729785532535732
6011084 -0.36842182823707076 -0.8727773898812576
6012315 -0.3691130919618282 -0.8723713943704169
6013547 -0.37005249873375756 -0.8718392417395775
6014778 -0.37107384585355235 -0.8716517651949377
6016009 -0.371917507780506 -0.8713065037785572
6017241 -0.3728194169777597 -0.871157231193387
6018472 -0.3735975059292008 -0.8706962935805005
6019703 -0.374634925135152 -0.8700868862422875
6020934 -0.3755874402714296 -0.8695856880410364
6022166 -0.3764409986894045 -0.8691056465167482
6023397 -0.37742546641196406 -0.8687390124877954
6024628 -0.3782798361388923 -0.8683499192234326
6025860 -0.37917159448371446 -0.8676687902756814
6027091 -0.38009678786973267 -0.8675891552194627
6028322 -0.3807960972830828 -0.8668756651877447
6029553 -0.381992031325015 -0.8667149548598929
6030785 -0.38280679870363055 -0.8663939593674631
6032016 -0.3839217463059105 -0.8662586154916121
6033247 -0.3845391777185505 -0.8655975595893332
6034479 -0.3854716900888232 -0.8648770255032072
6035710 -0.3864172010687206 -0.8646135858186546
6036941 -0.3871700111107424 -0.8643120921546893
6038173 -0.3881960654721743 -0.8638225134104328
6039404 -0.38905106016293267 -0.8632965674466779
6040635 -0.3901686849566922 -0.8631098868193032
6041866 -0.390994466679902 -0.8626486228718205
6043098 -0.3919331624399768 -0.8621371872961339
6044329 -0.39271830556706017 -0.8616610636066332
6045560 -0.39358385898966414 -0.8610439725459275
6046792 -0.3944173219213424 -0.860839904897338
6048023 -0.3953675313022095 -0.860199819931808
6049254 -0.39628741200010015 -0.8601491179101947
6050485 -0.39711570304998706 -0.8596004043426395
6051717 -0.3979361366175491 -0.8589610607576744
6052948 -0.39888519573936904 -0.858580278470735
6054179 -0.399776839246018 -0.8582555140743904
6055411 -0.4005868326949851 -0.8578990567984438
6056642 -0.40146337048010844 -0.8576027495159854
6057873 -0.4023162690351004 -0.8568668611469904
6059104 -0.4035005973188206 -0.8564989464407963
6060336 -0.40425943165232714 -0.8562251681803768
6061567 -0.4051417700084582 -0.8554770277073078
6062798 -0.4061326214601204 -0.8552059401093435
6064030 -0.4068713535081396 -0.8548252657929472
6065261 -0.4079808763009242 -0.8543473024951448
6066492 -0.4087530128569455 -0.8540798127974976
6067723 -0.4096230803094469 -0.8534721998879987
6068955 -0.41049384973495706 -0.8528857638067318
6070186 -0.411533548812945 -0.8526152457957146
6071417 -0.41220259115903435 -0.8522020435251968
6072649 -0.4131524182206558 -0.85158845076663
6073880 -0.4139394270808762 -0.8512302126601299
6075111 -0.4149119742501356 -0.8508040167517623
6076343 -0.41581733808930904 -0.8502534649498715
6076343 -0.41573231658983073 -0.8505481668778387
6077599 -0.416631475784611 -0.8497796033546592
6078856 -0.41721935312491754 -0.8494942939201517
6080113 -0.4184352407012461 -0.8490930320546274
6081370 -0.41926270630908163 -0.8483568423858294
6082626 -0.42019899093943464 -0.8482302705956596
6083883 -0.4211553345477197 -0.8475121119044067
6085140 -0.42202962990242 -0.8469423159706573
6086397 -0.4229717379609863 -0.8466318330868781
6087653 -0.42411546790851223 -0.8461550526738301
6088910 -0.4248405984814174 -0.8458379111897706
6090167 -0.42565001173889205 -0.8450478374265122
6091424 -0.4266972667232259 -0.8445763541472209
6092680 -0.42754772938521285 -0.8441728315685548
6093937 -0.42840819828674837 -0.8436838106819613
6095194 -0.42938301876864765 -0.8434604592859348
6096451 -0.43012626142552385 -0.8429976364387153
6097707 -0.4311626447433545 -0.8423928642171264
6098964 -0.43181535985960956 -0.8420299829199089
6100221 -0.4327133947772347 -0.8415564025023629
6101478 -0.43349537783002234 -0.8408781150255187
6102734 -0.4348965555067081 -0.8400888011991993
6103991 -0.43594246946937215 -0.839367994619139
6105248 -0.4361979454474553 -0.83955046407542
6106505 -0.4375982293573153 -0.8388801168464738
6107761 -0.43813326230003646 -0.8386873561408427
6109018 -0.43899528763070955 -0.8380600278265412
6110275 -0.4400012873158335 -0.8375341164211548
6111532 -0.44087460076140983 -0.8371210860125186
6112788 -0.4417346729147035 -0.8365840335943004
6114045 -0.44259322905831316 -0.8360745140686199
6115302 -0.44337360003558934 -0.8354909551905586
6116559 -0.4443188571564895 -0.8352292106701638
6117815 -0.4453444257287244 -0.8347922495053514
6119072 -0.44612875337171054 -0.834024392339601
6120329 -0.4469797808259092 -0.8335871938110813
6121586 -0.44789225504100766 -0.8332105665414011
6122842 -0.4488205637408367 -0.8326286950635494
6124099 -0.4495059490583445 -0.832273583812818
6125356 -0.45058101435253367 -0.831789970894861
6126613 -0.45117580213691477 -0.8311562482602471
6127869 -0.45231438380773 -0.8306416266797768
6129126 -0.4532476804137935 -0.8301032133678303
6130383 -0.4541878469715369 -0.8295206159606725
6131640 -0.45502510993910084 -0.8291547118218262
6132896 -0.4558330789844169 -0.8287664200617824
6134153 -0.45698943597031827 -0.8281490914768024
6135410 -0.45772627388784703 -0.8277966078331752
6136667 -0.4584498244242133 -0.8272454062727587
6137923 -0.45933497793810873 -0.8265375402638009
6139180 -0.4601541912521322 -0.826156368747425
6140437 -0.46093397266833447 -0.8258160623453606
6141694 -0.46176167614265035 -0.8252712171014596
6142950 -0.46257895178022335 -0.8246868326358492
6144207 -0.4635562925124667 -0.8238365222661175
6145464 -0.4644890792900973 -0.8235561906279241
6146721 -0.4654336388941887 -0.8231871643770405
6147977 -0.4662292414481365 -0.8226102986775118
6149234 -0.4671638758954181 -0.8220582006690397
6150491 -0.4679970752481535 -0.8214681459024105
6151748 -0.46894913548210865 -0.8210433493634176
6153004 -0.46986021427460695 -0.8207198483493187
6154261 -0.47066498123685657 -0.8199873235350607
6155518 -0.4716441765975265 -0.8193511114174624
6156775 -0.47241736696002873 -0.81887504517017
6158031 -0.47328944264765127 -0.8183388309959408
6159288 -0.4741053278669012 -0.817961864142674
6160545 -0.4748246014464349 -0.8171429101706678
6161802 -0.4758667348282405 -0.8168881732041984
6163058 -0.476634125766754 -0.8164203397133201
6164315 -0.4775717428415167 -0.8158739511540706
6165572 -0.47833317234300166 -0.8154432518030919
6166829 -0.4791770372233334 -0.8148996675725979
6168085 -0.47995237667899493 -0.8142012203709246
6169342 -0.48089553104923266 -0.8137226860881372
6170599 -0.4817472507236575 -0.8132605419636564
6171856 -0.48280717879552654 -0.8128659198367133
6173112 -0.48354903859266457 -0.8121557422788677
6174369 -0.4845450474505694 -0.8116657012495498
6175626 -0.4853504712859068 -0.8111165199717176
6176883 -0.4859324778792855 -0.8106090902727202
6178139 -0.486995087100834 -0.8098863763587115
6179396 -0.4878848814645068 -0.8094393648347614
6180653 -0.48872213043963747 -0.809175475867966
6181910 -0.4894225718499762 -0.808393826605257
6183166 -0.49030114463077173 -0.8077911002129625
6184423 -0.4914231027925692 -0.807224499690545
6185680 -0.49203313297514756 -0.8067098030308618
6186937 -0.4929163551246995 -0.8063182314954522
6188193 -0.4938367099729302 -0.8057301453692083
6189450 -0.49463347522188117 -0.8052913519013883
6190707 -0.4954028194251405 -0.8046926502206196
6191964 -0.4961142502219154 -0.803987943964655
6193220 -0.4970424810867213 -0.8033811216808242
6194477 -0.49802124384963686 -0.8030395371136125
6195734 -0.4987689896648395 -0.8025779947275479
6196991 -0.4996520779403008 -0.8018256022692036
6198247 -0.5006043358558643 -0.8015573485288365
6199504 -0.5015039730255207 -0.8006814554051146
6200761 -0.5021647246307752 -0.8003345166607825
6202018 -0.5031129827042331 -0.7998366841124371
6202018 -0.5024613596505275 -0.8002928584925629
6203300 -0.5039628362216686 -0.7991152965065961
6204583 -0.504488624838895 -0.7986380937411788
6205866 -0.5057032146828777 -0.7979718776535426
6207149 -0.5062425670919054 -0.7972638008664399
6208431 -0.5073855018329946 -0.796724347823774
6209714 -0.5081154280076631 -0.7962114619372054
6210997 -0.5089437485730335 -0.7955330470648244
6212280 -0.5099734669847632 -0.7951569760454938
6213562 -0.510828562813916 -0.7946796221352994
6214845 -0.5118125208007351 -0.7940479725977151
6216128 -0.5124331657229729 -0.793340948917156
6217411 -0.5133661804129163 -0.7929325136031956
6218693 -0.5139982458575115 -0.7923711725087385
6219976 -0.5149764351463101 -0.7916392179469577
6221259 -0.5159875483838674 -0.7911045079689344
6222542 -0.5167820459122748 -0.7905846222972285
6223824 -0.517621848237239 -0.7899294656772231
6225107 -0.5185723445063712 -0.7896025733399206
6226390 -0.5193563287870779 -0.7889831697833017
6227673 -0.5203054040267039 -0.7881933351994604
6228955 -0.52096885972202 -0.7875049287652224
6230238 -0.5220012809834135 -0.7870541634594731
6231521 -0.5227437129541845 -0.7866361835170166
6232804 -0.5235474805603405 -0.7859470177196187
6234086 -0.5244477827162862 -0.7854400599007243
6235369 -0.5254425686677743 -0.784739935957582
6236652 -0.5262790955029358 -0.7841155726114611
6237935 -0.5269252931444849 -0.7834629350376993
6239217 -0.5278676010785186 -0.7830428455573394
6240500 -0.5287219514061878 -0.7824936956819529
6241783 -0.5296557929986331 -0.7819019334997778
6243066 -0.5303044466612862 -0.7812602819304165
6244348 -0.5311515318426268 -0.7806292712053556
6245631 -0.5319266764535836 -0.7798887943393507
6246914 -0.5327587910781533 -0.7793063617110764
6248197 -0.5335490659907034 -0.7788412692913625
6249479 -0.5346167530219591 -0.7781896511657487
6250762 -0.5342694553181377 -0.7777899108981015
6252045 -0.5364007181340951 -0.7772983026327421
6253328 -0.5371122857870252 -0.7762725194567665
6254610 -0.5378078538910092 -0.7755906621673946
6255893 -0.5386600203605988 -0.7752598492101742
6257176 -0.5394847934184107 -0.77451225357509
6258459 -0.5404073535869319 -0.7740795501805425
6259741 -0.541290635695642 -0.7734191655265367
6261024 -0.5422585206147044 -0.7727194660516657
6262307 -0.5429270508412674 -0.7723854264925607
6263590 -0.5437519503554977 -0.7719389113362087
6264872 -0.5445262788787963 -0.7710818951809241
6266155 -0.545307851281161 -0.7704665671452229
6267438 -0.5461486423650077 -0.769778949239579
6268721 -0.5471217159674988 -0.7691290672690035
6270003 -0.5478731438461502 -0.7685155543938703
6271286 -0.5486916439010885 -0.7678428633065947
6272569 -0.549548441498084 -0.7671952414163643
6273852 -0.5504283203663275 -0.7667013214140996
6275134 -0.5510889445872836 -0.7660382226680811
6276417 -0.5519840880084331 -0.7654071652492762
6277700 -0.5527776382519677 -0.764972186420306
6278983 -0.5534899130652681 -0.7643799481107567
6280265 -0.5543704309683296 -0.763625439115
6281548 -0.5553987285797855 -0.7631611637647003
6282831 -0.556131332568437 -0.7624788124250429
6284114 -0.557023667306091 -0.7617424465262594
6285396 -0.5578315240085978 -0.7612826757433436
6286679 -0.5585202964519174 -0.7604520241124483
6287962 -0.55938029306369 -0.7599474813540877
6289245 -0.5601608966630326 -0.7592977001117809
6290527 -0.5610344514781621 -0.7587995541803922
6291810 -0.5616690121391434 -0.7582421641709719
6293093 -0.5627519199161489 -0.7576119121681458
6294376 -0.5634460726874788 -0.7569016702938737
6295658 -0.5643754079036434 -0.7561625313428766
6296941 -0.5651994707705499 -0.7555537710864076
6298224 -0.5660188994805905 -0.7549520828451738
6299507 -0.5666740496091164 -0.7544011273489926
6300789 -0.5677130825526304 -0.7536994047083478
6302072 -0.5685160870428347 -0.7530147924104268
6303355 -0.5691486862693486 -0.7523788119854246
6304638 -0.5698540810484651 -0.751732365696239
6305920 -0.5705460895085386 -0.7509499162320581
6307203 -0.5715116515805413 -0.7504712937942085
6308486 -0.5723150866580462 -0.7497873874426929
6309769 -0.5732434561964864 -0.7492159475254181
6311051 -0.5738180079882921 -0.7485424325771188
6312334 -0.5744501738858395 -0.7479682344704285
6313617 -0.5756527057759825 -0.7472676849418625
6314900 -0.5766169652290076 -0.7467566992789718
6316182 -0.5771160613328398 -0.7461610416737844
6317465 -0.5780262223251477 -0.7453238107173006
6318748 -0.5787632855902436 -0.7446810535618855
6320031 -0.5796209801746071 -0.7440855832582038
6321313 -0.5804852133266036 -0.7432402410963197
6322596 -0.5812951252163139 -0.7429161107584709
6323879 -0.5821833241478102 -0.7421259078225192
6325162 -0.5828562676150354 -0.7414223427186667
6326444 -0.5836676660263719 -0.7410118571068813
6327727 -0.5844731805314208 -0.7403280314642477
6329010 -0.5851881766784356 -0.7395723488554808
6330293 -0.58604402452367 -0.7389016309847363
6330293 -0.585812045146349 -0.7388621836571028
6331602 -0.5866611520884673 -0.7384021386967702
6332911 -0.5873724334399245 -0.7377533546332348
6334220 -0.5887102324627225 -0.7371182575419845
6335530 -0.5892367278342825 -0.7364267031355687
6336839 -0.5900653709538174 -0.7356458106708608
6338148 -0.5907320052376952 -0.7347130512188659
6339457 -0.5917078829511928 -0.7342330018821183
6340767 -0.5924379276896787 -0.7336157206440184
6342076 -0.5933678901110608 -0.7329590679486591
6343385 -0.5939044203278561 -0.7322200844918801
6344694 -0.5949586629518386 -0.7316023951356059
6346004 -0.5957037022086253 -0.7309126026158932
6347313 -0.5964629419722807 -0.7301198844602838
6348622 -0.5972057811292764 -0.729625739993653
6349932 -0.597975360033909 -0.7288881670767707
6351241 -0.5989252834353886 -0.7281369362951572
6352550 -0.5995443293552432 -0.7272816296581573
6353859 -0.6004087274254402 -0.7268013323321447
6355169 -0.6011256715400928 -0.7260556719844334
6356478 -0.6019432492790681 -0.7254493450323897
6357787 -0.6030017334476643 -0.7248049071536443
6359096 -0.603557754550667 -0.7240848288130867
6360406 -0.6045723640188049 -0.7234954440787666
6361715 -0.6051731327984172 -0.7229347631040693
6363024 -0.6058113372077726 -0.7219389575368139
6364334 -0.606653345500614 -0.7213885921903624
6365643 -0.6075385755020223 -0.7208764559393653
6366952 -0.6084130529161721 -0.7200978048304835
6368261 -0.6091957691564327 -0.7191455739883607
6369571 -0.6099976726456302 -0.7185460094343054
6370880 -0.610774170797118 -0.7177581416086527
6372189 -0.6116388678150646 -0.71700281286441
6373498 -0.6121780011692649 -0.7163103097246433
6374808 -0.613109473348431 -0.7155837119667754
6376117 -0.6140325654215065 -0.7151239726460649
6377426 -0.6147998665663061 -0.7143544048870782
6378735 -0.6152370557475679 -0.7135068413890973
6380045 -0.6162443818626526 -0.7130588801246238
6381354 -0.6169680574861192 -0.7123659444158478
6382663 -0.6175909089041741 -0.7115960568641919
6383973 -0.6182912154288819 -0.7109717105394994
6385282 -0.6192024695293721 -0.7103019814041974
6386591 -0.620185620897282 -0.7095406138420594
6387900 -0.6208007075969816 -0.7086589931298275
6389210 -0.6215372733071838 -0.7080959506632942
6390519 -0.6223670436240432 -0.7072672298594305
6391828 -0.6231223527997614 -0.7066164847751586
6393137 -0.6238229351383523 -0.705614566034282
6394447 -0.6247265587430165 -0.7050236551298882
6395756 -0.6255761282729696 -0.7044362468472857
6397065 -0.6263505757234352 -0.7038578096800816
6398375 -0.6278635777881408 -0.7032598663830683
6399684 -0.6277311047755721 -0.702125343441375
6400993 -0.6286871593484992 -0.7015967519343465
6402302 -0.629438367019136 -0.7008575331002409
6403612 -0.6301338919065715 -0.7001436364773134
6404921 -0.6310280940182871 -0.6996193454660552
6406230 -0.631706761064459 -0.6987712738552625
6407539 -0.632316497328946 -0.698069982999534
6408849 -0.6331423739907731 -0.6971389736757357
6410158 -0.6339395471276048 -0.6966921298204719
6411467 -0.6348802366910423 -0.6958934176480819
6412777 -0.6356581578910763 -0.6952950022229454
6414086 -0.6363623079993003 -0.6944882811834058
6415395 -0.6369994227340195 -0.6936716009907596
6416704 -0.6377470490574167 -0.693084619060976
6418014 -0.6386794303682019 -0.6922968977919643
6419323 -0.6392752412205343 -0.691677897283035
6420632 -0.6400231922969735 -0.6906242322918479
6421941 -0.640677312486355 -0.6902392808242299
6423251 -0.6413951752100646 -0.6892876687462722
6424560 -0.642293871641511 -0.6884844224908544
6425869 -0.6429971722895789 -0.6880901439730854
6427178 -0.6438941513742695 -0.6871665172865014
6428488 -0.6446867105107053 -0.6865622826551007
6429797 -0.6452710075701861 -0.6858082749735248
6431106 -0.6461320417536619 -0.6850017647540662
6432416 -0.6467726048762635 -0.6842249332049906
6433725 -0.6475386535623979 -0.6835940327497074
6435034 -0.6483640459802074 -0.6829322895776581
6436343 -0.6490993796572397 -0.6820605015120993
6437653 -0.6498474559308575 -0.6814004986455047
6438962 -0.6505220401695295 -0.6806525894520399
6440271 -0.6510617856785703 -0.6797465386754492
6441580 -0.6520507068873456 -0.6790989840762578
6442890 -0.6529424871427275 -0.6784629229560342
6444199 -0.6535077626147078 -0.6775942118756726
6445508 -0.6543282777431833 -0.6769203104816911
6446818 -0.6551999571374396 -0.6762049205760732
6448127 -0.6557383009013106 -0.6754133807402641
6449436 -0.6566093197728287 -0.6747035248458111
6450745 -0.6571895747674322 -0.6738105128405459
6452055 -0.6577644728987762 -0.6729882567417768
6453364 -0.6586235834977732 -0.6726212755671495
6454673 -0.6594389739661599 -0.6718784615318832
6455982 -0.6602010437313794 -0.6709167107571091
6457292 -0.6608805536089065 -0.670073251692719
6458601 -0.6616350384139273 -0.669437944718003
6459910 -0.6622175554050527 -0.668737239998761
6461220 -0.6632262177361807 -0.6680881173054158
6461220 -0.6633992011286971 -0.6674849055204497
6462556 -0.663493741347335 -0.6674817273876296
6463892 -0.6645107765723394 -0.6662817038639411
6465229 -0.6651173628111989 -0.66583666860502
6466565 -0.6659331967804768 -0.6649382876815758
6467901 -0.6665860657630955 -0.6640986404464863
6469238 -0.6675082903974784 -0.6634876906516856
6470574 -0.6681030997995415 -0.6625908079244371
6471910 -0.6690061804946751 -0.661663416622832
6473247 -0.6696376269508785 -0.660956609672099
6474583 -0.6705565849123307 -0.6603931912025599
6475919 -0.6708202049827522 -0.6596258333947714
6477256 -0.6718596187936985 -0.6588547561181801
6478592 -0.6725980706174325 -0.6579687740360222
6479929 -0.6733516143113315 -0.6571860938982735
6481265 -0.6740595312731903 -0.6565227397290273
6482601 -0.6747839619411662 -0.6557803790109207
6483938 -0.675468908232445 -0.6547273450626113
6485274 -0.6762963618796541 -0.6538031026996527
6486610 -0.6770490878005454 -0.6532147160396363
6487947 -0.6779346926459768 -0.6523551693774553
6489283 -0.6784260938833817 -0.6516649771514816
6490619 -0.6791553464396349 -0.6508367482777518
6491956 -0.6800281483844886 -0.6502819320432403
6493292 -0.6807726926210237 -0.6494400655259067
6494629 -0.681271506086422 -0.6485805487827077
6495965 -0.6820101207336347 -0.6479285770447726
6497301 -0.6827481782237811 -0.6471383640361905
6498638 -0.683567850868966 -0.6462416641747492
6499974 -0.6843014439939942 -0.6455811317241533
6501310 -0.6848971533586063 -0.644719544374826
6502647 -0.6854220054382775 -0.643857700044851
6503983 -0.6862718813939649 -0.6430760728483758
6505319 -0.6871968388757518 -0.6423338225367675
6506656 -0.6876950244093648 -0.6414165639268847
6507992 -0.6885867913899774 -0.6406847617730895
6509328 -0.6893497494346301 -0.6398450418235558
6510665 -0.6900790876074108 -0.6390800276522622
6512001 -0.6906084135177436 -0.6383390976708742
6513338 -0.6913359468455779 -0.6373689106535531
6514674 -0.6919702270784488 -0.6365754022761714
6516010 -0.6925051093907045 -0.6358979616988124
6517347 -0.6934799335499243 -0.6349904125139317
6518683 -0.6941682128358996 -0.6342041834504645
6520019 -0.6949862721187539 -0.6334147084352449
6521356 -0.6957357161055427 -0.6328877905051906
6522692 -0.6962688570132628 -0.6320269025410727
6524028 -0.6969743673857454 -0.6310222230571974
6525365 -0.6976245033410652 -0.6301770814543634
6526701 -0.6984608011831528 -0.6294756203520304
6528038 -0.6989199696569569 -0.6285426958418714
6529374 -0.699641672738153 -0.6278038239693906
6530710 -0.7004098437131968 -0.6268177372354933
6532047 -0.7011636878941025 -0.6260384482266763
6533383 -0.7019199562972888 -0.6252541319288393
6534719 -0.7023117860833502 -0.6244693592301235
6536056 -0.7030785145560527 -0.6237135123232292
6537392 -0.703864046002835 -0.6229859645029081
6538728 -0.7047350854357707 -0.6222863237366975
6540065 -0.7051407118644992 -0.6213791042988012
6541401 -0.7058115617836884 -0.6203900907833303
6542737 -0.7065110783498121 -0.6196953144499477
6544074 -0.7072622106885298 -0.6190613492994784
6545410 -0.7079960134808836 -0.6174917213534235
6546747 -0.7085677148907077 -0.6170859513157133
6548083 -0.7092916885597572 -0.616511346285
6549419 -0.7101867911145611 -0.6155366240855105
6550756 -0.7108771597653888 -0.6148165482834975
6552092 -0.7113919584244147 -0.6137843569886365
6553428 -0.7122668734928809 -0.6131916316382423
6554765 -0.7128135909536725 -0.6121804627618387
6556101 -0.7134429856516247 -0.6116352977012768
6557437 -0.7143697653060943 -0.6106871532842973
6558774 -0.7147813838725979 -0.6099427773066983
6560110 -0.7155254982484053 -0.6090804641032378
6561447 -0.7161707194634421 -0.6082463528210723
6562783 -0.7169123031651834 -0.6074622103542466
6564119 -0.7177468660197587 -0.6068873476246323
6565456 -0.7181717185704566 -0.605772236026756
6566792 -0.7188125050635752 -0.6048918953096339
6568128 -0.7193835424526794 -0.6040948790591454
6569465 -0.7202385087265606 -0.6032530286845407
6570801 -0.7208616451887134 -0.6024460528124914
6572137 -0.7217079410477043 -0.6017890239366033
6573474 -0.7221781004395965 -0.6007337094171299
6574810 -0.7229322849651728 -0.5998960142485702
6576146 -0.723491168559876 -0.599070432308191
6577483 -0.7241710519106667 -0.5983142581204065
6578819 -0.7247304635655918 -0.5973958573626944
6580156 -0.7256026021003172 -0.5965377593186237
6581492 -0.7260102912143294 -0.5957222090717893
6582828 -0.7270104217440185 -0.5949777374825378
6584165 -0.7274923536385612 -0.5940547811161258
6585501 -0.7281621120057219 -0.5933011551466892
6586837 -0.7287668508700251 -0.5925042518833762
6588174 -0.7293719130423134 -0.5915554999221234
6589510 -0.7300995943228002 -0.5906678346070177
6590846 -0.7307610354031228 -0.5900519980963759
6592183 -0.7313740805913896 -0.5889457675131277
6593519 -0.7321888782819918 -0.5881389571704407
6594856 -0.7328268822288776 -0.5872224069803437
6594856 -0.7323683358954008 -0.5871842944601325
6596219 -0.7335194415303288 -0.5864856241794032
6597583 -0.7340669358271301 -0.5855446282369564
6598947 -0.7347912190028955 -0.584762851285557
6600311 -0.7353577316287955 -0.5838437118822468
6601675 -0.7361372518695922 -0.5828830019674995
6603039 -0.7365978372993984 -0.5821168296233514
6604403 -0.7375558485665905 -0.5812082290807847
6605767 -0.7378553072325446 -0.5803322283627902
6607131 -0.7387294394997854 -0.5794574183189014
6608495 -0.7393314010602542 -0.5786402089422753
6609859 -0.7400180712810775 -0.5778405534351257
6611223 -0.740644672954112 -0.5768872716590644
6612587 -0.7412769128364617 -0.5760597862450705
6613951 -0.7419478067245318 -0.5751709233751582
6615315 -0.7426773278412824 -0.5744384811506184
6616679 -0.7433285231411754 -0.5734989515675076
6618043 -0.7439021164307666 -0.5725094469463161
6619407 -0.7444007070896352 -0.5714580292475254
6620771 -0.7451094155788126 -0.5706586667911373
6622135 -0.7455775770022764 -0.5698155069559325
6623499 -0.7465827545056366 -0.5689850140187926
6624863 -0.7470425831390926 -0.5679164879635514
6626227 -0.7477766825247996 -0.5672660647803652
6627591 -0.7481622134616115 -0.5662937020284663
6628955 -0.7490290243329837 -0.56538309963574
6630319 -0.7496404987727008 -0.5644862498215051
6631683 -0.7503064380915013 -0.5638175440890345
6633047 -0.7507564141906716 -0.5627151513076879
6634411 -0.7516354476177977 -0.5619218570193968
6635775 -0.7521504980456055 -0.5610813695920781
6637139 -0.7527636159942331 -0.5603198545304335
6638503 -0.7534814344001804 -0.5594112445249744
6639867 -0.754171528866222 -0.5584669219954526
6641231 -0.7546737197255982 -0.557519046724818
6642595 -0.7552730649765881 -0.556657869366824
6643959 -0.755968335861348 -0.5559073622995534
6645323 -0.7564955531833834 -0.5548996643365406
6646687 -0.7569942518308242 -0.5541022579845946
6648051 -0.7578613905938082 -0.5530927721085097
6649415 -0.7582809140532761 -0.5522264318269614
6650779 -0.7588919246902066 -0.5511456256974079
6652143 -0.7594212631381462 -0.5504610135889514
6653507 -0.7602291361331895 -0.5495977006357731
6654871 -0.7609171369658905 -0.5487447270369648
6656235 -0.7614677191387302 -0.5477211603818622
6657599 -0.7620680705241667 -0.5467406079707307
6658963 -0.7628049910453979 -0.5459902200417492
6660327 -0.7633943315371373 -0.5449796487771519
6661691 -0.7638550801958303 -0.5440600123095033
6663055 -0.7643503363356765 -0.5430381564759335
6664419 -0.7651457576103523 -0.5423340156862833
6665783 -0.7655587570135619 -0.5414460634503845
6667147 -0.7663000261702216 -0.5404435854126306
6668511 -0.7667821101363625 -0.5395356468505693
6669875 -0.7675033415347805 -0.5386095788043183
6671239 -0.7683045882494086 -0.5377179481376587
6672603 -0.7688848954810371 -0.5368986411435946
6673967 -0.7692363040093283 -0.5358733535174407
6675331 -0.7700749306434791 -0.5351723235743232
6676695 -0.7706463687304712 -0.5343356487195416
6678059 -0.7713213359382542 -0.5332885266561529
6679423 -0.7718197639101075 -0.5323766857063265
6680787 -0.7723053899234987 -0.5314720958494246
6682151 -0.7728350102979937 -0.5306747287801526
6683515 -0.7734971039151666 -0.529878645038532
6684879 -0.7742623242870628 -0.5288271787662436
6686243 -0.7748405742710178 -0.5279658330185378
6687607 -0.7753909625659628 -0.5269190317239903
6688971 -0.7760397982092863 -0.5260107473030279
6690335 -0.776603031978992 -0.5253313867870105
6691699 -0.7771163351208615 -0.5242825614405514
6693063 -0.777453633379485 -0.5237538494405708
6694427 -0.7785450658660295 -0.5225820566657627
6695791 -0.7788818616300378 -0.5213834502308409
6697155 -0.7794635013034671 -0.5205808388524197
6698519 -0.7802247736658999 -0.5198628814696381
6699883 -0.7808892085238078 -0.5187557579100376
6701247 -0.7812363105675197 -0.5178034361458064
6702611 -0.7817039506680107 -0.5169492463789926
6703975 -0.782482463498567 -0.5161589550399971
6705339 -0.7830526627235449 -0.5151929412263467
6706703 -0.7835895152554585 -0.514221608117298
6708067 -0.7841495328391908 -0.5135754241586263
6709431 -0.7846891198546342 -0.5123909253446509
6710795 -0.7852909759076393 -0.5113109261165648
6712159 -0.7858260817254918 -0.5105946292932934
6713523 -0.7864185187784842 -0.5096022186472693
6714887 -0.7869955813289239 -0.5088135788601449
6716251 -0.7877058673248957 -0.5079134354047994
6717615 -0.7881932463062965 -0.5066729537545215
6718979 -0.7888317840089901 -0.5058963397352868
6720343 -0.789247569092181 -0.5048556552549497
6721707 -0.7898517883548224 -0.5040535030927903
6723071 -0.7902493895896773 -0.5029190458918182
6724435 -0.7909615607554638 -0.5021322905621148
6725799 -0.7913732444108836 -0.5012139767152367
6727163 -0.7922608203138517 -0.5002888359078331
6728527 -0.7926902552867208 -0.499506630499248
6729891 -0.7933418983225207 -0.4984935537174241
6731255 -0.7936750305918308 -0.49753985510530896
6731255 -0.7936960836516529 -0.49716103063176964
6732647 -0.7941459355251196 -0.4968336597186615
6734039 -0.7948162259737696 -0.49569473990172286
6735431 -0.7955976934859014 -0.4947156176427135
6736823 -0.796170226815983 -0.4939369515615817
6738216 -0.7965734781360478 -0.4927800870678806
6739608 -0.7970370308069692 -0.4918447269806342
6741000 -0.7977137007675297 -0.49093756728771404
6742392 -0.7983840085150483 -0.48987500532746814
6743784 -0.7988148764781581 -0.48889385195107404
6745177 -0.7994303804474008 -0.48803968894805755
6746569 -0.7999773788322847 -0.4870983593041747
6747961 -0.8002779778339595 -0.4859930924545956
6749353 -0.800983152957441 -0.48506892722682843
6750745 -0.8016121025151194 -0.4840912274867612
6752138 -0.80222245915148 -0.4832290508713071
6753530 -0.8027881323112906 -0.48233184863137324
6754922 -0.8034389936932497 -0.48151379328342864
6756314 -0.8039486778701499 -0.48050550055273045
6757706 -0.8043153746891686 -0.47932708875685437
6759099 -0.804968347698738 -0.478540903322757
6760491 -0.8052931446721671 -0.4774357291046043
6761883 -0.805829308440085 -0.4764888229729949
6763275 -0.8065069899143252 -0.47551811700693875
6764668 -0.8070141703629863 -0.4745725893377752
6766060 -0.8076415031366977 -0.4734273608459645
6767452 -0.8082060043622104 -0.4724218332320351
6768844 -0.8087244608058791 -0.4715213738462463
6770236 -0.8092950656677728 -0.47068881256952116
6771629 -0.809804559836479 -0.4695813129743842
6773021 -0.8105245102587414 -0.46874085355476175
6774413 -0.8108556120835623 -0.46776293772530786
6775805 -0.8112206140893101 -0.4667595353492206
6777197 -0.8118448641153423 -0.46596404611378855
6778590 -0.8123561516058541 -0.4650003685808705
6779982 -0.8130842346063722 -0.4638818660284337
6781374 -0.8135551123037416 -0.46289673370468737
6782766 -0.814063712110109 -0.4620710917374191
6784158 -0.8143953241798182 -0.46099412448186033
6785551 -0.815135458629097 -0.4600377285966362
6786943 -0.8155843618401039 -0.45918424589312873
6788335 -0.8158844678674413 -0.4578590950730458
6789727 -0.8166517773456919 -0.4570197605010549
6791120 -0.8170924029545001 -0.4561137700018185
6792512 -0.8174930843195126 -0.45494494972039307
6793904 -0.8181879749616497 -0.4539641951048732
6795296 -0.8186480631243718 -0.4530755115589718
6796688 -0.8193789928899005 -0.4522478802437601
6798081 -0.8198464817563366 -0.4511821975680708
6799473 -0.8200887360023684 -0.4501314001413963
6800865 -0.8208330183105031 -0.44926035908596434
6802257 -0.8212440925783104 -0.4483113474630696
6803649 -0.8217548835661137 -0.447319080256246
6805042 -0.8222174569185126 -0.44631360755373906
6806434 -0.8227429143547627 -0.4452841427593408
6807826 -0.8232329003689332 -0.4443142344269156
6809218 -0.8237801145943572 -0.443303285723729
6810610 -0.8243500054596606 -0.4424410715214907
6812003 -0.8247480946903779 -0.44136572920286665
6813395 -0.8252732340403791 -0.4403964168632377
6814787 -0.8257069955696829 -0.43942397385689236
6816179 -0.826341540629345 -0.4383996524499611
6817572 -0.8264981901912312 -0.4372622401625446
6818964 -0.8273611272546972 -0.4364076463778866
6820356 -0.8278094613616587 -0.43534230462630313
6821748 -0.8282906878606889 -0.43441835134122087
6823140 -0.8288217004593978 -0.433446391136163
6824533 -0.829236756439647 -0.4325097523784312
6825925 -0.8296364716004309 -0.43150381156553447
6827317 -0.8302039900147512 -0.4305661750063943
6828709 -0.8308730390301551 -0.42952541852768433
6830101 -0.8311388609447387 -0.42846972932674326
6831494 -0.8317170642788045 -0.4274219835214106
6832886 -0.831863231682599 -0.4265464118573254
6834278 -0.8324835923755318 -0.42552111886346955
6835670 -0.83320746508469 -0.4246343516563758
6837062 -0.8336149202014264 -0.4237410548830209
6838455 -0.8340615311037333 -0.4224807907914381
6839847 -0.8348935665168908 -0.42148655299487886
6841239 -0.8353577463097634 -0.42028265452555186
6842631 -0.8354107307083941 -0.41957665019886475
6844024 -0.8362339273477505 -0.4185295166672358
6845416 -0.8364673869981704 -0.41749511240052356
6846808 -0.8369586178031727 -0.4163782478176194
6848200 -0.837546679066957 -0.4154187742131227
6849592 -0.837976334355095 -0.4146479473931456
6850985 -0.8383250204126474 -0.4134817938448556
6852377 -0.8388934963946393 -0.4124986739033816
6853769 -0.8391118224859139 -0.41158189938235196
6855161 -0.839678830167525 -0.4105693098615773
6856553 -0.8401225463113619 -0.4095762836782255
6857946 -0.8406000148243893 -0.4084808139368981
6859338 -0.840917695331789 -0.40730340603995296
6860730 -0.841501327572607 -0.40639776160041713
6862122 -0.842249040415461 -0.4055941810616596
6863514 -0.8425676827208459 -0.40458174823088716
6864907 -0.8429197479006297 -0.4034040435523635
6866299 -0.8432856478135059 -0.4023624908916616
6867691 -0.8437645065006151 -0.4015050571074554
6869083 -0.8441882182684073 -0.40051822737211196
6870476 -0.8447786701873269 -0.3993174941033631
6870476 -0.8449399372293213 -0.3993223016850039
6871897 -0.8452594526728204 -0.3984694503197777
6873318 -0.8455928068727625 -0.3972739927226937
6874739 -0.8460144046493153 -0.3963331032935426
6876160 -0.8465591332172312 -0.3952380721057871
6877581 -0.8470277830820462 -0.3942813708632685
6879002 -0.8474385655298194 -0.39329154937995053
6880423 -0.8478747706311838 -0.3922693594240812
6881844 -0.8482793839851697 -0.39115663352181945
6883265 -0.8487736594062629 -0.3901700703642927
6884686 -0.8492857068909406 -0.3891280774936865
6886107 -0.8499465397785043 -0.38820207860790806
6887528 -0.8501935503733774 -0.38714580533266735
6888949 -0.8505921403492522 -0.38603772108265233
6890370 -0.8511062501914664 -0.3850053082203757
6891791 -0.8515702749025867 -0.3840600230103424
6893212 -0.8518206792456835 -0.38292004740325736
6894633 -0.8523241904483239 -0.3819191382509018
6896054 -0.8530086793290051 -0.3811432988193724
6897475 -0.8535845016781469 -0.37994863323191536
6898896 -0.8538968375932914 -0.37895520001768507
6900317 -0.854168724119756 -0.37774082472150894
6901738 -0.854471815803265 -0.3767929416922379
6903159 -0.8549882587913544 -0.3757193413512484
6904580 -0.8554035504172744 -0.3746273819568868
6906001 -0.8559619070119134 -0.373627117539009
6907422 -0.8562822283884144 -0.3726539851925952
6908843 -0.8567047439707135 -0.3714868812726057
6910264 -0.8570816994476878 -0.37034569771400305
6911685 -0.8573691771762079 -0.36928032942246275
6913106 -0.8579472480834323 -0.3684180492299574
6914527 -0.8582871649268056 -0.3672892931311752
6915948 -0.8588282851042223 -0.3663567867527597
6917369 -0.85917497113121 -0.3652943107842689
6918790 -0.8596068366870434 -0.3641625560696969
6920211 -0.8601064240087091 -0.3631110311530656
6921632 -0.860805905166813 -0.36229796369389056
6923053 -0.8609057077924549 -0.3610547604017782
6924474 -0.8613281584731733 -0.3599769667355107
6925895 -0.8616921172293348 -0.35907544297140503
6927316 -0.8621425309876238 -0.3581228604930706
6928737 -0.8624589138238415 -0.35678855933209747
6930158 -0.8627192760818547 -0.3558015525709956
6931579 -0.8631394420406073 -0.3547678058158202
6933000 -0.8637471630626613 -0.3537922073453992
6934421 -0.864151215942325 -0.35259605728999277
6935842 -0.8645162120451934 -0.35165394002504313
6937263 -0.8647519778906027 -0.35047990095372356
6938684 -0.8653522217511647 -0.3495539340545157
6940105 -0.8658198250257231 -0.3484716609889407
6941526 -0.8660765151572107 -0.3473506115952162
6942947 -0.8665350463416533 -0.346291019642027
6944368 -0.8668352499512528 -0.3454629854675613
6945789 -0.8674858488184051 -0.3443747564843159
6947210 -0.8678446916144793 -0.3432713714270345
6948631 -0.8680594175159806 -0.34216605120764937
6950052 -0.8683561233026295 -0.34116824582623045
6951473 -0.8689949720106984 -0.3401827252831311
6952894 -0.8691892183068004 -0.33895155937956334
6954315 -0.8696059823553453 -0.3380226774441624
6955736 -0.8700014975330426 -0.3369653692868306
6957157 -0.8704255076605236 -0.335821633417005
6958578 -0.870757119430362 -0.33494845754639135
6959999 -0.8709813271531458 -0.33379924952089624
6961420 -0.8714079434300194 -0.332777225330053
6962841 -0.8719542032046029 -0.33165191549160195
6964262 -0.8722536692752352 -0.33058392502486617
6965683 -0.8725236547588565 -0.32953521456404944
6967104 -0.8731200269054958 -0.3283360769867911
6968525 -0.8734137267396985 -0.3273855093130309
6969946 -0.8738403426535728 -0.32634531870595507
6971367 -0.8741262146258528 -0.32537820275183726
6972788 -0.8743731459963735 -0.32421363177398865
6974209 -0.8747811202426546 -0.3232259435515645
6975630 -0.8752100396051611 -0.32218952560860925
6977051 -0.8756624084730283 -0.32106516438467675
6978472 -0.8762093330520473 -0.3199471459883111
6979893 -0.8763378523842521 -0.3190177865439501
6981314 -0.8766427337186501 -0.3178242456478262
6982735 -0.8769138599383294 -0.3166929568201241
6984156 -0.8775715487411623 -0.3156977159648615
6985577 -0.8777356386652946 -0.3146676688468938
6986998 -0.8780656848585423 -0.31362211145451785
6988419 -0.8781044834813192 -0.3126127040345468
6989840 -0.8790097051155031 -0.3114180129622982
6991261 -0.878909515884231 -0.310456818416184
6992682 -0.8795832593065606 -0.3094403681310933
6994103 -0.8798480547135737 -0.3083131744353494
6995524 -0.8802809636335779 -0.3072436913298156
6996945 -0.8806438691722688 -0.30616388761686497
6998366 -0.8809843667844992 -0.3051612226248953
6999787 -0.8814674118592962 -0.3040932056528824
7001208 -0.8815338862039268 -0.3029557740359196
7002629 -0.8818997793698139 -0.30190964671797305
7004050 -0.8822750393305341 -0.3007238791914551
7005471 -0.8826696818460933 -0.29965760487074383
7006892 -0.8831003086106126 -0.29869394107050873
7008313 -0.8834082567497757 -0.2975272258894619
7009734 -0.883624235118171 -0.29648913794766857
7011155 -0.8839314444617 -0.29532996129332106
7012576 -0.8841597895088052 -0.2943485735710476
7012576 -0.8842412489918223 -0.29465112722733044
7014026 -0.8845341674612768 -0.29309085956212516
7015476 -0.8847520451023615 -0.29221001441340483
7016927 -0.8852945090025722 -0.29107505177314186
7018377 -0.885582487299108 -0.2899411282279195
7019827 -0.8857621365964067 -0.2890055853218643
7021278 -0.8860743461127558 -0.2878717459277239
7022728 -0.886385035435722 -0.2867087359000612
7024179 -0.8867398273783577 -0.2856291780223077
7025629 -0.8873044522464635 -0.2846550937573464
7027079 -0.8875600573664978 -0.28335349418176836
7028530 -0.8879743199032825 -0.2823853034291152
7029980 -0.8880878980091031 -0.2812131830534179
7031431 -0.8884829758772445 -0.28001365497756564
7032881 -0.8889197214789719 -0.2791150595905937
7034331 -0.8890885908581522 -0.27789648794621147
7035782 -0.8892045441851986 -0.2766312356660423
7037232 -0.8896094257517657 -0.27561263606071107
7038683 -0.8899600904533883 -0.2746294991699868
7040133 -0.8902514800145167 -0.27339699154894803
7041583 -0.8906275429847492 -0.2724167216766679
7043034 -0.8910121549420807 -0.2713385742353998
7044484 -0.8912037861863535 -0.27022508575872195
7045934 -0.8914872905361685 -0.26895286770374366
7047385 -0.8918707999200334 -0.26804351205052346
7048835 -0.8921618803975496 -0.26685969949889804
7050286 -0.8923986207766829 -0.2657575411767874
7051736 -0.8928466467940989 -0.2646342089279201
7053186 -0.8931170778870978 -0.26354228198458113
7054637 -0.8933859218032685 -0.26249150268832067
7056087 -0.8937382302306041 -0.26140871314147157
7057538 -0.8939742443833092 -0.2601935605234462
7058988 -0.8943270258935779 -0.259215696874515
7060438 -0.8946637962189796 -0.25813945189678206
7061889 -0.8948818908296909 -0.2569636149766557
7063339 -0.8951245296140019 -0.2558535513756731
7064790 -0.8955980697207722 -0.25484284476778485
7066240 -0.8957738121224285 -0.2536943848825312
7067690 -0.8960433473281609 -0.25242529479543385
7069141 -0.8963479103822622 -0.25139510503722345
7070591 -0.8967010034215754 -0.2502575034230646
7072041 -0.896794851245316 -0.24919561460167217
7073492 -0.8973148958067875 -0.2480548518192506
7074942 -0.8974514466371923 -0.24692994303313745
7076393 -0.8977416251670004 -0.2457956670772549
7077843 -0.8979281393439094 -0.24476782978568515
7079293 -0.8981773358421571 -0.24368929456554334
7080744 -0.8985967215125168 -0.24254767922861548
7082194 -0.8988142662703877 -0.24142354140000286
7083645 -0.8990281664206076 -0.2404788036529737
7085095 -0.8993487815926426 -0.23942143493359105
7086545 -0.8995562889408886 -0.23811156202467884
7087996 -0.8997693304746921 -0.23698169457496196
7089446 -0.9000440289306862 -0.23591873416001194
7090897 -0.9002467658208547 -0.23471879562323422
7092347 -0.900559093717691 -0.2335605820587785
7093797 -0.9009786479793722 -0.23252808105193748
7095248 -0.9012899862700869 -0.23151712519535997
7096698 -0.901550280952125 -0.230326397841531
7098149 -0.9017783300605041 -0.22912501086520892
7099599 -0.9018930047449096 -0.2282073525745129
7101049 -0.9023523565823771 -0.22706762285546386
7102500 -0.9025127784836218 -0.2258733842725984
7103950 -0.9026963613940779 -0.22478426841617982
7105400 -0.9028377368639955 -0.22356325081268358
7106851 -0.9033025865461258 -0.2225309226640708
7108301 -0.9037211391986921 -0.22155987249338444
7109752 -0.9039100737391974 -0.2203538967600011
7111202 -0.9040366089829514 -0.21920233799287117
7112652 -0.904206193816556 -0.21798459842368376
7114103 -0.9045189116212 -0.21697843096075792
7115553 -0.9047716639662854 -0.21580533107747243
7117004 -0.9049210680082641 -0.21473114071692131
7118454 -0.9052672764838343 -0.21346710708988353
7119904 -0.9054795661369739 -0.2124370002777999
7121355 -0.9055789755154182 -0.21132716636432788
7122805 -0.9058813059033985 -0.21035675069694407
7124256 -0.9061661771633209 -0.2090401070746714
7125706 -0.9063685434241247 -0.20800717894838458
7127156 -0.9066301424675494 -0.20693900192996068
7128607 -0.9068497321980743 -0.20580159130852013
7130057 -0.9070067765541254 -0.20456665062854765
7131507 -0.9072088527203322 -0.20353167624987106
7132958 -0.9074474788978726 -0.20246481397444313
7134408 -0.9077302229719825 -0.20128746320541804
7135859 -0.9085342661067263 -0.20029748877557943
7137309 -0.9079779459881552 -0.1988882861692073
7138759 -0.908468999118414 -0.19803231565976473
7140210 -0.9086025008193778 -0.1968050093948544
7141660 -0.908522025261467 -0.1957154666494242
7143111 -0.9088340847805995 -0.19445453103159702
7144561 -0.9091774403132131 -0.19339552305762828
7146011 -0.9093056424648821 -0.19217931596592575
7147462 -0.9096925356877686 -0.19117358571955104
7148912 -0.9098158574682694 -0.190029067141804
7150363 -0.910150048490922 -0.18893618654985458
7151813 -0.9101723712325221 -0.18783684831544473
7153263 -0.9102803238484919 -0.18664274243504922
7154714 -0.9106275395313664 -0.18554880162991602
7156164 -0.9108645671537364 -0.18445791761156588
7157615 -0.911121093755531 -0.18328988584823794
7157615 -0.9107698465570959 -0.18328560703694094
7159095 -0.911425753184003 -0.18226815003130445
7160575 -0.9115113812840151 -0.1810783870954528
7162056 -0.9115852138635238 -0.17983998592266295
7163536 -0.9120235599680437 -0.1787706517061692
7165016 -0.912080759275631 -0.17772181520782393
7166497 -0.9122738746630366 -0.17657067898308165
7167977 -0.9124608586573684 -0.17527693774806075
7169458 -0.9125969940189421 -0.17412812455120427
7170938 -0.9128161688401744 -0.17301120174260076
7172418 -0.9131169732835142 -0.17188601556074848
7173899 -0.9133296557694267 -0.17057732715411136
7175379 -0.9133270561819596 -0.16959048524230483
7176860 -0.913558887842018 -0.16827052491666353
7178340 -0.9136641992830177 -0.167249996352694
7179820 -0.9139856011557751 -0.1660894379515008
7181301 -0.9141018071927002 -0.16504718173320113
7182781 -0.9142854555500979 -0.1639120770730097
7184262 -0.914475394668646 -0.1627225200090868
7185742 -0.9145064153708514 -0.1615741911066564
7187222 -0.9147718574063224 -0.16033442031186695
7188703 -0.9150350414821848 -0.15927791863005017
7190183 -0.9151579675465877 -0.15807392834635772
7191663 -0.9153622039471433 -0.15703786935510478
7193144 -0.9155888707714037 -0.15561611395588446
7194624 -0.9157642303158066 -0.15452422408093963
7196105 -0.9159222925043518 -0.15340615103288763
7197585 -0.9161280474823416 -0.15236614196294423
7199065 -0.9161948555380567 -0.15109581243404618
7200546 -0.9165060004417024 -0.15001815945725464
7202026 -0.9164797552707521 -0.1488235577732699
7203507 -0.9165572336621929 -0.14752180453425615
7204987 -0.9168577785435689 -0.14653661398182646
7206467 -0.9170422894085513 -0.14534910267377887
7207948 -0.9171647312076211 -0.1441877762877994
7209428 -0.9172560159446268 -0.1430382720793519
7210909 -0.9174692915922551 -0.14195557754654126
7212389 -0.9175758871743803 -0.14074172943491783
7213869 -0.9178259010882229 -0.1396700674731369
7215350 -0.9178435401262521 -0.13850522940069349
7216830 -0.9182529955536702 -0.1374458911854321
7218310 -0.9183227577427049 -0.1362998850215149
7219791 -0.9184685608984349 -0.13504753852201198
7221271 -0.9185754211694149 -0.133820873478424
7222752 -0.9187256017531835 -0.13274109710003876
7224232 -0.9190243138646549 -0.1315289791884118
7225712 -0.9190308667712433 -0.1302881497925672
7227193 -0.9192434680398995 -0.12923641656203394
7228673 -0.9192965378733523 -0.1281723289991556
7230154 -0.9194255784110423 -0.1270153679670745
7231634 -0.9194712225338658 -0.12587272415050732
7233114 -0.9195752354223201 -0.12469063111455313
7234595 -0.9198671038796464 -0.12356028649658818
7236075 -0.9199434514389665 -0.12238430503884196
7237556 -0.9199378910036379 -0.1210912922204001
7239036 -0.9200398851019302 -0.11994868768390345
7240516 -0.9201589004432438 -0.11874805070513164
7241997 -0.9203798691908874 -0.11766793105506655
7243477 -0.9201180515232988 -0.11643043818933516
7244958 -0.9207223696155106 -0.11543689271415622
7246438 -0.9207513458143004 -0.11437930368234998
7247918 -0.920792004217663 -0.11313521526026163
7249399 -0.9209240123473343 -0.11204255913733438
7250879 -0.9210698577650408 -0.11081507131252821
7252359 -0.9211902617144577 -0.10971413660925783
7253840 -0.9212675632339474 -0.10850086952219096
7255320 -0.9213015350652333 -0.10717532078079399
7256801 -0.9215385480107574 -0.1062617625219466
7258281 -0.9215781016258145 -0.10496865282660796
7259761 -0.9218537146031405 -0.10394824985032627
7261242 -0.9218809172683802 -0.10273021215980817
7262722 -0.9220784262259516 -0.10155698699193899
7264203 -0.9220867728439684 -0.1003616413242352
7265683 -0.922075832172314 -0.0991519485599958
7267163 -0.9221515523691299 -0.09791694054702023
7268644 -0.9220168526978827 -0.09675817039818099
7270124 -0.922482995680218 -0.09565599083058715
7271605 -0.9222545653056865 -0.09456024932772891
7273085 -0.9227472002253772 -0.09341775644328405
7274565 -0.9226496874717519 -0.09224374130682202
7276046 -0.9228292915965846 -0.09116735865251159
7277526 -0.9228091929298924 -0.08994591950570298
7279006 -0.9228012714001697 -0.08884702656424262
7280487 -0.9232011855162431 -0.0876700998999336
7281967 -0.9231227620926509 -0.08648207216648535
7283448 -0.9231936760031011 -0.08509223964666306
7284928 -0.9232666395149719 -0.0842253396476221
7286408 -0.923471238060902 -0.08311659936578276
7287889 -0.9232667905532321 -0.0818578012074187
7289369 -0.9233609323751383 -0.08078270913549368
7290850 -0.9234516994237482 -0.07941337855892994
7292330 -0.9236482355305665 -0.07835448720034968
7293810 -0.923798055282911 -0.07710628321701099
7295291 -0.9237309160592732 -0.07609213536500486
7296771 -0.9238544493921886 -0.07488553437114667
7298252 -0.9239561307721876 -0.07371179193725211
7299732 -0.9240051451881521 -0.07261752678541614
7301212 -0.9239502538117 -0.07140928147981049
7302693 -0.9241302417119682 -0.07023468452405351
7304173 -0.924273116428979 -0.06918530893641665
7305654 -0.9241685792568881 -0.06805660313978612
7305654 -0.9247261555414453 -0.06833566043070115
7307165 -0.9242146349451654 -0.06659939628466312
7308676 -0.9243589314593442 -0.06568914666837081
7310187 -0.9244067844934659 -0.06436138018634213
7311698 -0.9245383401388684 -0.06329478920603673
7313209 -0.9245044330446573 -0.062145161786322727
7314720 -0.92447759057304 -0.060856993860645435
7316231 -0.9246937244531703 -0.059571735169661376
7317742 -0.924767841485314 -0.05848508327992661
7319253 -0.9246585353012038 -0.05732754140047682
7320764 -0.9247292136126165 -0.056027017547245025
7322275 -0.9249242867220414 -0.05491815811976538
7323786 -0.9249842645311139 -0.05378947594218033
7325297 -0.9251145379390253 -0.05269350235173188
7326808 -0.9248677459478808 -0.051476573193400085
7328319 -0.9250590066327695 -0.050249879511721135
7329830 -0.9249074302450198 -0.04899352567773557
7331341 -0.9250749323312873 -0.04785931267823076
7332852 -0.9250136616491966 -0.046745003414675856
7334363 -0.9250612476537646 -0.04539679088499746
7335874 -0.9251198757615547 -0.04438229825373347
7337385 -0.9250613242566531 -0.04319010305053805
7338896 -0.9251880213700673 -0.04201921396431297
7340407 -0.9252562240897166 -0.04077590098490705
7341918 -0.9251848625282901 -0.039537664087289245
7343429 -0.9253145629913423 -0.038315954725264084
7344940 -0.9253055785949478 -0.03715885078654169
7346451 -0.9253572214563514 -0.03610302550983729
7347962 -0.9252898169478408 -0.03485248106495763
7349473 -0.9253366457922296 -0.03376583060376358
7350984 -0.9254966882372824 -0.03264579542550357
7352495 -0.9254183479458327 -0.031359153271648066
7354006 -0.9253196672842441 -0.030174775849542076
7355517 -0.9254207191272775 -0.029014990417984096
7357028 -0.9255137729667011 -0.02789163984754015
7358539 -0.9252245792699655 -0.026641798315477964
7360050 -0.925379609044274 -0.025362545335853363
7361561 -0.9254058910371109 -0.024181243359991337
7363072 -0.9255762403505267 -0.023129212889283678
7364583 -0.925476841426681 -0.021821144233289506
7366094 -0.9255526728459812 -0.020678189031015856
7367605 -0.9252556281280978 -0.019435049121575586
7369116 -0.9254349628154894 -0.018453475713918425
7370627 -0.9255528352715834 -0.017206974293675896
7372138 -0.9253608963147699 -0.015958481315262615
7373649 -0.9253276965606501 -0.014754426888006756
7375160 -0.9253866233091804 -0.013667735753226502
7376671 -0.925465178643488 -0.012500864069839522
7378182 -0.9252649738840625 -0.01128674051122316
7379693 -0.9252317368634844 -0.010170832692774497
7381204 -0.9254927555305017 -0.00879716572100772
7382715 -0.9251734538873295 -0.007499577778154275
7384226 -0.9251654992316324 -0.006484063999723937
7385737 -0.9253251317046852 -0.005335550601287427
7387248 -0.9252894256185484 -0.004181614058941657
7388759 -0.9252220429760426 -0.002895487642378176
7390270 -0.9252003511723333 -0.0018441433683257645
7391781 -0.9252550563323794 -0.0006429958111474315
7393292 -0.9250221529887893 0.0005677732772534403
7394803 -0.9252415291308129 0.0016377303566672042
7396314 -0.9253005620220273 0.002877035069903056
7397825 -0.9251566289539752 0.004111282269207286
7399336 -0.925025357992065 0.005327887769974918
7400847 -0.9249262976724011 0.00637828789186025
7402358 -0.9250200358950987 0.007717570772890106
7403869 -0.9248715403054224 0.00883720318776586
7405380 -0.9249308433535904 0.010100694779798547
7406891 -0.9249958085200548 0.011209527640015824
7408402 -0.9248338586999486 0.012299435577104919
7409913 -0.9246334132158734 0.013578088373982243
7411424 -0.9247792832505406 0.014797305864863306
7412935 -0.9249279808454287 0.01599552792286688
7414446 -0.9244572263540591 0.01721696211330545
7415957 -0.9245570243986769 0.018272674442236805
7417468 -0.9246991760169754 0.01940377251150069
7418979 -0.9245707342182273 0.020481896237713935
7420490 -0.9244325318261357 0.021703805590627137
7422001 -0.9244305834885017 0.022922084233896828
7423512 -0.9244169987373065 0.02397061339753575
7425023 -0.9243042996946509 0.025344591513961148
7426534 -0.924299822960203 0.026505132800940523
7428045 -0.9240237927098002 0.027636309854428068
7429556 -0.9241419531511432 0.028706265751225
7431067 -0.9239533597524483 0.02981657992090547
7432578 -0.9240029191979928 0.03139950114319461
7434089 -0.9239706470513976 0.03232798610895106
7435600 -0.9239278056900455 0.03367560136733123
7437111 -0.923736502168401 0.03468908258980509
7438622 -0.9237187701198977 0.035944120939433194
7440133 -0.9235209912044946 0.037152989299743214
7441644 -0.9235014196029692 0.03831175546555134
7443155 -0.9233233365796848 0.039533643979287
7444666 -0.9233990802848971 0.040588655564009986
7446177 -0.9232916137543895 0.0417778379607695
7447688 -0.923207545822373 0.04295201930064934
7449199 -0.9231392038312771 0.0440166735061634
7450710 -0.9231006699613185 0.04526590831997698
7452221 -0.9230817592563904 0.04653100110603806
7453732 -0.9228649489073475 0.0478076783169309
7455243 -0.9230079785685756 0.04888515454991612
7456754 -0.92291812189559 0.05016189752845119
7456754 -0.9226290985956623 0.05029688516959146
7458296 -0.9227014426932272 0.051048138358845585
7459838 -0.9225190039286505 0.05243814666172532
7461380 -0.9223939932206672 0.05359960728144383
7462923 -0.9223535276407525 0.0547770131531389
7464465 -0.9222441457045176 0.05614267069252881
7466007 -0.9221518080408614 0.057216360660986114
7467549 -0.922201478939283 0.05845682898699957
7469092 -0.9220463780520572 0.05958859300432833
7470634 -0.9219144498857967 0.06088747871464006
7472176 -0.9216530734395212 0.061988783433847096
7473718 -0.9214924299852163 0.06313558660222489
7475261 -0.9214982783172047 0.06437918615128907
7476803 -0.9213838148262323 0.06567562380774947
7478345 -0.9212691979372851 0.06693731401829782
7479887 -0.9212379255061246 0.06794551375829026
7481430 -0.9212540761161514 0.06933804978435601
7482972 -0.9209244220145529 0.07029310511804042
7484514 -0.920621443374063 0.07149984470967839
7486056 -0.9206391535797058 0.07275448008167741
7487599 -0.9206337586328479 0.07396686025812382
7489141 -0.9205398654471466 0.07516524477304337
7490683 -0.9205131052200518 0.07633631493010366
7492225 -0.920202286108685 0.07765783231176024
7493768 -0.9202451316410649 0.07864632284731755
7495310 -0.9200636981279399 0.07996774241303514
7496852 -0.9198844709185627 0.08113555629045936
7498395 -0.9196503251243064 0.08236086262852733
7499937 -0.9193867977776806 0.08369405431572334
7501479 -0.9193912097742225 0.08484632453245859
7503021 -0.9193735508245325 0.08596537883891874
7504564 -0.9190195851150945 0.08712376655536423
7506106 -0.9190801826055719 0.08844066151828361
7507648 -0.9187367191388864 0.08966941122261207
7509190 -0.9187661123754788 0.09066135056101031
7510733 -0.9184418202207597 0.09194177736497862
7512275 -0.9185615347135737 0.09314555053336653
7513817 -0.9184694381695179 0.09430909248959167
7515359 -0.9180811843780121 0.09538139273429369
7516902 -0.9178851861839566 0.09665002565690481
7518444 -0.9179429692823189 0.09780762040512461
7519986 -0.917711768748223 0.09905045900277837
7521528 -0.9174885389640074 0.10035940736666653
7523071 -0.9174271346612882 0.10150351856653272
7524613 -0.917047496093379 0.10284528897078432
7526155 -0.9171911902613452 0.10375445216097991
7527697 -0.9170011746112553 0.10493068595456231
7529240 -0.9166859636774369 0.10620188073290002
7530782 -0.9166296140600618 0.10753111709790816
7532324 -0.9164180015452743 0.10868812524915777
7533867 -0.916202896347014 0.10970495928381743
7535409 -0.9161417298870506 0.11106999793376064
7536951 -0.9161031593068246 0.11207357577620809
7538493 -0.9157119871360692 0.11342641554888347
7540036 -0.9155256119790148 0.11448249810690693
7541578 -0.9151629255076609 0.11570992773614441
7543120 -0.9151246163591179 0.11689852042140395
7544662 -0.9149326317653168 0.11792636284345566
7546205 -0.9147566092301126 0.11934837186916797
7547747 -0.9147873349403673 0.12040776387131563
7549289 -0.9142885573323286 0.12166047383081711
7550831 -0.9141507106950181 0.12292822157400891
7552374 -0.9140615813394668 0.12415941674558607
7553916 -0.9138603303000549 0.12530016946751832
7555458 -0.9136183843513378 0.12643237043154215
7557000 -0.9133893545700422 0.127606579899112
7558543 -0.913347637586057 0.1288477850715611
7560085 -0.9131449254922116 0.12999382458996717
7561627 -0.9130252701333684 0.13114119892394552
7563169 -0.912632381106861 0.13240769438283984
7564712 -0.9125791924710744 0.1334707149504836
7566254 -0.9123598110771318 0.13464868631728802
7567796 -0.9120736169471763 0.13588887595274257
7569338 -0.9121675894751815 0.137138640735857
7570881 -0.911568160544939 0.13824978679027722
7572423 -0.9117131979280192 0.1394640316658399
7573965 -0.9113378219812576 0.14055095684070154
7575508 -0.9111081374643092 0.14179072994879682
7577050 -0.9110701938767036 0.14305307442052262
7578592 -0.9105982446281519 0.14426161446616553
7580134 -0.9106699989531196 0.14535834028159608
7581677 -0.9105190862274651 0.14658454380213592
7583219 -0.9101565569672635 0.14769720720245624
7584761 -0.9098156404821208 0.1488232775099573
7586303 -0.90980253717301 0.14996280596172654
7587846 -0.9093943950093171 0.1512189818829589
7589388 -0.9091114174940765 0.15229607036538667
7590930 -0.9090926657988596 0.15368278644151967
7592472 -0.9088033476154993 0.15484768466136037
7594015 -0.9086204706064381 0.1560373043710504
7595557 -0.9083951052640116 0.15730121957801182
7597099 -0.9080449103603997 0.15821732155744295
7598641 -0.9078561460924854 0.159543156657287
7600184 -0.9074215229222853 0.16054759997257587
7601726 -0.9073444272534245 0.16185804018634764
7603268 -0.9070993807462494 0.1629524587280312
7604810 -0.9069215428233137 0.1642231610237139
7606353 -0.9067468959392513 0.1653701663219284
7607895 -0.9065830041387265 0.16641181807109204
7609437 -0.9061383983227194 0.16762176941860682
7610980 -0.905948743568922 0.16882725737755988
7610980 -0.9056214589483796 0.1683619584372204
7612554 -0.9060528697417634 0.17001205752351967
7614128 -0.905371622004082 0.17120266393524727
7615702 -0.905533930725757 0.1724357593451454
7617276 -0.9049990410814531 0.1735825495575088
7618850 -0.9049114647166424 0.1748739731951704
7620424 -0.904519882154523 0.17613195868661133
7621999 -0.9042485610511544 0.17718251265096993
7623573 -0.9040020253988871 0.17837910855022537
7625147 -0.9037831880533899 0.1797029192607118
7626721 -0.9033860343008209 0.1807936424603554
7628295 -0.9030856156687391 0.18197167701019015
7629869 -0.9028409080289462 0.18305234424817718
7631444 -0.9026909744625337 0.18437574544408428
7633018 -0.9023044136457808 0.18554308203180156
7634592 -0.9020978760157254 0.18668106788217717
7636166 -0.9017519943241159 0.18798489026997225
7637740 -0.9016023780971143 0.18916927719321897
7639314 -0.9014458463053465 0.19034515916159428
7640889 -0.9011381969121273 0.19152971603567062
7642463 -0.9006272911187475 0.19266903849335587
7644037 -0.9003502868714001 0.19393023897351902
7645611 -0.900250607193255 0.19506947843099673
7647185 -0.90010268758154 0.1962657140467335
7648759 -0.8995244248636893 0.19750422829360975
7650334 -0.8992119503124215 0.19855485589282296
7651908 -0.8990154797396496 0.19968913320172393
7653482 -0.8985187236567499 0.2009787094310082
7655056 -0.8984320972467283 0.20218716712418586
7656630 -0.8982390299500409 0.20338995489267633
7658204 -0.8978117681870452 0.2045633705018218
7659778 -0.8976126654966983 0.20575345808201584
7661353 -0.897319597303534 0.2069105523427329
7662927 -0.8970020507431737 0.2083393755869526
7664501 -0.8967086275850239 0.20941628447387506
7666075 -0.8963638110399815 0.21046907310945634
7667649 -0.8960249165719021 0.21160504318616677
7669223 -0.8958222883554559 0.2128994814044567
7670798 -0.8954380697540257 0.21389911772217388
7672372 -0.8952050140603498 0.21524524218168925
7673946 -0.8947838159095465 0.21639505534904066
7675520 -0.8945102114911491 0.21752893906172824
7677094 -0.8941430882590183 0.21862037095230658
7678668 -0.8936670270848052 0.21988509331304812
7680243 -0.8933366758833766 0.2210299880004029
7681817 -0.8930379430304743 0.22232904672099887
7683391 -0.8928213709825656 0.2234343589054706
7684965 -0.8925095535228963 0.22463869702572212
7686539 -0.892182637914685 0.22555785429212996
7688113 -0.8917252184163659 0.22691794010714278
7689688 -0.8913508237688446 0.22801761746886812
7691262 -0.8912934023730994 0.22934075032434742
7692836 -0.8910000414389335 0.230443806063619
7694410 -0.8905372883417431 0.23174733526753588
7695984 -0.8902727010563628 0.23286801514932923
7697558 -0.8898623085409247 0.23394027567557757
7699132 -0.8896374473083071 0.2350514132467714
7700707 -0.889082277847082 0.23617391218762598
7702281 -0.8888219973378028 0.23741549407025253
7703855 -0.8886093031949164 0.23866701745440788
7705429 -0.8884458610204868 0.23981898712793276
7707003 -0.8879139630229039 0.2409134744426057
7708577 -0.8875220203322711 0.24220953111621302
7710152 -0.8873711503946841 0.24349506066214657
7711726 -0.8870644554498219 0.24445950461153224
7713300 -0.8865757495267991 0.2456572118569704
7714874 -0.8863641875193998 0.24699424762741518
7716448 -0.8858105692566011 0.24797224803906623
7718022 -0.8854042273602744 0.24907524384197563
7719597 -0.8850177863311339 0.2500739583393683
7721171 -0.884727351614725 0.2514834115965928
7722745 -0.884491284708002 0.25274118472789914
7724319 -0.8839797032744033 0.25371516578575615
7725893 -0.8836391218853372 0.25461209608771956
7727467 -0.8834937887570389 0.25620500715086286
7729042 -0.8831383455207686 0.2571997215072052
7730616 -0.8826249212688679 0.2584543550132092
7732190 -0.8820572577074813 0.2595571310258946
7733764 -0.8817972147857384 0.2607705767596124
7735338 -0.8813935987097065 0.2619701654020532
7736912 -0.8808955562626144 0.2632198529473804
7738486 -0.8806115646170237 0.2641383573090344
7740061 -0.880228776163728 0.26537985796142893
7741635 -0.8798493820887835 0.26657671097390273
7743209 -0.8795572862464621 0.267711017191971
7744783 -0.8791394471692834 0.26878003271869355
7746357 -0.8788465365650799 0.2698996016684918
7747931 -0.8784235105757328 0.27113703794991784
7749506 -0.8778321089448587 0.2722659250728504
7751080 -0.877589404288659 0.27336890127036256
7752654 -0.8769928570583913 0.274700529513925
7754228 -0.8768683496891535 0.2757712057507128
7755802 -0.8763354767140321 0.27687583744380323
7757376 -0.8760656242495004 0.2778913203413096
7758951 -0.8754949703860437 0.27929478023562315
7760525 -0.8750503435295384 0.2803445874006578
7762099 -0.8746709646461366 0.2815954525736686
7763673 -0.8743748671575318 0.28263783467040526
7765247 -0.874154379224004 0.2839045830177758
7766821 -0.8736653241228817 0.2849076862264439
7768396 -0.8732749716513039 0.2859826616575082
7768396 -0.8730077449365202 0.28574402731351917
7770002 -0.8728869097328084 0.28723763794672713
7771609 -0.8723161479472825 0.2885184253004444
7773216 -0.8719435988524066 0.28953859121398134
7774822 -0.8714940717075705 0.2907261552516201
7776429 -0.8711471407921325 0.2917218380367699
7778036 -0.870781720405377 0.2930453911744469
7779642 -0.8699893430222992 0.29419366416568743
7781249 -0.8699941260016799 0.2955103378848639
7782856 -0.8693858146788755 0.29665658998236955
7784463 -0.8689990567030761 0.2975854688040278
7786069 -0.8686447036026607 0.2989295331768814
7787676 -0.8681719815273252 0.30017853794310045
7789283 -0.8675299737729626 0.3012734046253054
7790889 -0.867354592085862 0.30244509954124904
7792496 -0.8670131761841595 0.30342400687792503
7794103 -0.8666498406097405 0.30469662467705744
7795710 -0.8660290005073381 0.30600559775886393
7797316 -0.865414539999039 0.30699167642448816
7798923 -0.86503961964902 0.30821007851659843
7800530 -0.8646493618282247 0.3093877018760613
7802136 -0.8643427400543214 0.31054570348315635
7803743 -0.8637107330375933 0.3117696382763089
7805350 -0.8634715447864554 0.3129227474304186
7806957 -0.8628668181414735 0.3140772912233524
7808563 -0.8623685161026561 0.31538857685738036
7810170 -0.8621459714911037 0.3164731054374385
7811777 -0.8614562374093174 0.31741741456175987
7813383 -0.8610946499370354 0.31860675770041713
7814990 -0.8607357844452874 0.31997371450662976
7816597 -0.8601701215845337 0.32105558975126725
7818204 -0.8598038435346884 0.3221692672394636
7819810 -0.8594935974970745 0.3232007935155488
7821417 -0.8590825578899065 0.32448375540522056
7823024 -0.8582964474332954 0.32544912713041135
7824630 -0.857901017595302 0.3266897290677776
7826237 -0.8573874192493462 0.32794482963835025
7827844 -0.8570861757089936 0.32899677637879166
7829450 -0.8564987277692147 0.33001871006046846
7831057 -0.855995507386588 0.33135051447509056
7832664 -0.8555203628891402 0.33249307697992764
7834271 -0.8549425409978078 0.3335439063078245
7835877 -0.8546471513668779 0.3347486113575294
7837484 -0.8542649621044832 0.33587858365837137
7839091 -0.8537360856621399 0.3369695938088607
7840697 -0.8531828375686268 0.3381801513683273
7842304 -0.8528556659069115 0.3394521511916116
7843911 -0.8523310647025285 0.34049205233717716
7845518 -0.8519043814468507 0.34174985808883135
7847124 -0.8514250428211212 0.34271043408742546
7848731 -0.8510180879647625 0.34382062576982486
7850338 -0.8503982624318999 0.3450456888820259
7851944 -0.8499369435399045 0.3463804848422962
7853551 -0.8495823873969377 0.3473158637514753
7855158 -0.8489621618490081 0.34837972278282775
7856765 -0.8483874131703855 0.3493316027374758
7858371 -0.8477664403357074 0.3506814573285333
7859978 -0.8474370614751945 0.3519110223972255
7861585 -0.8468737521243095 0.3529497425203961
7863191 -0.8464364115412615 0.3542084950212578
7864798 -0.8461971413837251 0.35532432698288763
7866405 -0.8453343271725046 0.35626589631653327
7868012 -0.8448688462710832 0.3576393704338377
7869618 -0.8444992288420468 0.3587264878568553
7871225 -0.8436853744281327 0.359724027955267
7872832 -0.8434933190591458 0.36109523485989287
7874438 -0.8429069109264641 0.36203641730377945
7876045 -0.8424129441072071 0.36309480017964935
7877652 -0.8417088527326149 0.36444955481618124
7879258 -0.8414963193026592 0.3653957967341816
7880865 -0.8408154290633361 0.36658885778733863
7882472 -0.8402974140697697 0.36774599876027164
7884079 -0.8397781153250238 0.3687491477262055
7885685 -0.8392399591148233 0.36995983841902114
7887292 -0.8388209164542788 0.37107665667948686
7888899 -0.838470819503666 0.3722843755454932
7890505 -0.8378626891544584 0.37326211443464313
7892112 -0.8374361851517296 0.37438558561021557
7893719 -0.8367063171023539 0.3756258198984467
7895326 -0.8363545589983529 0.37672514972542925
7896932 -0.8356052510004773 0.37790006579447544
7898539 -0.8350734895001014 0.37894635252938863
7900146 -0.8344849327478322 0.38013106593166757
7901752 -0.8339572158730211 0.38117438710752233
7903359 -0.8334817717280157 0.3823779239759695
7904966 -0.8329981432744613 0.3833906735877201
7906573 -0.8324993997586047 0.38446728271329356
7908179 -0.8318643537233728 0.38549711750311
7909786 -0.8313009480276327 0.38662877396238127
7911393 -0.8307524650502061 0.38782680453543417
7912999 -0.8302314894977071 0.3889738648106417
7914606 -0.8297394073028282 0.3900062718699514
7916213 -0.8290883540896871 0.391165452350107
7917820 -0.8287306859519425 0.3921954925970956
7919426 -0.8281689746488582 0.39321445577781083
7921033 -0.8274006339969273 0.3944117211339512
7922640 -0.8270187472820331 0.39558096953840294
7924246 -0.8262012700630836 0.3965891511199717
7925853 -0.8258549101309781 0.39771358141970303
7927460 -0.8253262939977909 0.39903151484458055
7929067 -0.8245507553333954 0.3998762672127626
7929067 -0.8243337579539299 0.3996805120204304
7930706 -0.8243832802614692 0.40114812185668697
7932346 -0.8233123858512627 0.4021711367047551
7933986 -0.8230133865219518 0.40341764882667325
7935626 -0.8223747555585499 0.4045714413012962
7937266 -0.821776574039216 0.4054927034115519
7938906 -0.8211914832773187 0.40658608545882685
7940546 -0.8205741440390913 0.40769327049351833
7942186 -0.8200459674478261 0.4088604616551742
7943826 -0.8194550986234593 0.4100002446013874
7945466 -0.8190023787680087 0.41128126450287666
7947106 -0.8184828194794525 0.412126392618849
7948746 -0.8177475586132823 0.41335902043620526
7950386 -0.8173975358144554 0.4145495168253068
7952026 -0.8164396431361759 0.41562201131732873
7953666 -0.815862440554256 0.4168602958212414
7955306 -0.81557985675889 0.41795978048322496
7956946 -0.8148950690349567 0.4189289227301756
7958586 -0.8144562597745209 0.4201246719661998
7960226 -0.8136624676346036 0.42116962966756744
7961866 -0.8130541048348824 0.4223247478557086
7963505 -0.8124441912790632 0.42346881576929635
7965145 -0.811940390213825 0.4243589525567582
7966785 -0.8111642492882555 0.42551161124232156
7968425 -0.8106222304832137 0.4268628782852416
7970065 -0.8099407625909347 0.42787427855253296
7971705 -0.8092760567068814 0.4287203719052808
7973345 -0.8086346399068783 0.43002751406550077
7974985 -0.8081658252215511 0.43096964176130104
7976625 -0.8075840597796338 0.4323470326954576
7978265 -0.80691578439496 0.4333057370030965
7979905 -0.8062349597147359 0.43440811335999374
7981545 -0.8055950650788376 0.43552901693149804
7983185 -0.8049902593962448 0.4365182969537712
7984825 -0.8046385127254709 0.4378750539167279
7986465 -0.8037828889224174 0.43879797657621417
7988105 -0.8034623192850903 0.4399110420225797
7989745 -0.8024594225700729 0.4407827656250222
7991385 -0.8019832963952587 0.44198878946645836
7993025 -0.8012367578801576 0.4430072018333226
7994665 -0.8006403690666544 0.4442493230025273
7996304 -0.7999597772839113 0.4453817261321875
7997944 -0.7994177786109984 0.44650835034847436
7999584 -0.7987513953980562 0.44749142578423606
8001224 -0.7984352282534328 0.4487368634173573
8002864 -0.7975548968442672 0.44975644923386865
8004504 -0.7967686186093176 0.4508690829625692
8006144 -0.7961698412855573 0.4519762301036758
8007784 -0.7954449051003264 0.45287564459217616
8009424 -0.7950379284516632 0.45406069253781584
8011064 -0.7942987655843368 0.4551638217730845
8012704 -0.7937287372602279 0.45622940603451706
8014344 -0.7929648603067714 0.45739033834817217
8015984 -0.792406334190877 0.45840319174135596
8017624 -0.79163901350243 0.45948301322810137
8019264 -0.7910187270012996 0.4606549498926855
8020904 -0.7900849029304285 0.4618256854500521
8022544 -0.79003946322658 0.4626899348483704
8024184 -0.7890600580678979 0.4637577847775784
8025824 -0.7886333192175398 0.46501217148395907
8027464 -0.7880404659051528 0.46606078789782757
8029103 -0.7871061164979836 0.46709462360712056
8030743 -0.786517266629057 0.4679253758894636
8032383 -0.7858903984007992 0.46893408042744633
8034023 -0.7851878575908002 0.47020860306901374
8035663 -0.7844114498400028 0.47122834304653655
8037303 -0.7836832423430966 0.4722503137072962
8038943 -0.7830541727575617 0.47340254237677587
8040583 -0.7824783173850787 0.47446392456593506
8042223 -0.781720175932635 0.47554709345320384
8043863 -0.7810488364775021 0.47647794213413575
8045503 -0.7804164798703285 0.4777146529872705
8047143 -0.779764049814015 0.47859856482645574
8048783 -0.7790925910167528 0.47981439812822324
8050423 -0.7784140693844348 0.48084282234525416
8052063 -0.7779067793675665 0.48183252068737503
8053703 -0.7772982392254162 0.48284816571622236
8055343 -0.7762246290240361 0.48385459284081656
8056983 -0.7757533221195536 0.4849931235027912
8058623 -0.7749524943985867 0.48595820540571744
8060263 -0.7744536408978706 0.487125593738646
8061902 -0.773726403361514 0.48826652231523315
8063542 -0.7729494823551858 0.4891414742623917
8065182 -0.7721151828206998 0.49033364461576395
8066822 -0.7714604364798932 0.49144969616811285
8068462 -0.7711215218587386 0.49245055374736235
8070102 -0.7702986277655272 0.4934400559408832
8071742 -0.7694651821442142 0.4943314154645453
8073382 -0.768657567317209 0.4955011235681864
8075022 -0.7679793068638027 0.49654365248358556
8076662 -0.7673711481159909 0.4977101574726147
8078302 -0.76665415726598 0.49853550029967764
8079942 -0.7660339890872021 0.49956368000707596
8081582 -0.7653485388008963 0.5005547835906402
8083222 -0.7646203670330232 0.5017166358598885
8084862 -0.7639310101919058 0.5027372075447977
8086502 -0.7629671437024969 0.5037364986158748
8088142 -0.7625778857304654 0.5048488125364419
8089782 -0.7616951856476272 0.5059484501400614
8091422 -0.7610051961917775 0.5068242960928424
8093062 -0.7602379464287997 0.507894090506761
8093062 -0.7602825566839172 0.5081819097387171
8094735 -0.7595586371171941 0.5089039304890971
8096409 -0.7589456782838503 0.5099629613147911
8098083 -0.7581355696702543 0.5110778466485331
8099757 -0.757557079221926 0.5120076809088316
8101431 -0.756591551625355 0.5130439247437685
8103105 -0.7560718207537224 0.5140739752141326
8104779 -0.7551013317209501 0.5151422391298744
8106452 -0.754333559484845 0.5162503804556622
8108126 -0.7536033470344936 0.5172359657484425
8109800 -0.7527537424718911 0.5182492885151949
8111474 -0.7521666197401161 0.5196321820900325
8113148 -0.751635616585537 0.5205688741297351
8114822 -0.7508235078856563 0.5213875705744678
8116496 -0.750080860122641 0.5224831759821004
8118169 -0.7492300481176197 0.5235451429956423
8119843 -0.7484050553056807 0.5246956953134112
8121517 -0.7476214862906727 0.525492030915149
8123191 -0.747016939844026 0.5267046291752131
8124865 -0.7461531997427047 0.5279111901617523
8126539 -0.7454222306975469 0.528841244117809
8128213 -0.7447283153742884 0.5297282811288275
8129886 -0.744000417231189 0.5307994922096928
8131560 -0.743079206019935 0.5316341888115785
8133234 -0.7423865807547972 0.5328605936803478
8134908 -0.7415390676388008 0.5339838031099959
8136582 -0.7407397829821166 0.5347090306221982
8138256 -0.7401095698840087 0.5359505812249672
8139930 -0.7393588167624708 0.5368604425943255
8141603 -0.7386586497072337 0.5379339785242284
8143277 -0.7379105759418507 0.5390530791654047
8144951 -0.7369859944096693 0.5399077613038361
8146625 -0.7361973837825643 0.5410116025995166
8148299 -0.7354036626363493 0.5420637648753911
8149973 -0.7344741011892989 0.5430312942820482
8151647 -0.7336079020123731 0.5438713740675037
8153320 -0.7331121108359779 0.5450467914318968
8154994 -0.7321770203592883 0.5461238287110989
8156668 -0.7315161139829642 0.5470357355605666
8158342 -0.7307274354779342 0.5481010206994117
8160016 -0.7298925038218577 0.549167105694585
8161690 -0.7291807317185439 0.550002311129284
8163364 -0.7284091433461838 0.5510134317361416
8165037 -0.7275844448885682 0.5521310836492123
8166711 -0.7267894193757702 0.553130248140538
8168385 -0.7257669070302613 0.5542361455928532
8170059 -0.7254004430600779 0.5551517780859129
8171733 -0.7243820972673304 0.5562359364793762
8173407 -0.7236743869861276 0.5569972174093571
8175081 -0.7228525151872978 0.5581715646829389
8176755 -0.7221311059352271 0.559350728505918
8178428 -0.7211673506700051 0.5600501208927579
8180102 -0.7204058463275338 0.560997328029468
8181776 -0.719458324405691 0.5619768958205612
8183450 -0.7188037414208036 0.562972352916359
8185124 -0.7178175117999748 0.564220070729117
8186798 -0.7171617034534972 0.5651491534981121
8188472 -0.7162715917733139 0.5660805507510843
8190145 -0.7154561595629125 0.5670360829099684
8191819 -0.714705462994383 0.5681655555605163
8193493 -0.7140463335746363 0.569116615576522
8195167 -0.7131000588814386 0.5699801097319017
8196841 -0.7122269742403369 0.5709891256547402
8198515 -0.7116608204984097 0.5718558710248676
8200189 -0.7106408554431295 0.5730113523703287
8201862 -0.7099367333779337 0.5738895239613677
8203536 -0.7090638787705261 0.5749406234300023
8205210 -0.7084082150302659 0.5759392606626924
8206884 -0.7073920885740074 0.5770019215312958
8208558 -0.7066131645251063 0.5778816652221349
8210232 -0.7057595109476347 0.5788675638154174
8211906 -0.7048198716409669 0.5796669032007926
8213579 -0.7041123995866353 0.5808718016625051
8215253 -0.7033804141764409 0.5818420234256776
8216927 -0.702310058600316 0.5827709325631992
8218601 -0.7015303422567758 0.583608676888957
8220275 -0.7008118668655058 0.5846873785688276
8221949 -0.6999638337406469 0.5857351261719113
8223623 -0.6991444885165727 0.5865479453346539
8225296 -0.6982196852576152 0.5873820483666062
8226970 -0.6973176346955128 0.5884423642341818
8228644 -0.6965894702188585 0.5895070057133159
8230318 -0.6955795515391207 0.5906829380333298
8231992 -0.6949025607012262 0.5915293436362999
8233666 -0.6940603939542057 0.5923781896594763
8235340 -0.6931840491076507 0.5932766053734769
8237013 -0.6923651577304136 0.5944504259191388
8238687 -0.6916301489036811 0.5954051181124315
8240361 -0.6907380299534587 0.5962544410863965
8242035 -0.6897133232112652 0.5972635237129437
8243709 -0.6887599551650122 0.598174090802048
8245383 -0.6882340314659372 0.5991746122955763
8247057 -0.6871201152070904 0.6000755021424574
8248730 -0.6865207453598087 0.6011095525648978
8250404 -0.6856563332462736 0.6020894034983437
8252078 -0.6848110065285012 0.6028203394153846
8253752 -0.6839695033241675 0.6037807888520854
8255426 -0.6830264133839088 0.6048502652990527
8257100 -0.681996802370178 0.6057752710371687
8258774 -0.6812106313520736 0.6065842056728773
8260448 -0.6804602120432401 0.6077909824859689
8260448 -0.6805045693860479 0.6072719620450433
8262156 -0.67965019318491 0.6087692308090332
8263864 -0.6784490224984464 0.6095338255817204
8265573 -0.6777992616261952 0.6106467968444393
8267281 -0.6768024502228581 0.6115868380107903
8268990 -0.6757864400652243 0.6122902732855905
8270698 -0.6753177125814592 0.6132775053486202
8272407 -0.6741575546178817 0.6143735051658258
8274115 -0.673291457315169 0.6152753022794129
8275824 -0.6723944769316605 0.6160740543792522
8277532 -0.6713866385773001 0.6172695566787003
8279241 -0.6705600090671264 0.618202417765887
8280949 -0.6695632151877462 0.61907050429533
8282658 -0.6688837025225373 0.6202833229743036
8284366 -0.66783116689282 0.6212751646327588
8286075 -0.6671974556633878 0.6219760077616222
8287783 -0.6660364683822302 0.6230123737834669
8289492 -0.665392826067302 0.6237852861984624
8291200 -0.664352707868273 0.6249662812034779
8292909 -0.6632983899307927 0.6258545575194508
8294617 -0.6625205595917296 0.6268329565476475
8296326 -0.6613293796865686 0.6275230736490804
8298034 -0.66055053592885 0.6283743858043944
8299743 -0.6598014957653721 0.629482980141531
8301451 -0.6587595903577609 0.6304471215098217
8303160 -0.6578037770514933 0.6311422493029455
8304868 -0.65682027667474 0.6323104424571382
8306577 -0.656034652728991 0.6332448701305078
8308285 -0.6550903958528332 0.6340350007750987
8309994 -0.6542083452896088 0.6352185649420994
8311702 -0.6533133424000138 0.635837095859724
8313411 -0.6524480584181511 0.6367121478925301
8315119 -0.6510983860486793 0.6378554385464179
8316828 -0.6506749918080103 0.6385327885608528
8318536 -0.6494915584318585 0.6397786406860181
8320245 -0.648578232068599 0.6403459459412418
8321953 -0.6478106174886329 0.641308752596564
8323662 -0.6467804846042726 0.6423395083482386
8325370 -0.6457791151716942 0.643306531569766
8327079 -0.6450313105826698 0.6442484554750882
8328787 -0.6441495893664614 0.6451689559424825
8330496 -0.6429327066088996 0.6460756257246602
8332204 -0.6420492488206986 0.6469055728322237
8333913 -0.6413026909023903 0.6477839689996714
8335621 -0.6400556515647708 0.648599715271777
8337330 -0.6391309934017405 0.6495902796211219
8339038 -0.6381499865887582 0.6503297233577859
8340747 -0.6375681831364515 0.65149045527624
8342455 -0.6365182337933336 0.6524351008545819
8344164 -0.6356928673307138 0.6533409632142015
8345872 -0.6344839974914094 0.6538807611957754
8347580 -0.6337641343819378 0.6548226147598148
8349289 -0.6327261988321454 0.6557546458539196
8350997 -0.6316957856519763 0.6567651930753099
8352706 -0.6306573207582241 0.6574704404996865
8354414 -0.6299647511428842 0.6586635547250916
8356123 -0.6289552723769674 0.6593580274275767
8357831 -0.6280381997586537 0.6601045867706571
8359540 -0.6270449082081075 0.661205199009295
8361248 -0.626054139029761 0.662075331011956
8362957 -0.6250834398196174 0.662689666490554
8364665 -0.6239633228042009 0.6637572989685248
8366374 -0.6229751693507737 0.6644745097192852
8368082 -0.6222102896365905 0.6654657483630969
8369791 -0.6212163732940289 0.6665285935575603
8371499 -0.6202436271757471 0.6672592407229118
8373208 -0.6193175212377283 0.6681624818012775
8374916 -0.6183711018698825 0.6690192571488328
8376625 -0.6171676432779822 0.6697316158154887
8378333 -0.6163140016071358 0.6706067443831037
8380042 -0.615429744021071 0.6716706305917947
8381750 -0.6144064512965267 0.6724594164781228
8383459 -0.6133846278396785 0.6732861684565781
8385167 -0.6124713788024094 0.6743405061947446
8386876 -0.6115096544867946 0.6750398555213464
8388584 -0.6103968382034297 0.6758083572754465
8390293 -0.6094797212841069 0.6766455528679616
8392001 -0.6086080252602918 0.6775341586399629
8393710 -0.6076862598114801 0.6784117931696431
8395418 -0.6068954521088948 0.6792649298859689
8397127 -0.6055543339824639 0.6804337702107761
8398835 -0.6047277525200989 0.6809055540526254
8400544 -0.6036896060360843 0.6816998713062817
8402252 -0.6024984142437865 0.6826597673578373
8403961 -0.6017133810286628 0.683525976428576
8405669 -0.6007253240753263 0.6845008773045399
8407378 -0.5997685029298655 0.6851314789969941
8409086 -0.5986176177080891 0.6859084161398062
8410795 -0.5975652573780582 0.6867908467735991
8412503 -0.5965675580662916 0.6874282703776473
8414212 -0.5957621768207195 0.6884259987094289
8415920 -0.5947696225601196 0.6892808782494252
8417629 -0.5937687971040239 0.6903536698563324
8419337 -0.5928074423280305 0.6909902497082608
8421046 -0.5917675569328879 0.6918775026519001
8422754 -0.590677555103199 0.6924411768391373
8424463 -0.5897198023854497 0.6934105293405423
8426171 -0.5887485070060645 0.6941058633141572
8427880 -0.5877304886884464 0.6950874231786436
8429588 -0.5866373489817532 0.6961103246624785
8431297 -0.5856311371436412 0.6967320029018848
8431297 -0.5858524676675835 0.6967387446252395
8433040 -0.5847013744440094 0.6975906446783864
8434784 -0.583586232497585 0.6982364065216776
8436528 -0.582531079204092 0.6993232919258346
8438272 -0.5815326687800764 0.7001094091180178
8440016 -0.5805531526698898 0.7009418140374091
8441759 -0.579555508605008 0.7017280242953964
8443503 -0.5784552051152809 0.7025490595606333
8445247 -0.5774638320159337 0.703474190984935
8446991 -0.5763197943288763 0.7042075881962043
8448735 -0.5754201270590663 0.7051140310496343
8450479 -0.5742622775069272 0.7059839197748645
8452222 -0.5734355045477219 0.7066221659560896
8453966 -0.5723193158374166 0.7074718295970892
8455710 -0.5714964813551734 0.7084366959704514
8457454 -0.5703579894096082 0.7091311428273226
8459198 -0.5692273869516746 0.709914072242559
8460941 -0.5680158801380593 0.7107094929113225
8462685 -0.5667691245796144 0.7112604915306291
8464429 -0.5662071014421164 0.71260527881096
8466173 -0.5649743596632674 0.7131516388481374
8467917 -0.5642204370041914 0.7141208531009122
8469661 -0.5629269093972907 0.7147775931213046
8471404 -0.5620195071278263 0.7157521765616509
8473148 -0.5605962239275036 0.7163115414819996
8474892 -0.5599588312101185 0.7170509320276871
8476636 -0.5587958835151082 0.7179534660787973
8478380 -0.5576479474903959 0.7187631781065601
8480123 -0.5567100412134746 0.7195484216975293
8481867 -0.5553196875279726 0.7201531698422511
8483611 -0.5546515284878479 0.7211600774735838
8485355 -0.5535306060578848 0.7218906142534516
8487099 -0.5522916189890411 0.7226607863955751
8488843 -0.5512675947215722 0.7234630069208088
8490586 -0.5503248340819784 0.7242078553199487
8492330 -0.5490944125522118 0.7250779268107466
8494074 -0.5481364539061745 0.7258845642403905
8495818 -0.5470963794654803 0.7267075068041126
8497562 -0.5459345136450007 0.7274815517741918
8499305 -0.5449696925512466 0.7280875917252434
8501049 -0.5439439468459046 0.7289624639518583
8502793 -0.5427765177660541 0.7297609585125997
8504537 -0.5416150805634502 0.7305075217689514
8506281 -0.5405328370088646 0.7313332680244115
8508025 -0.539580140391048 0.7319344543513208
8509768 -0.5384864404388681 0.7330046272741718
8511512 -0.5374499158092799 0.733713966603406
8513256 -0.5362262658621162 0.7342955539631562
8515000 -0.5352313087259022 0.7352971737496188
8516744 -0.5342119983421032 0.7359579441769942
8518488 -0.532962690039665 0.7366087701618429
8520231 -0.5319646560916764 0.7373768139956449
8521975 -0.5309071402566308 0.7381232980677945
8523719 -0.5297711888551269 0.7387736356006133
8525463 -0.5289365599143345 0.7395815399041693
8527207 -0.5276487918238685 0.7402906444203848
8528950 -0.5265918691074483 0.7412805057069143
8530694 -0.5254222941469407 0.7417929207653713
8532438 -0.5243118706358487 0.7425779621117696
8534182 -0.5234500484688307 0.7433142565147502
8535926 -0.5220785263723969 0.7442898998807429
8537670 -0.5210000131223272 0.7449361948927177
8539413 -0.5200571867980203 0.7456256325195127
8541157 -0.5188882580344429 0.7464131913079026
8542901 -0.5176099846609664 0.7469745924163709
8544645 -0.5166902273725562 0.7478714476609228
8546389 -0.5155266364654367 0.7484554640768385
8548132 -0.5145027789655736 0.74916847258373
8549876 -0.5133666461553639 0.7500662090600362
8551620 -0.5123059096858035 0.7504926387571803
8553364 -0.5111102594630054 0.7513393611928392
8555108 -0.5101026200498474 0.752150264351406
8556852 -0.5088845703976472 0.7527812691176315
8558595 -0.5079210028167855 0.7536525733407023
8560339 -0.5065656679461318 0.7543976753091902
8562083 -0.5056163940397004 0.7550591863029055
8563827 -0.5047138305923943 0.7558098234392248
8565571 -0.5036621255908575 0.7565760783076597
8567314 -0.5024587959109792 0.7572823835254284
8569058 -0.5012101490549352 0.7578352751785858
8570802 -0.5000869928883486 0.7587838880875963
8572546 -0.49898392269317376 0.7590909693826507
8574290 -0.49789648693194155 0.7601702617413569
8576034 -0.49669125405960307 0.7606010165358222
8577777 -0.495722333403998 0.76175191905255
8579521 -0.49460845722359276 0.7624620387031777
8581265 -0.49354479855904543 0.7631519991564782
8583009 -0.4923878137329393 0.7636574590055714
8584753 -0.49121700217237096 0.7642798323214139
8586496 -0.4897893254793047 0.7649626343779924
8588240 -0.48902502849137747 0.7658363469222266
8589984 -0.4878794844402284 0.7662760339078313
8591728 -0.48675785153159973 0.7669738019362886
8593472 -0.4856474332292526 0.7678007933200568
8595216 -0.48451990967546377 0.7684456528691959
8596959 -0.48323626292320754 0.7691523230228576
8598703 -0.48224195188430496 0.7699593547743948
8600447 -0.48096122744748004 0.7704232284588461
8602191 -0.47998072741421427 0.7711999413269525
8603935 -0.47891683582168687 0.7718014869745764
8605679 -0.4775928872368445 0.772523616357121
8605679 -0.47756006553812946 0.7721831482599855
8607458 -0.4766985583131389 0.7733575632985534
8609238 -0.4756307416402032 0.7743708103438947
8611018 -0.4745032877913945 0.7748386780667922
8612798 -0.4732113375515506 0.7755177793910569
8614578 -0.47173581890490207 0.7762240965481342
8616358 -0.4708538287767469 0.7767279054618262
8618138 -0.4697949491279893 0.7775359577273502
8619918 -0.46843634515019167 0.7780834636037874
8621697 -0.4671790115486229 0.7786731713111608
8623477 -0.46622056301566794 0.7793582184013983
8625257 -0.4647266268848809 0.7803456252616069
8627037 -0.4637828242897818 0.7808279562839481
8628817 -0.46262399491301903 0.7815214180188761
8630597 -0.4612763652349719 0.7821949897545364
8632377 -0.4602569266536094 0.7827546880900085
8634157 -0.45917490536771666 0.7835379976698483
8635936 -0.4578578369740364 0.7842008322618986
8637716 -0.4567832138828885 0.7848190250968404
8639496 -0.4556713883803275 0.785514499969771
8641276 -0.4545271017658889 0.7862924274089922
8643056 -0.45329361157915826 0.7868524848035806
8644836 -0.45213778184412906 0.787285829231799
8646616 -0.45093914589204864 0.788093067549358
8648396 -0.45010161626906803 0.7889647507422001
8650176 -0.44853165511840043 0.7895877221867195
8651955 -0.44741598435147445 0.7900972225188604
8653735 -0.44639940578573184 0.7909356392701138
8655515 -0.4450450447595201 0.7913555106501511
8657295 -0.4439847267241087 0.7922076207402833
8659075 -0.4428331976141893 0.7925784790540521
8660855 -0.44149525568193493 0.79349116578489
8662635 -0.44029936593237723 0.793911691950494
8664415 -0.439150898487132 0.7946082390098257
8666194 -0.43820306470175574 0.7952991497586308
8667974 -0.4369722113454476 0.7960128455003858
8669754 -0.4357556090170536 0.7966110437748612
8671534 -0.4343943465523073 0.7969271638770736
8673314 -0.4332993261518146 0.797627881366711
8675094 -0.43202185617509986 0.7983844426547074
8676874 -0.43080167240616446 0.7990701700059715
8678654 -0.4297274694683046 0.7996785042617077
8680433 -0.42849194954110814 0.8001744887602592
8682213 -0.42725819485940353 0.8009355939222513
8683993 -0.4262521985747832 0.8014527230782373
8685773 -0.4250941865300692 0.8021053353419693
8687553 -0.4236168255611518 0.8028579729727946
8689333 -0.42252311572821005 0.8034127815589478
8691113 -0.4213792958974586 0.8037861870582733
8692893 -0.42020177643133094 0.8044900495938011
8694673 -0.41870529442438464 0.8049281064290613
8696452 -0.4175829334184282 0.8058053258096148
8698232 -0.4163032253963495 0.8059774148381281
8700012 -0.41542096995727384 0.8068651996873476
8701792 -0.4141351694932212 0.8075878748725118
8703572 -0.4128142718226068 0.8079185211825
8705352 -0.4116532641404673 0.8087264135465204
8707132 -0.41046360153013217 0.8093433168173727
8708912 -0.40941909265071674 0.8098940409747257
8710691 -0.408281230672613 0.8104990631971704
8712471 -0.4068700540063338 0.8109602638719174
8714251 -0.40565738776288407 0.8114609027012847
8716031 -0.404354896186825 0.8120710213205118
8717811 -0.4031301494076365 0.8128055626183829
8719591 -0.40223494534082554 0.8136173596579496
8721371 -0.40088633466670687 0.813958276106266
8723151 -0.3996764038275743 0.814598017988197
8724930 -0.39870938354788915 0.8150810246476934
8726710 -0.3971886217323916 0.8157764190682691
8728490 -0.3958396524360771 0.8164095299150252
8730270 -0.394763426759061 0.8167977894650505
8732050 -0.39364940525819886 0.8175768566205274
8733830 -0.3922137398253 0.8177633423218279
8735610 -0.39108439730108074 0.8182303745986916
8737390 -0.38999905780884325 0.8190484462326073
8739170 -0.3887416933240182 0.8196044787057525
8740949 -0.3873604364444072 0.8202094019046872
8742729 -0.3862376319875217 0.8206692379725681
8744509 -0.3850817419985114 0.8214382285030786
8746289 -0.38379080824064854 0.821726993283315
8748069 -0.3826328671706933 0.8224368149884523
8749849 -0.3812903312967577 0.8225661269838342
8751629 -0.3800178070379902 0.8234732331813205
8753409 -0.3789481912311271 0.8241092990214702
8755188 -0.3778573843484829 0.8245503190007665
8756968 -0.3760579808601024 0.82559843707035
8758748 -0.3751576249928138 0.8256031942996821
8760528 -0.3739319701100531 0.8264834000077624
8762308 -0.3727082906640933 0.8268776358770076
8764088 -0.37138906652180226 0.8274947709349814
8765868 -0.37019476458497536 0.827797256862193
8767648 -0.36903932559867786 0.8285148129737835
8769427 -0.36753913941607314 0.8288762869777813
8771207 -0.3665576053236714 0.8292929071663889
8772987 -0.36527547200222554 0.8300325522165289
8774767 -0.3640970643115078 0.830491779394598
8776547 -0.36300871995817413 0.8309260837109597
8778327 -0.3616864271766253 0.831508590341249
8780107 -0.3604082866289291 0.8318637364909536
8781887 -0.3593258525681089 0.8324233853401923
8783667 -0.3580702379448939 0.8331593564263909
8783667 -0.3579768318940395 0.8334173279413627
8785483 -0.3564832091357629 0.83357213270436
8787300 -0.3555042977179834 0.8341699397592377
8789117 -0.35392282231971 0.8345856435269251
8790933 -0.3530048181793438 0.8349056117446996
8792750 -0.35158228634976496 0.8354601700984555
8794567 -0.350376227297363 0.8359742214639767
8796383 -0.34899161133151313 0.8367244637884464
8798200 -0.3479565684071953 0.8371928484901021
8800017 -0.34669229945961144 0.8376355394025854
8801834 -0.3449660335259339 0.8382311417999858
8803650 -0.3438373042544112 0.8387542344920258
8805467 -0.3426618877809193 0.8393479741221448
8807284 -0.3414825084841519 0.8397462642803636
8809100 -0.3400178983843032 0.8402202877666813
8810917 -0.338865898744465 0.8407400792704538
8812734 -0.337805374132695 0.8412749679268059
8814550 -0.33630992527117515 0.841716885105664
8816367 -0.3350866909750961 0.8420857750216973
8818184 -0.33384155850952624 0.8427449761246911
8820001 -0.33264753859563334 0.843410696250747
8821817 -0.33137969277280277 0.8436766096391995
8823634 -0.3301050849450782 0.8441823578015165
8825451 -0.32873363475998835 0.8447822656325978
8827267 -0.327705296012209 0.8453285334924588
8829084 -0.32623740017452546 0.8456690054284464
8830901 -0.32500153335378873 0.8458808245503338
8832717 -0.3236818855001083 0.8467779065329271
8834534 -0.3223801756024094 0.8469928372138178
8836351 -0.32087726060383065 0.8474618173248626
8838168 -0.31975388192344506 0.847960826678019
8839984 -0.3184556671341449 0.8485690898694362
8841801 -0.3172609196612637 0.848965965703815
8843618 -0.3159864708900272 0.8494886756496173
8845434 -0.31454025055893003 0.8498098450586274
8847251 -0.31353042748865656 0.8503673120920274
8849068 -0.31205451342856666 0.8508976171306621
8850884 -0.3105945780306509 0.8512199424875004
8852701 -0.30956152051611646 0.8514701341880796
8854518 -0.3081039248229504 0.8522132601120074
8856335 -0.3068924599513111 0.8526973054503689
8858151 -0.30576549485746873 0.8529583239636602
8859968 -0.30443001642081347 0.8536614224544965
8861785 -0.3029483276709712 0.8537081176300352
8863601 -0.30192544209329925 0.8543390786924261
8865418 -0.30045375773227073 0.8544253564850185
8867235 -0.2990784602291896 0.8552441830930713
8869051 -0.29812232104349534 0.8556908570173508
8870868 -0.29682897665089536 0.8560813044055836
8872685 -0.2952824251437884 0.8566276561526588
8874502 -0.29418998066416147 0.8569825671375509
8876318 -0.2927743254567047 0.8576479514236364
8878135 -0.29151058289115744 0.8577485173261016
8879952 -0.29021083331581543 0.8581679385305669
8881768 -0.2889781933907757 0.8587084838879697
8883585 -0.28745928355827066 0.8591278141173604
8885402 -0.2863036729698097 0.8597385906824485
8887218 -0.28502142782566886 0.8601514136536416
8889035 -0.2837483552755006 0.8600789179152711
8890852 -0.28261996481068097 0.8608680831901002
8892669 -0.28124326617272166 0.861123916605515
8894485 -0.27973924045722387 0.8615216358625021
8896302 -0.2786890075889253 0.8622252795443751
8898119 -0.27736111791126533 0.8624524993405331
8899935 -0.27571779303726707 0.8626792231078986
8901752 -0.2744475001857485 0.8633172111950885
8903569 -0.2732804121528226 0.8637958454299441
8905385 -0.27170587244386035 0.8632032070807912
8907202 -0.27076174139768977 0.8645265334416506
8909019 -0.2696059201554393 0.8648899223233691
8910836 -0.26779963537374873 0.8651839653512082
8912652 -0.26661926842381667 0.865511498608717
8914469 -0.26538833072456536 0.8663041890985773
8916286 -0.26404870881806886 0.8663658951355045
8918102 -0.26283367979399314 0.8668130641238363
8919919 -0.2615187538444832 0.8675412422445142
8921736 -0.2601819058663633 0.8676529830470687
8923552 -0.2590162112629048 0.8680358560988067
8925369 -0.2576185093995457 0.8684761473051558
8927186 -0.2560941642023973 0.8687036500450989
8929003 -0.2550107370628004 0.8689293780064755
8930819 -0.25367035414940203 0.8695827775501198
8932636 -0.2521560321191422 0.8699855439423146
8934453 -0.25102617015292716 0.870227153331646
8936269 -0.24988818709985694 0.8705592922742709
8938086 -0.24834411254069744 0.8709731223754213
8939903 -0.24718029669536964 0.8713442273285711
8941719 -0.2455384203880568 0.8716393121293358
8943536 -0.2443549612292094 0.8721028913360523
8945353 -0.24295112633078841 0.8723733967602768
8947170 -0.2418519239995227 0.8728670124881399
8948986 -0.2402399714962027 0.8731911519329384
8950803 -0.2390560568598729 0.8737011873428051
8952620 -0.23783427361052925 0.873814676914212
8954436 -0.23629570782330966 0.8741532958062913
8956253 -0.2351912193777674 0.8748162951486285
8958070 -0.23381228705852455 0.8749322971800282
8959886 -0.2323551036658127 0.8754122171113288
8961703 -0.23127413202172434 0.8756471577991277
8963520 -0.22989650125445893 0.8760840814228499
8965337 -0.22856568282690676 0.8761984365425994
8965337 -0.2286519185711983 0.8767135013384827
8967191 -0.22721538346772668 0.8763779821943551
8969045 -0.2259392995648448 0.8767612093883672
8970899 -0.22471769589464513 0.877265165718094
8972754 -0.22315358031750127 0.8776418813381034
8974608 -0.22187010210072955 0.877879341414529
8976462 -0.2206973483721959 0.8782480849761399
8978316 -0.2189504830272239 0.8782966702245779
8980171 -0.2177964622558222 0.8789235833742258
8982025 -0.21641347953569975 0.8791261176786586
8983879 -0.21497585931856203 0.879216787374791
8985734 -0.2135909496448157 0.8800165466839991
8987588 -0.2123605185449478 0.8800428206704131
8989442 -0.21102279188967948 0.8804790804410406
8991296 -0.20985863345127043 0.8808819771194846
8993151 -0.2083094819199524 0.8812368979399298
8995005 -0.20700824361446798 0.8814301818627546
8996859 -0.20574957465106047 0.8817581496118752
8998714 -0.20391882968644096 0.8817447044086498
9000568 -0.2026107790349538 0.8825880969207562
9002422 -0.20150459896103132 0.8826740670985603
9004276 -0.19996409995532544 0.8829008604187927
9006131 -0.1989486879459016 0.8832442893088163
9007985 -0.19738567969372003 0.8836151534976561
9009839 -0.19593008433536047 0.8838495141632073
9011694 -0.19478358975369645 0.8837628621693612
9013548 -0.1933303419935657 0.88435752379595
9015402 -0.19213302589481424 0.8847200329903413
9017256 -0.19064533734706882 0.884842072380259
9019111 -0.18915058320510553 0.8851061565251461
9020965 -0.18780610198838124 0.8856370421158102
9022819 -0.18647826898482145 0.8857773997356636
9024673 -0.1852265838569298 0.8861227677992304
9026528 -0.18392686857990898 0.8864297030856845
9028382 -0.18249901426333356 0.8866827294572471
9030236 -0.18098860483638424 0.8866528706381206
9032091 -0.1797509868001912 0.8871620872754692
9033945 -0.1783900900054636 0.8870976507116889
9035799 -0.1768839814903116 0.8877297000393611
9037653 -0.1757078441446177 0.8878950850355818
9039508 -0.17428975281511394 0.8881907762019374
9041362 -0.1728032275849097 0.8885546692395544
9043216 -0.17151463999124875 0.8885706062586848
9045071 -0.1699923089463227 0.8886111499560381
9046925 -0.1688047228847619 0.8891135567842262
9048779 -0.16736624972844283 0.8894825376960629
9050633 -0.1659117205040357 0.8896562748018219
9052488 -0.16507132024051036 0.890157655859989
9054342 -0.16314101546544946 0.8900941853470333
9056196 -0.16188438495055724 0.8905441422991986
9058051 -0.16068223316280528 0.8905088190707379
9059905 -0.15920324685949563 0.890985493208733
9061759 -0.1577951146023952 0.891142589310733
9063613 -0.15638730993755584 0.891487872552419
9065468 -0.1548751601731573 0.8915940127304272
9067322 -0.15360692631618808 0.8915815879367857
9069176 -0.15226002836959632 0.8920648761995984
9071030 -0.15087119113802502 0.8921183195992021
9072885 -0.14955249956958094 0.892520887199858
9074739 -0.1482029707803533 0.8928142447765234
9076593 -0.1467943616876015 0.8930936833812262
9078448 -0.1453600809282411 0.8932901879006163
9080302 -0.1442808776053563 0.8933008040312512
9082156 -0.14276426693980246 0.8937451119728504
9084010 -0.14134553979690836 0.8934828363770694
9085865 -0.1400170520902531 0.8939814739590575
9087719 -0.13831407370554485 0.8941683637616008
9089573 -0.13706542964884597 0.8941398578742827
9091428 -0.13571472349410435 0.894320437855397
9093282 -0.13443826793061406 0.8948178568862738
9095136 -0.1330344807027939 0.8950650974542371
9096990 -0.1316427879370542 0.8951240589691255
9098845 -0.1303819399525741 0.8952099922557513
9100699 -0.1290360517654973 0.8954639222953372
9102553 -0.12751014575087852 0.8956871540580342
9104408 -0.12618095314793884 0.8957981125765445
9106262 -0.12468929697981687 0.8959965809991497
9108116 -0.12358161527975021 0.8960754348137624
9109970 -0.12195120321539016 0.8965286589115571
9111825 -0.12051326282383631 0.8965248081221187
9113679 -0.11933811137821053 0.8966414419867201
9115533 -0.11775703784713036 0.8971395388643519
9117387 -0.11657130423444266 0.897154682058296
9119242 -0.1149624087935453 0.8974741224209349
9121096 -0.1135964511101624 0.8975256469340862
9122950 -0.11237863919463849 0.8974875956517946
9124805 -0.11108414993864565 0.8977849569036486
9126659 -0.10964224499230561 0.8978598664490793
9128513 -0.1081274437163009 0.8983016474942378
9130367 -0.10659047641177778 0.8982255813677692
9132222 -0.10550923561146408 0.8983489207302419
9134076 -0.10422895858997383 0.8984603822522801
9135930 -0.10255914029231518 0.8988306943343907
9137785 -0.10115237910594423 0.8989306594672622
9139639 -0.09973103545670871 0.8990262574461991
9141493 -0.09847473284117987 0.8992538598936218
9143347 -0.09747653286485759 0.8992311491312307
9145202 -0.09597539974600079 0.8995221721179653
9147056 -0.09428110017410136 0.8993581192168083
9148910 -0.09339687633257854 0.8998315713917857
9150765 -0.09163516135941376 0.8995884880658245
9150765 -0.0918871316107879 0.8996225419891768
9152657 -0.0900673484154765 0.9000926837798695
9154550 -0.08864495586680739 0.9000367700018318
9156442 -0.08729441378121837 0.9003678591752915
9158335 -0.08586698319677778 0.9002101715776649
9160228 -0.08467048372502524 0.9002275119589203
9162120 -0.0833330436056545 0.900608081882565
9164013 -0.08186037479171292 0.9005010281891583
9165905 -0.08046093515114479 0.9007393670788226
9167798 -0.07902636253818006 0.9009540402809548
9169691 -0.07729058225822343 0.9009245255571905
9171583 -0.07594078774952673 0.901420695500006
9173476 -0.07478507384611549 0.9011495050839382
9175369 -0.07313669095491586 0.901250504420238
9177261 -0.0720459385904358 0.9016812702490176
9179154 -0.07068899085725092 0.9015463318479031
9181046 -0.06925542214491376 0.9016521611256091
9182939 -0.067852675086935 0.9018679981928482
9184832 -0.066320699160371 0.9017420826874766
9186724 -0.06474853816922797 0.9019353453753496
9188617 -0.06340544860650937 0.9021294859177595
9190510 -0.06197236944875532 0.9019805750692611
9192402 -0.06084381111273207 0.9023238907944388
9194295 -0.05920818693817866 0.9023801227555962
9196187 -0.05771618470603269 0.9022087849706958
9198080 -0.056333931887431764 0.9022335038256407
9199973 -0.05444021796600897 0.9027505335191611
9201865 -0.053583705573253176 0.9023793240785869
9203758 -0.05192536405283993 0.9027069053841799
9205650 -0.050518855600543616 0.9026372328580201
9207543 -0.04928071654733009 0.9027895142556838
9209436 -0.04770160841176724 0.902976260365392
9211328 -0.04609325511017449 0.9030557217353086
9213221 -0.045047446013164995 0.9030873664684786
9215114 -0.0434107782428614 0.9031536284293286
9217006 -0.04202499282793921 0.9030684876765305
9218899 -0.040797239183856644 0.9031038087806391
9220791 -0.039235746587072705 0.9032545316398013
9222684 -0.03782628312149164 0.9033140388206724
9224577 -0.036365456903870594 0.9030839074394759
9226469 -0.03521998778752003 0.9035283346428059
9228362 -0.033682478586476466 0.9034895709832975
9230255 -0.032057140835057625 0.9034595591379267
9232147 -0.030797109145990414 0.9037092434039836
9234040 -0.02930794851425807 0.903387770997574
9235932 -0.027954541999944005 0.9036517017839347
9237825 -0.026620940584520403 0.9033643488354198
9239718 -0.025092069826920128 0.9037072866915404
9241610 -0.023625243265914815 0.903625973411536
9243503 -0.022176232536008235 0.9035524615385583
9245396 -0.0208135468737779 0.9038070179557396
9247288 -0.01955135317377528 0.9034952920712582
9249181 -0.018044182649216943 0.9035407619914924
9251073 -0.01662978389572634 0.9036415095442032
9252966 -0.015079639939229571 0.9035200917421917
9254859 -0.013727274904635822 0.9038357325562907
9256751 -0.012615221159604019 0.9035528070423221
9258644 -0.010943390596118633 0.9038673999146896
9260536 -0.009589159010354554 0.9039194146074248
9262429 -0.00804222407335772 0.9037025542921404
9264322 -0.006740943965184963 0.9036421123959133
9266214 -0.00541886003054649 0.9037044161625677
9268107 -0.0037506795036982192 0.9037137374401805
9270000 -0.002479541695392525 0.9037671605487186
9271892 -0.0012759033190692908 0.9036006092016357
9273785 0.00016680769018660984 0.903742528122519
9275677 0.0016569687130568967 0.9036477769942592
9277570 0.0031645606009757816 0.9035648040202121
9279463 0.004636190128939446 0.9039090878651204
9281355 0.005927972166942546 0.903743925333427
9283248 0.007519346289222198 0.903871460756075
9285141 0.008926817139142786 0.9037092354426863
9287033 0.010294463513710536 0.9036157548736343
9288926 0.011560440305307266 0.9038060926111477
9290818 0.013124219406442865 0.9032880381461336
9292711 0.014293132163767307 0.9035022468801713
9294604 0.01573556289810762 0.9036070716603478
9296496 0.017394264828113622 0.9033485544387443
9298389 0.01852854002345151 0.9034938441082868
9300281 0.020108064720513748 0.9031454053010507
9302174 0.02163500369327956 0.903386507446023
9304067 0.02293608689891141 0.9033112457012975
9305959 0.024314080280463314 0.9031338957412101
9307852 0.02570883906980947 0.9032752120931757
9309745 0.027075356272021695 0.9030965492842764
9311637 0.028679853142177632 0.903052294723611
9313530 0.030064500287397086 0.9031689064205252
9315422 0.03131875486590597 0.9027215727008715
9317315 0.032893361745290714 0.9029480565674927
9319208 0.03411591423886703 0.9027970893626284
9321100 0.03562049819378451 0.9028137032637772
9322993 0.03697044789896342 0.9028273899855663
9324886 0.038489331168770534 0.9025673189792052
9326778 0.0399515204504036 0.9024429454238371
9328671 0.04120889332324108 0.9025408887445788
9330563 0.0428204680405845 0.9024173665856016
9332456 0.04415242523298331 0.902215163710347
9334349 0.04554896509100973 0.9021884458023165
9336241 0.04688534556597559 0.9021075428916578
9338134 0.04818670581402043 0.9021050012792139
9340027 0.04959701492032554 0.901982185399342
9340027 0.04984868853425152 0.9012617207246335
9341958 0.05091094251645489 0.9016238699268642
9343890 0.05254636910861819 0.9022113884149816
9345822 0.054174717920360355 0.9016864607848534
9347754 0.05520723021510844 0.9013901813653903
9349685 0.057134335134342976 0.9015216810613808
9351617 0.05854109514562536 0.9016878328771434
9353549 0.05970397172900541 0.9013612167059616
9355481 0.061274795376229416 0.9011491391610413
9357412 0.06267221700436952 0.9013838919571767
9359344 0.0639672505325203 0.9010477585264792
9361276 0.065541477725321 0.9009850460025186
9363208 0.06683309615656252 0.9010290129398644
9365140 0.06831039003863751 0.9006482314632701
9367071 0.06987437001495882 0.9006760955559995
9369003 0.07128210496658377 0.9004789802620905
9370935 0.07284182891710633 0.9003036628275226
9372867 0.07419279731060105 0.9001526683933624
9374798 0.07577058446167843 0.9002727095011434
9376730 0.07686802853424339 0.9000783270557962
9378662 0.0782573171023428 0.8997768588696872
9380594 0.07960428049084459 0.8997955111905904
9382525 0.08114171238481606 0.8993055278875448
9384457 0.08264143680815339 0.8997374960370316
9386389 0.08407011587583682 0.899124433868509
9388321 0.08564956914332117 0.8989327694430769
9390253 0.08695277824558582 0.899227127980845
9392184 0.08869881233700355 0.8990125431857597
9394116 0.0898929694201386 0.8987490209493673
9396048 0.091362181465233 0.8986516589369935
9397980 0.09275988267923586 0.8985904515585266
9399911 0.09420469433945547 0.8981308773128275
9401843 0.09559543408787174 0.8980174277444143
9403775 0.09681511189817657 0.8978843851656195
9405707 0.09843749159877192 0.8978055226686579
9407638 0.10017982520324427 0.8978647977346326
9409570 0.10144932173155521 0.8972834044264603
9411502 0.1028818522234235 0.897100740237478
9413434 0.10429496900979687 0.8968615781859444
9415366 0.10576915939426988 0.8966572055646405
9417297 0.10706118910996937 0.8964635534410074
9419229 0.10858172496594418 0.8965299025573902
9421161 0.10999934894169025 0.8966103056226088
9423093 0.11132113747373625 0.8962464272224316
9425024 0.11269923014299527 0.8961411938386131
9426956 0.1141005771818319 0.8957923477447671
9428888 0.11561193678595073 0.8957153865772265
9430820 0.1169628460418805 0.8954417245392821
9432751 0.11853373676541236 0.8951147167500396
9434683 0.11996584594928283 0.8951492802065946
9436615 0.12156200893864609 0.8947572408802673
9438547 0.12280300155663838 0.8944536697621284
9440479 0.12428025549660433 0.8946796635728316
9442410 0.12566241774990128 0.8942332276999506
9444342 0.12695219643806327 0.893987606448775
9446274 0.12833844749758022 0.8937690644718949
9448206 0.13001908097651793 0.893537090410015
9450137 0.13137177240203857 0.8931337050773032
9452069 0.13279078605472683 0.89338396520084
9454001 0.13408432363792605 0.8932390816968776
9455933 0.13546439122919615 0.8926118331441527
9457864 0.13699226253483457 0.8925991313383559
9459796 0.13835131136407092 0.8921707830056304
9461728 0.13975782156357203 0.8919486441734967
9463660 0.14121488671910004 0.8915812613431311
9465592 0.14275668804560832 0.8914364622059239
9467523 0.1442496608160183 0.8914442643270253
9469455 0.14550663938523767 0.8912096982044722
9471387 0.1469925412527447 0.8910878724676605
9473319 0.14848936386220926 0.8904547859811446
9475250 0.1497957932029878 0.8902750519908269
9477182 0.1510277679793765 0.8900462614109309
9479114 0.15270304374010532 0.8899795245286782
9481046 0.15407969665183113 0.8898132909358017
9482977 0.15538615620697635 0.8893185276274006
9484909 0.1567520883629506 0.8889884893007829
9486841 0.15833866165901314 0.8887693790549189
9488773 0.15979342627090823 0.8887669277525396
9490705 0.1610205052998515 0.8883686679261985
9492636 0.16248475027205767 0.8881737257709241
9494568 0.16372671185096174 0.8880056103739775
9496500 0.16572794868502158 0.887463981549991
9498432 0.16672847643746005 0.8872105692124527
9500363 0.16822789408958363 0.8867971539612021
9502295 0.16978383657471907 0.886670504306044
9504227 0.17114812222552783 0.8863921619684969
9506159 0.1727904856655083 0.8859408296742661
9508090 0.17407932445841504 0.8854919769360252
9510022 0.17549415160630166 0.8855228765644987
9511954 0.1769274533255793 0.8852299985624423
9513886 0.17802388459965734 0.8846837691610723
9515818 0.17966615443205092 0.8845362746980284
9517749 0.18090917214533087 0.8845530522757833
9519681 0.18233597697440762 0.8839612897312469
9521613 0.18396993645648105 0.8835774261693465
9523545 0.1852574713094114 0.8835387680933121
9525476 0.1867929713497002 0.8833177139441442
9527408 0.1879937612477293 0.8829308779177456
9529340 0.1896388331497276 0.882527906853277
9531272 0.19093534849716276 0.8822080375832442
9533204 0.19208021770423717 0.8819427102259545
9533204 0.19227247859194513 0.8817262806383988
9535175 0.1938565577255442 0.8815058338390165
9537147 0.19506484778014635 0.88115693114494
9539119 0.19643822161361596 0.8810230406729307
9541090 0.1977219128030124 0.8807209274864746
9543062 0.19928339476553786 0.8803355057125791
9545034 0.20065129140641472 0.8800315478009536
9547006 0.2020475265274689 0.8792958036413601
9548977 0.2036092906240172 0.8793750049055025
9550949 0.2049598171479634 0.8787615629133794
9552921 0.2063227667726977 0.8787361698909147
9554893 0.20776983042187294 0.8782751218224107
9556864 0.20933997565102677 0.8777496588094222
9558836 0.2104658408273832 0.8774508613456088
9560808 0.2120812898494233 0.8772132902215866
9562779 0.213520753170599 0.8769104085834422
9564751 0.21507684157260534 0.876444631949698
9566723 0.21635581664192355 0.8760495062285724
9568695 0.21783597705941593 0.8758741628152004
9570666 0.21942459448011098 0.875347066595894
9572638 0.22032818335896065 0.8749288645960343
9574610 0.22209744430727704 0.8746410188185286
9576582 0.22362794501850614 0.8740480005649414
9578553 0.22473626353893283 0.8741039339234613
9580525 0.22618783100951118 0.8736438239627101
9582497 0.22789134105657438 0.8732670401610838
9584468 0.22924584204874993 0.8727265649628155
9586440 0.23077771404489927 0.8724730457058809
9588412 0.2320545388592373 0.8723508126994262
9590384 0.23342935261681486 0.8714601041538191
9592355 0.234661567938779 0.8710905008321579
9594327 0.2361378975244574 0.871052147518921
9596299 0.2376992751701056 0.8705230430162965
9598271 0.2389426817162066 0.8700747560276252
9600242 0.24030857931617386 0.8695338559236427
9602214 0.24178804809293386 0.8692647124769278
9604186 0.24334312341737474 0.8686914465706135
9606158 0.24446226245983496 0.8682389282196153
9608129 0.2461299529730121 0.8679355751395769
9610101 0.2473892206278685 0.8676281243410898
9612073 0.24863032163042256 0.8673084201425578
9614044 0.25033878144897465 0.8669997801288443
9616016 0.251538628506389 0.8664320066030209
9617988 0.25308425078690916 0.8661889929062954
9619960 0.2541954118966255 0.8654675341909319
9621931 0.2559999290576597 0.8651347927890131
9623903 0.2571287808454049 0.8648205534557974
9625875 0.25844301695602084 0.8642069864405123
9627847 0.2600133004691477 0.8637721877717266
9629818 0.2614863525524227 0.8634586312729152
9631790 0.2628808351258365 0.863123007660977
9633762 0.26424058558148 0.8627380765243547
9635733 0.2656778507245618 0.8622654380706319
9637705 0.26690556443497876 0.8618376232865578
9639677 0.2683764174299625 0.8612734799080998
9641649 0.270013213843224 0.8609001587604864
9643620 0.27130318615056365 0.8602584920992834
9645592 0.2725578751860447 0.8600305352738399
9647564 0.2740082835821625 0.8597008812237813
9649536 0.2754686811509351 0.8591254839419947
9651507 0.27660310833969964 0.8585670405892122
9653479 0.27826851082395904 0.8582227221716685
9655451 0.2793845808708043 0.8578430035504659
9657422 0.280882871381623 0.8572752386664996
9659394 0.28197640830202325 0.8568563148709556
9661366 0.28370537580504124 0.856127161793737
9663338 0.2850320662984192 0.8560281134334063
9665309 0.2862604301924168 0.8553438454573575
9667281 0.2875871734128647 0.8551463828648556
9669253 0.28915777247697577 0.8543731094730814
9671225 0.290474432826315 0.8538336590095588
9673196 0.29194237600113737 0.8533649430528589
9675168 0.2935085367831516 0.8530269348172278
9677140 0.2948231659027476 0.8523692329317819
9679112 0.29612039775632093 0.8519822332185482
9681083 0.2976223023583475 0.8516467304940131
9683055 0.2992303043767235 0.8508656169891268
9685027 0.300049573842468 0.8510077193195564
9686998 0.3014711461242488 0.8500028809114982
9688970 0.30307337997934214 0.8496199414995728
9690942 0.30420733725279003 0.8491722398965202
9692914 0.3057924134747826 0.8487340420495347
9694885 0.3070857254747526 0.8481556033313463
9696857 0.3085964438888162 0.8475741780273078
9698829 0.3097857896735821 0.8471922332606305
9700801 0.31144968554142416 0.8465490308481578
9702772 0.31246039026724237 0.8461877539391497
9704744 0.3137486480050108 0.8458019930626921
9706716 0.31529690694016577 0.8453429846967919
9708687 0.316555161290347 0.8445236179260152
9710659 0.31786248167579917 0.8441818590042729
9712631 0.3193387802976277 0.8435507416795163
9714603 0.3206795484399076 0.8428837335841022
9716574 0.32224098208244045 0.8425938840995318
9718546 0.32339885406705604 0.8419741792476134
9720518 0.32488666866578714 0.8415472360852492
9722490 0.3264458416124724 0.8408686283163535
9724461 0.3273195323503051 0.8405441154743102
9726433 0.32905015530141496 0.8400277778929535
9728405 0.33035798694030855 0.8394250854978548
9730377 0.3315716706769917 0.8389123461786075
9730377 0.3322867504697195 0.838677469619017
9732389 0.33285902581496357 0.8379693059969557
9734402 0.33410554683349386 0.8374641637218849
9736414 0.3356102120226282 0.8374549445821247
9738427 0.3369451559491953 0.8367682429867275
9740439 0.3385174052551653 0.8358932854899094
9742452 0.33986818755772613 0.8354269081888291
9744464 0.3413415049383331 0.8349772699562782
9746477 0.34238571136056345 0.8343990866895333
9748489 0.34398217100033956 0.8336393733600038
9750502 0.3453316880216731 0.8330287959923864
9752514 0.34684292428123426 0.832640481872454
9754527 0.3480545048589326 0.8319595456631316
9756539 0.3495629481594543 0.8311492597093598
9758552 0.35048750157877245 0.8310883652772997
9760564 0.3522377856637535 0.8301806269884441
9762577 0.3534873904219172 0.8298094250341375
9764589 0.3548773753834289 0.8291202267136621
9766602 0.3561579700657498 0.8289924366586453
9768614 0.35785831621751185 0.827979522761714
9770627 0.35919244111191023 0.8274973796154137
9772639 0.3605081000976099 0.8269907267598685
9774652 0.3618686198694189 0.8260982075011367
9776664 0.3632999636444948 0.8257393195421591
9778677 0.364648925151732 0.8251675795379902
9780689 0.36576481011785356 0.8244811233768339
9782702 0.3671973890569119 0.8240755456547891
9784714 0.36865073661388403 0.8232117443898748
9786727 0.3701243137015147 0.8228182750995743
9788739 0.37145298355897693 0.821797675650912
9790752 0.3726860525975236 0.8211685474742791
9792764 0.3741214783557619 0.8207327106781928
9794777 0.3755431950922248 0.8200699744157177
9796789 0.3766025298364442 0.8192180639175086
9798802 0.37818685265024743 0.8189554034852201
9800814 0.3794583744411888 0.8182430123054231
9802827 0.38072359014151436 0.8175219363527755
9804839 0.3821295357417188 0.816896113117512
9806852 0.3833056407206954 0.8164617458837473
9808864 0.3846917637796973 0.8156433667822645
9810877 0.3864311519526506 0.8149384317959129
9812889 0.38750148799523854 0.814680232708041
9814902 0.3889793353532372 0.8138289039044669
9816914 0.39024216454173855 0.8131917388488924
9818927 0.3916632437685665 0.8126572190795973
9820939 0.39305634718516735 0.8121399612424259
9822952 0.3942684434662212 0.8111776327495734
9824964 0.3957564504222636 0.8107436521394688
9826977 0.39689693866512465 0.8099580322281672
9828989 0.3982343128399704 0.8094825085618834
9831002 0.3998402976577349 0.808551292687493
9833014 0.40088630840595074 0.8082732732541102
9835027 0.4023873737037456 0.8073097952300811
9837039 0.4037210272889189 0.8066950685287275
9839052 0.40495815894269804 0.8062241131065088
9841064 0.406417465589262 0.8051791537423424
9843077 0.4077549552956313 0.8046529123484933
9845089 0.4091856124315853 0.8041560609979473
9847102 0.41035005449149026 0.8036350152828903
9849114 0.4118166147931193 0.8025927734783654
9851127 0.4128461868181129 0.8020199112228132
9853139 0.4144667835655445 0.8015615982290893
9855152 0.41576065002811685 0.8006662833283976
9857164 0.41707948619488555 0.7996461994494374
9859177 0.41820186475789006 0.7994845653067457
9861189 0.41962894877771495 0.7987066937071978
9863202 0.4210547694496455 0.7976906619188581
9865214 0.4221601549324353 0.7973114171369787
9867227 0.4236213174650973 0.7966221381422993
9869239 0.4247873978967199 0.7958840468923652
9871252 0.42627263643592833 0.7949489766225076
9873264 0.42781116231562666 0.7946523813688152
9875277 0.4286641871253875 0.7938057786653384
9877289 0.4302708728308111 0.7929485231978812
9879302 0.4314629802570505 0.7926718118112113
9881314 0.4328690918714783 0.791549792287792
9883327 0.43413938612832187 0.7909359493686355
9885339 0.435503236233888 0.7900246895492843
9887352 0.436482603983109 0.7894744628094521
9889364 0.4380402910705159 0.7887407567403404
9891377 0.43907699222747715 0.7879249541794855
9893389 0.4405243287541855 0.7873900019460746
9895402 0.44176975410299546 0.7865504196539214
9897414 0.44345761264754263 0.7855673775105004
9899427 0.4446187187401764 0.7855501333220357
9901439 0.44584619931076513 0.784225425713785
9903452 0.4470563367500631 0.7835495016639822
9905464 0.4484861140968989 0.7826800857318301
9907477 0.4499950473780476 0.7823338722750927
9909489 0.4512183439479155 0.7816500329467626
9911502 0.45235851070679206 0.7803577159965637
9913514 0.453820391776619 0.7800799490196046
9915527 0.4548740424486142 0.7791433004356831
9917539 0.4560253410429108 0.7781916523604737
9919552 0.4576299522378755 0.7778587631459736
9921564 0.4588377399776595 0.7771961911058346
9923577 0.460126063194442 0.7760465018910215
9925589 0.4612819493988591 0.7756081701843683
9927602 0.46282134353517107 0.7747869710490949
9929614 0.4641019944231488 0.7739112960452551
9931627 0.4651410961059208 0.7729027425957347
9931627 0.4656458287787128 0.7734034373796446
9933681 0.46673300062901596 0.7726474898441441
9935735 0.4677748233715413 0.7713284903043008
9937789 0.468789369114982 0.7709037727063092
9939843 0.4703623154585972 0.769758768713389
9941897 0.4718969612407623 0.769282718710378
9943951 0.4729178828964229 0.7684360695224667
9946005 0.47402876146397416 0.7675248172526986
9948060 0.47587309383996695 0.7669456903631398
9950114 0.4767804844530234 0.7658122521073659
9952168 0.4783363803449734 0.7650163945103731
9954222 0.4794913234472949 0.7645379935837947
9956276 0.4809315580312243 0.7638069211094415
9958330 0.48220456626394365 0.7628858153607194
9960384 0.4833036925742078 0.7619085455233903
9962438 0.4846756549916493 0.7616845610358975
9964493 0.4859747251326779 0.7604295144459579
9966547 0.4871569758299644 0.7595437739417812
9968601 0.4886109146547045 0.7587835948689859
9970655 0.489730608058991 0.7576546647130745
9972709 0.49108971787156575 0.757298196889217
9974763 0.49243452965812 0.7561588830468627
9976817 0.49379525413531894 0.7555211896298394
9978871 0.4949954540185199 0.7545653272783653
9980926 0.49618598436660377 0.7537296892967569
9982980 0.4978253528645631 0.7529927288059407
9985034 0.4987733341123687 0.752124544353522
9987088 0.4999944381274775 0.7512695619521869
9989142 0.501599457388385 0.7508693751571297
9991196 0.502725963816053 0.7494754994448024
9993250 0.5037232751521742 0.7487777452178256
9995305 0.5052515379511006 0.7478887424328967
9997359 0.5062927910332442 0.7473823008075526
9999413 0.5078230416339 0.74596204095896
10001467 0.5091228239962482 0.7452842152753696
10003521 0.5103603407256487 0.7446023200363256
10005575 0.511462357346205 0.7438126063248275
10007629 0.5127734178206935 0.7429489785079063
10009683 0.514165878348798 0.7422715957731478
10011738 0.5151974663893414 0.7410053168755012
10013792 0.516387136672382 0.7402760270764774
10015846 0.5179701206391472 0.7392682667973666
10017900 0.5189503203527851 0.7383179654016874
10019954 0.5203344421858487 0.7376473548598385
10022008 0.521196059293333 0.7367835246579942
10024062 0.5229783623506256 0.7357092226495486
10026116 0.5239761898890938 0.7351000058664838
10028171 0.5251295427226802 0.7339272701468373
10030225 0.5264343008708503 0.7334110385403466
10032279 0.5278578838030996 0.7324370523736242
10034333 0.52897742559191 0.7314697657474045
10036387 0.5303117335884945 0.730459145865938
10038441 0.5312962808325318 0.729661352897281
10040495 0.5326158258267207 0.7286610761899649
10042550 0.5339633018998575 0.7279177005379244
10044604 0.5353543744408462 0.7270200655229739
10046658 0.5363480600499321 0.7259658835746443
10048712 0.5376526098138577 0.7251761248554923
10050766 0.5388535570013162 0.7242046842312142
10052820 0.5398287658812992 0.7234547091472442
10054874 0.5410113083431951 0.7223130492286977
10056928 0.5428576926212915 0.721952110470897
10058983 0.5436643170818107 0.7205203897305887
10061037 0.5447654707630378 0.7196356841873736
10063091 0.5461466342489445 0.7189465772424173
10065145 0.5475327184342618 0.7179702366351276
10067199 0.5487805082006875 0.7167457116821593
10069253 0.5496476382836167 0.7160006372072428
10071307 0.5511544959805713 0.7150705163378069
10073361 0.5522158972525248 0.7143793098234446
10075416 0.5532946636710462 0.7131806358331094
10077470 0.5551175087161938 0.7125726542853279
10079524 0.5560401399670916 0.7113952307100434
10081578 0.5570196915763328 0.7107170479860986
10083632 0.5583126655440209 0.7092122690626023
10085686 0.5599693755398928 0.7082733264588881
10087740 0.560802177984151 0.7074830167698462
10089795 0.5618107282980858 0.7067494851654511
10091849 0.5634442083103532 0.7055629134678121
10093903 0.5643850110975803 0.7049393352533986
10095957 0.5655185288067148 0.7037188450550801
10098011 0.5668256414467219 0.7028122316683357
10100065 0.5679110075462876 0.7017331173015995
10102119 0.5688851891659245 0.7010412812437504
10104173 0.5704048012622894 0.7000463347464709
10106228 0.571493372331646 0.6991971474239518
10108282 0.572677090278867 0.697858298969303
10110336 0.5737110236207088 0.6973131686248916
10112390 0.5751647850293818 0.6960502710657193
10114444 0.5762629739217285 0.695229753173233
10116498 0.5774546716468353 0.6940664140350638
10118552 0.5787263665751355 0.69322769341029
10120606 0.5798890843143403 0.6921908538787518
10122661 0.5809313720301362 0.6912124540591512
10124715 0.5822526662256885 0.6907567630447602
10126769 0.5834591829678429 0.6895191598716979
10128823 0.5844619090202139 0.6881991902798755
10130877 0.5854778791647902 0.6874324265793129
10132931 0.5868521588944103 0.6863928151921841
10134985 0.5878759436003469 0.6852964153382196
10137040 0.589080653005799 0.6843117887260268
10137040 0.5892653871666823 0.6838330894644793
10139136 0.58987086072722 0.6831479637400801
10141233 0.5913037059320674 0.6824555252642062
10143329 0.5926873458993611 0.6812660795019306
10145426 0.5937601559438034 0.6801031944771735
10147523 0.5949171616683389 0.6790005471255219
10149619 0.5962360439395299 0.6786102978247331
10151716 0.597403029636174 0.6772783896944414
10153812 0.5983363426326307 0.6762148687318374
10155909 0.5995842747026991 0.674990087474652
10158006 0.6008693207192426 0.6740315461755364
10160102 0.6021198898198533 0.6730866905253672
10162199 0.6033614177463498 0.6719368233750088
10164296 0.6045107598750639 0.670954874224624
10166392 0.6056168671370666 0.6699835384329618
10168489 0.606651347752868 0.66921205445918
10170585 0.6080404722831595 0.6679826656671423
10172682 0.6091239906028904 0.6670421195310796
10174779 0.6101014224732673 0.6658744821174006
10176875 0.6110933087186851 0.6651645361461249
10178972 0.61260535722445 0.6636908831013445
10181069 0.6137747585379499 0.6628176647497892
10183165 0.6146146364240527 0.6616066823408915
10185262 0.6159398549675008 0.6603192015306456
10187358 0.6173000039501597 0.6595927312911241
10189455 0.6181260518344129 0.6583196400614965
10191552 0.6193981806498513 0.6572967310666803
10193648 0.620478528778972 0.6562662675322155
10195745 0.6212219473529882 0.6553877417188521
10197841 0.6225894504682563 0.6544577124416825
10199938 0.6238787105689774 0.6531555382893496
10202035 0.6249261933537497 0.6520714886293146
10204131 0.6259736487694431 0.6510909794909137
10206228 0.627521505629969 0.6499155643289908
10208325 0.628402505773782 0.6485726264649885
10210421 0.6295813973416569 0.6478947558690028
10212518 0.6307204161850836 0.646475001196022
10214614 0.6317374060630031 0.6457300250343235
10216711 0.632950622817932 0.6444804797436752
10218808 0.633634181707801 0.6433370711249098
10220904 0.6351815852063065 0.6420798383502322
10223001 0.6359639851548791 0.6412376567893634
10225098 0.6374651312965296 0.6402305961583773
10227194 0.6384773465333993 0.6389922181508075
10229291 0.6393335151820717 0.6378069264060923
10231387 0.6404954308359373 0.636723155624525
10233484 0.6417123942827611 0.6357245466862981
10235581 0.6426334298024591 0.6343422249376576
10237677 0.6439017240423909 0.6335255746252492
10239774 0.644656383603923 0.6324240857429564
10241871 0.6460449572727782 0.6313202974197606
10243967 0.6470346890500936 0.6300593942975704
10246064 0.6481236551542002 0.6291365881408032
10248160 0.6494520909098576 0.6279049537477474
10250257 0.6502023919092731 0.6265329162735895
10252354 0.6515573258017273 0.6257890599384036
10254450 0.6527512177941238 0.6243675306795592
10256547 0.6538364039590276 0.6235815392637314
10258643 0.6548088500170431 0.6224904145094924
10260740 0.6558403027954207 0.6210767183106977
10262837 0.6571742883068191 0.6197208526932977
10264933 0.658090316753488 0.6190145315351183
10267030 0.6591559746320661 0.6177838136078516
10269127 0.6601670799852898 0.6167017053510178
10271223 0.6614802306506158 0.6155504115315675
10273320 0.6620162543270088 0.6144275347094981
10275416 0.6635607432536607 0.6131995698873748
10277513 0.6642388465481615 0.612082112911311
10279610 0.6653676249558292 0.6109493306802563
10281706 0.666589065700396 0.6102066637554644
10283803 0.6677347301023274 0.6087630681879428
10285900 0.6685727869300232 0.607499488026044
10287996 0.6696194216765619 0.6064331040120965
10290093 0.6709224985343524 0.6050860587627224
10292189 0.6714681023336386 0.6043915889315403
10294286 0.6728446015642707 0.6030055227575423
10296383 0.6739280310822421 0.6016471272100358
10298479 0.6750794765441758 0.6005823714529597
10300576 0.6758679237067853 0.5994423689658438
10302672 0.6772564120828932 0.5984908377136205
10304769 0.6778473948374314 0.5968207993788838
10306866 0.6789904517230249 0.5959775451132068
10308962 0.680130128067001 0.5947215596731598
10311059 0.6811236225735713 0.5936518060240447
10313156 0.6822031338459691 0.5924100900745813
10315252 0.6829950458574929 0.5913612240552941
10317349 0.6842698212173691 0.5899376868985052
10319445 0.6851873075367889 0.5887773060888699
10321542 0.6863421657216612 0.587811823794485
10323639 0.6871412257792198 0.5864778574936333
10325735 0.6885383414191265 0.5852937508903094
10327832 0.689363310107707 0.5839453762186667
10329929 0.6903365294553783 0.5832176712592686
10332025 0.6915731601390389 0.5816397177203592
10334122 0.6922530301506163 0.5806769315958521
10336218 0.6931883925877744 0.5793071335725819
10338315 0.6942911987264969 0.5782450730334225
10340412 0.6954143465434337 0.5770364222786627
10342508 0.6962155956082099 0.5759273294804262
10344605 0.6973525096231403 0.5745907561103073
10346702 0.6983199105084318 0.573239756865897
10346702 0.6986849243464788 0.5735894367230407
10348841 0.6994150577369344 0.5719486397415912
10350981 0.700168981674873 0.5705789220523818
10353121 0.7011258556229536 0.569539449478322
10355261 0.7026342940522974 0.5684273684648199
10357401 0.7032553537863009 0.5671619048315486
10359541 0.7043878561602667 0.5662192111901962
10361681 0.7054866090410877 0.5650214836207986
10363821 0.7062581721216894 0.5635542522675562
10365961 0.7074179120092438 0.5624333086682342
10368101 0.7083851807457914 0.5613280077856061
10370241 0.7094189118290876 0.5598188817843966
10372381 0.7102710007004241 0.5586108751493859
10374521 0.711187157296152 0.557551389252592
10376661 0.7124500465555224 0.556004179572601
10378801 0.713078473639457 0.5549492282916743
10380941 0.7143640420594238 0.553672319623272
10383081 0.7151747793728 0.5523977125721192
10385221 0.7160502875780445 0.5508655438924953
10387361 0.7172343741602658 0.549586291584956
10389501 0.7181560598048564 0.548625141869657
10391641 0.7193608819062883 0.5471622225815634
10393781 0.7202086662862683 0.5460393784338738
10395921 0.721282056547034 0.5451468632630773
10398061 0.7221681447107322 0.543489155721845
10400201 0.7230970439069995 0.5421903383147155
10402341 0.7239972420300064 0.5408026153766331
10404481 0.7250984500738975 0.5398856805814473
10406621 0.7258872720413773 0.5383899269645215
10408761 0.7265063227253845 0.5371091703833506
10410901 0.7279575106496794 0.5360912012895779
10413041 0.7286545932200905 0.5341649223536754
10415181 0.7297129706673711 0.5331950544593432
10417321 0.7306105526836871 0.5320108184331676
10419461 0.7318584345575859 0.5306817057169356
10421601 0.7326954040904075 0.5294018654211796
10423741 0.7334222345232914 0.5282653806860805
10425881 0.73445025763398 0.5271533467268907
10428021 0.7354117040943876 0.5255657735662164
10430161 0.7361121874920812 0.5242519457068175
10432301 0.7370947473604141 0.5230122363839431
10434441 0.7378421993373101 0.521484863526739
10436581 0.7390919400122744 0.5205905697013862
10438721 0.7399977870038118 0.5191013698021585
10440861 0.7408889022988586 0.5178471999928558
10443001 0.7418936772353052 0.5163694870317547
10445141 0.7424824585552999 0.5151959356093953
10447281 0.7436198192591709 0.5140197747689057
10449421 0.74454051554949 0.5127127866696167
10451561 0.7454840042701982 0.5114595282970742
10453701 0.7463539340008802 0.5100846940174815
10455840 0.7469778668639026 0.5084521333109396
10457980 0.7479414122464966 0.5072626568777904
10460120 0.7488525364862423 0.5062596548199105
10462260 0.7499205816911507 0.5045106190125145
10464400 0.7506529165004941 0.5033538966600641
10466540 0.751475189763078 0.5020362933029832
10468680 0.7526282548335808 0.5007649635994478
10470820 0.7534472963609758 0.49950265116092407
10472960 0.7543672908980845 0.49807847811739164
10475100 0.7550673196247102 0.4967620175470123
10477240 0.7560550625843552 0.49524412758639025
10479380 0.756759176926997 0.49425567648945967
10481520 0.7579026023151642 0.49284409134200746
10483660 0.7584867856439754 0.49117417109583494
10485800 0.7594520439830481 0.4900780203297399
10487940 0.7603760422722651 0.4887105395031565
10490080 0.7613119977140131 0.4876514502737321
10492220 0.7621890841622923 0.4857945248081827
10494360 0.7630478320518218 0.48484242769910535
10496500 0.7640305862125654 0.4835394235548519
10498640 0.7646977245921017 0.4821907406104245
10500780 0.7656366951223379 0.4808757434730087
10502920 0.7664254364874908 0.47947964821094974
10505060 0.7672884880942619 0.47810646292532993
10507200 0.7681669504375077 0.47668799195342465
10509340 0.7688840827332609 0.4754983758474282
10511480 0.7698441948646118 0.4738319296957443
10513620 0.770454448633433 0.4726966696087843
10515760 0.7714392999454512 0.4713318953772349
10517900 0.7721713342278552 0.4701052551880286
10520040 0.7731733299326937 0.46851278596438944
10522180 0.773843481480715 0.4671750009866968
10524320 0.7747750745419054 0.4659827135041212
10526460 0.7755758805728263 0.46419860374298527
10528600 0.7762370221339199 0.46325949624368207
10530740 0.7772048740640457 0.4616916028199079
10532880 0.7779331120350518 0.4604192031558845
10535020 0.7789226236647038 0.4589896817498648
10537160 0.7794984516404967 0.45775822789558807
10539300 0.780566043790912 0.45629570261351254
10541440 0.7810768834066434 0.4547614710002594
10543580 0.7820023526413051 0.4536453710716521
10545720 0.7827741778668282 0.4523356202604142
10547860 0.7835875789793973 0.4507593730963103
10550000 0.784393931650166 0.4492738209167421
10552140 0.7850266104606384 0.4482727487503398
10554280 0.7862406056374394 0.4467604647526771
10556420 0.7866470052342718 0.44514271723104487
10558560 0.7876664357366188 0.4438944602856921
10560700 0.788596480721338 0.4426292541389817
10560700 0.7875721653528783 0.4423844320541126
10562884 0.7892035056668465 0.4415861588485202
10565068 0.7900545968515864 0.43969877686495723
10567252 0.7906774771300624 0.43826007701853015
10569436 0.7916447613776617 0.4369263162598361
10571621 0.7921357548206915 0.4354593982691691
10573805 0.7929406816974053 0.4340209669955544
10575989 0.7939890192942182 0.43278182356230815
10578173 0.7945759930490371 0.431217289031434
10580358 0.7953270219305691 0.42975093691533855
10582542 0.7963803209859525 0.42830320589584403
10584726 0.7970011205012203 0.42705136862639104
10586910 0.7977662843105854 0.4253893504870582
10589094 0.7986443249567238 0.42411742580955475
10591279 0.7992650032243592 0.4228125781765331
10593463 0.7999694839142785 0.4215361003700769
10595647 0.8005214597495088 0.419630621857226
10597831 0.8016692676047071 0.41842424031941866
10600016 0.8023917355281424 0.4172293370079314
10602200 0.8030650831482996 0.4152255705107666
10604384 0.8037597877925148 0.41393356389628616
10606568 0.8045436902666312 0.41262918438579244
10608753 0.8053379889528363 0.4111207427468844
10610937 0.8060631028901286 0.4096674641374598
10613121 0.8070266829896844 0.4085250082664933
10615305 0.8077800069544523 0.4068909518524394
10617489 0.8080989451716631 0.40522898705880617
10619674 0.809026403785428 0.4039584002705453
10621858 0.8097355666905547 0.40248671446462214
10624042 0.8103652367784362 0.40093102073809606
10626226 0.8111927629388817 0.3994643218251531
10628411 0.811747472317704 0.3981698400392241
10630595 0.8126129097406224 0.39670362582328333
10632779 0.8133487249698218 0.3951501994741703
10634963 0.8140400357531603 0.3939285103058967
10637148 0.8151012354525738 0.39243902145740006
10639332 0.8153576897970137 0.3908744871324013
10641516 0.8160180624990129 0.38958264583829716
10643700 0.8169033250992905 0.38785309469527446
10645884 0.8176278195904247 0.38653597787682503
10648069 0.8183690467512259 0.3850050867586751
10650253 0.818693536928549 0.3834551782984141
10652437 0.8194812374109294 0.38195643005407337
10654621 0.8203758731955733 0.3805331834495411
10656806 0.8209214585591972 0.3791027365341019
10658990 0.8217883616256082 0.37771543761671933
10661174 0.8224000730928213 0.37600576717420797
10663358 0.8232692828172653 0.37489406889111654
10665543 0.8237991398816598 0.37341928637854244
10667727 0.8243607602144618 0.37174951449533405
10669911 0.8253715092074886 0.37047788976906215
10672095 0.8258941283314335 0.36891650838924794
10674279 0.8260749942453566 0.36729247095767875
10676464 0.8274003639095526 0.36581218238237545
10678648 0.8278242658517289 0.36443666170247196
10680832 0.8286806148385799 0.36283117393351816
10683016 0.8290871189924295 0.3613126111772619
10685201 0.8297513327869007 0.36014184061353294
10687385 0.8304478651035706 0.3584223453088662
10689569 0.8307871614049874 0.35684716725224774
10691753 0.8316547620408564 0.35556014047421003
10693938 0.8324392360830051 0.3538730062211623
10696122 0.8328690693622217 0.3526179618592461
10698306 0.8337662474321218 0.35091456981739705
10700490 0.8343931669384681 0.34955188049773184
10702674 0.8350651322000834 0.34822421864472486
10704859 0.8353017196930339 0.3462904964495122
10707043 0.8359332078919326 0.345258474854646
10709227 0.8367044162806861 0.34358553544931636
10711411 0.8372983428597857 0.3419824732631897
10713596 0.8379476741183964 0.34059553893340716
10715780 0.8386676929730751 0.33897322230576443
10717964 0.8391862706721724 0.3374548827611882
10720148 0.8397083189777613 0.33621493773114847
10722333 0.8403446573790481 0.33445562914574417
10724517 0.8412454750961409 0.3331417430004198
10726701 0.8416737269719669 0.33160215172243157
10728885 0.8422553160569392 0.3298749523684287
10731069 0.8429007328745706 0.3285837665074999
10733254 0.8433653779744974 0.3269836349833813
10735438 0.8439653249690332 0.3255608001301868
10737622 0.8447579019047919 0.3241248616540781
10739806 0.8450570926096234 0.32214838911559934
10741991 0.8457176630332116 0.3210905796443187
10744175 0.8463386227016696 0.31944943561395095
10746359 0.8469622110006249 0.31804716178602105
10748543 0.8474011145306984 0.316392116434624
10750728 0.8480119201530036 0.3148333008303753
10752912 0.8486780381776692 0.31345618566441474
10755096 0.8491779040313633 0.31185488167724273
10757280 0.8495131342470678 0.3104151941121665
10759464 0.8505083457538248 0.30887434775294526
10761649 0.8509218165959451 0.30723101156364496
10763833 0.8514763058933031 0.3058270166489983
10766017 0.8522959797988401 0.3043246275216072
10768201 0.8529808334015794 0.30285387612431397
10770386 0.8532911666737963 0.3013793953133567
10772570 0.8538782692184501 0.299579271396718
10774754 0.8541757768602067 0.29820501304099994
10776938 0.8546153051869547 0.2966671658193039
10779123 0.8554678159342772 0.2952059172906731
10779123 0.8556144427914263 0.2948415627024407
10781352 0.8561561861196996 0.29333526924620107
10783581 0.8562193642495531 0.2919205649224292
10785811 0.8568770464599338 0.2905540746674516
10788040 0.8574659547130753 0.2888741103941766
10790270 0.8582440023438661 0.28740120108621997
10792499 0.8587013874271551 0.28581966596038855
10794728 0.8591256564597898 0.28396997152999576
10796958 0.8596157182090848 0.28269751993791653
10799187 0.8603073439845955 0.28097596254683305
10801417 0.86038278295247 0.2794081311939178
10803646 0.8613508881294456 0.27795423423862264
10805876 0.8619092715709152 0.276220395648893
10808105 0.862187439560158 0.2747656980892868
10810334 0.8625923525896366 0.2732926886508196
10812564 0.8636090359388527 0.27158868194967717
10814793 0.8637308650833038 0.26997389223975904
10817023 0.864326986547237 0.2683868495393509
10819252 0.864771580077269 0.26677908906959713
10821481 0.8653088525958781 0.2654567535571776
10823711 0.8656914419239794 0.2638081695830733
10825940 0.8662334043491319 0.26209960199642923
10828170 0.8668508314373531 0.2607344090098599
10830399 0.867178906318699 0.2589667491356143
10832629 0.8677792586047332 0.2572654419810624
10834858 0.8679792466089489 0.2556940332985419
10837087 0.8687179517627965 0.2541560681503169
10839317 0.8691704311187071 0.25266580461513893
10841546 0.8695273144935906 0.25131279464012385
10843776 0.8703676002458718 0.24937969342767302
10846005 0.8704862260289861 0.24796250435022343
10848235 0.8712713117979002 0.24661123084200157
10850464 0.871578540642949 0.24470512443552053
10852693 0.8717728191096147 0.2429254320534709
10854923 0.8724387942033793 0.2415212256696312
10857152 0.8728441877944585 0.2398389447293858
10859382 0.8731682239252776 0.2383371019555549
10861611 0.8736019017617569 0.23673365874523364
10863840 0.874122637486431 0.23502507229908737
10866070 0.874578800632849 0.23361611358505197
10868299 0.8750076090909262 0.23179341162190048
10870529 0.8754233463546214 0.2303203719880506
10872758 0.8758325801644018 0.22878581828064973
10874988 0.8762013066113918 0.2271490904899058
10877217 0.876724711861897 0.22559977568975284
10879446 0.8772520800508756 0.22407932460880928
10881676 0.8774786410322496 0.22220677195166602
10883905 0.877872860092938 0.22088075004871685
10886135 0.8783957073816753 0.21920937667506146
10888364 0.8789591971972871 0.21748726453487663
10890594 0.8791358975129083 0.21606464456675759
10892823 0.8799175826297144 0.21441027699883325
10895052 0.8802800119536291 0.21264514909623278
10897282 0.8801924712652498 0.21120551696131315
10899511 0.881104026220303 0.2095428440412077
10901741 0.8811575885817107 0.20787670175118836
10903970 0.8815179061444707 0.206432133824661
10906199 0.8820331675595968 0.20453906746763115
10908429 0.8823048494942799 0.2030390553585409
10910658 0.8828649677457334 0.2014281001757595
10912888 0.8831641688092657 0.1998767515824078
10915117 0.883454155325102 0.19838543356314764
10917347 0.8837245646618561 0.19669171957354892
10919576 0.8840769198351903 0.19497939060712488
10921805 0.8843284020345734 0.19347002468121033
10924035 0.8849555241809216 0.19162602737014528
10926264 0.8853461621044832 0.19021386233363355
10928494 0.8855396855457582 0.18851652264007923
10930723 0.8861337104312573 0.18690315320146844
10932952 0.8863842768863543 0.1853047320811058
10935182 0.8865883267475482 0.18381543564939273
10937411 0.8872093294344663 0.1821401831730292
10939641 0.8875261298648444 0.18048621936145262
10941870 0.88751522621098 0.178917006682773
10944100 0.8881810933310688 0.17730150698401068
10946329 0.8885263024420895 0.17568958460288525
10948558 0.8890111625694929 0.17411945219368857
10950788 0.8890574008410115 0.17232084905649547
10953017 0.8894842360398637 0.17098461802505505
10955247 0.8899187159637832 0.16901713123432785
10957476 0.8901071686286346 0.16761870951263275
10959706 0.8899865248675147 0.16605623916521037
10961935 0.8908119562890376 0.16429547495280597
10964164 0.8909931093091551 0.16292425791686527
10966394 0.8912262036287277 0.161155606050749
10968623 0.8916739965700231 0.15925012297524432
10970853 0.8917347511060653 0.1576793319320991
10973082 0.8920759608655011 0.1561655975450101
10975311 0.8924973336131461 0.15450814735218216
10977541 0.8928830858002552 0.15290447203796967
10979770 0.8929630934831305 0.151254418175627
10982000 0.8935474623385018 0.14963131472343943
10984229 0.8936039841894529 0.14820766089684215
10986459 0.8939652442911932 0.1464707540136032
10988688 0.8942623271970882 0.1447799051796735
10990917 0.8945802653039515 0.1432396150827301
10993147 0.8949878095874796 0.14155131924973097
10995376 0.8949608851045956 0.1398058801595624
10997606 0.8952775594433399 0.13840066664757644
10999835 0.8959211105116516 0.13661423475324494
11002065 0.8957173482744654 0.13502350122870252
11002065 0.8962584200546931 0.1350320215637733
11004340 0.8962483730319879 0.13320872335366749
11006616 0.8965215071335073 0.13146492280958857
11008891 0.8962237559711522 0.12992032875049098
11011167 0.8967450759666086 0.12848179805351437
11013442 0.897149612109784 0.12666096658630915
11015718 0.8971748885496591 0.12482974358034474
11017993 0.897223684323835 0.12342089360674977
11020269 0.8979054022336643 0.12157311936575671
11022544 0.8980789767095025 0.11979132330054426
11024820 0.8985158162147661 0.11855984243619944
11027095 0.8986913271219947 0.11675173216085795
11029371 0.8989918838675729 0.11489124199935491
11031646 0.898848532996522 0.11328573847109491
11033922 0.8990333757841266 0.1114756889487743
11036197 0.899416970034943 0.10978136355336277
11038473 0.8995076165685907 0.10816724426930524
11040748 0.8998580725714654 0.10663357777548464
11043024 0.9001387730018026 0.1048582669843312
11045299 0.9003810516383358 0.10330178604673278
11047575 0.9005418520295089 0.10164690655441208
11049850 0.9007693809507531 0.0995485061201928
11052126 0.9007312311143602 0.0981993835088489
11054401 0.9009250056263755 0.09654468812753328
11056677 0.9012076207049831 0.09487683784692778
11058953 0.9013000559932066 0.09307194461634528
11061228 0.9015816057849714 0.0913086604356223
11063504 0.9018600540902916 0.08967753400696545
11065779 0.9018409414885277 0.08793471178237339
11068055 0.9021147820752824 0.08637903411507153
11070330 0.9024168306799024 0.08467938045303931
11072606 0.9027128183127486 0.08313413471501994
11074881 0.9029503000490608 0.08134845070540206
11077157 0.9029146583093604 0.07964749474687084
11079432 0.9030420406479359 0.07802453992470897
11081708 0.9033174435004245 0.07653577335545728
11083983 0.9033485525112079 0.07458690214952073
11086259 0.9033000604227047 0.07306334472413505
11088534 0.9037572602564339 0.07119530720772907
11090810 0.9038013540913322 0.06942846196138616
11093085 0.9038071514644599 0.06780616967857951
11095361 0.9042880563251525 0.0662114945601664
11097636 0.904620074921249 0.06442315082230758
11099912 0.904283193973368 0.06299382649868293
11102187 0.9045277951906798 0.06129210714986044
11104463 0.9049057868104285 0.05926948138050215
11106738 0.9046606631211114 0.05761872888627839
11109014 0.9049313361079367 0.056200789040203855
11111289 0.9053231895111397 0.05440250645778085
11113565 0.9050279984543517 0.05263517588500615
11115841 0.9051285397482832 0.051062992541880986
11118116 0.9055477077466975 0.049259152308101024
11120392 0.9055737179258718 0.04752139848214255
11122667 0.9053514710556483 0.04626217245190121
11124943 0.9055726628562162 0.044447142317703046
11127218 0.9057858660071947 0.04256546727106349
11129494 0.9058800253220046 0.040935918703203525
11131769 0.90613572091478 0.03931580477326438
11134045 0.9061749860793848 0.03721591508371788
11136320 0.9059511775002477 0.03577665648615577
11138596 0.9063384027858031 0.03402492436853118
11140871 0.9063828958408744 0.032292742286180086
11143147 0.9066505545686842 0.030604409419776796
11145422 0.9064439584837238 0.029193184428357777
11147698 0.9067008900862799 0.027299771456663197
11149973 0.9064120359188614 0.02557851768245719
11152249 0.9067335820819294 0.02393792580652894
11154524 0.9067164405964545 0.022042903477319294
11156800 0.9067417739942856 0.020445911094209623
11159075 0.9067979343731438 0.018774154621507288
11161351 0.9069096119548105 0.01708327981229173
11163626 0.9069137347867305 0.015404249971804148
11165902 0.9069439213124653 0.013830320776055562
11168177 0.9070108515253966 0.011989606473685892
11170453 0.9071085891466841 0.010341119829636291
11172729 0.9072868320370792 0.008810022687240243
11175004 0.9072873955515022 0.0067901533831708554
11177280 0.9072778379417583 0.005261742244868767
11179555 0.9072558652995052 0.003616059605364747
11181831 0.9073505030599005 0.0017469008471135395
11184106 0.9073835058554947 0.00039006399705141545
11186382 0.9075945304225239 -0.0015044366768583763
11188657 0.9076327865342192 -0.0033655309700847845
11190933 0.9072624191175082 -0.0048552423192898125
11193208 0.9072141686668791 -0.0065306712446814305
11195484 0.9075029342722726 -0.008344511862651262
11197759 0.9075534828539918 -0.010129007521839607
11200035 0.9074149692194247 -0.011625896235056584
11202310 0.9075961711967608 -0.013485238884330187
11204586 0.9071776656139656 -0.015317334401097804
11206861 0.9069739702581273 -0.016740737051880557
11209137 0.9073994950223427 -0.018423519639929
11211412 0.9074537812725807 -0.02017626935337658
11213688 0.9074818314090537 -0.021806681243491118
11215963 0.9074307908481343 -0.023650159870081417
11218239 0.9072727184774467 -0.025423640634165974
11220514 0.9071258469520577 -0.026787478052763138
11222790 0.9072588232478239 -0.02858321475160924
11225065 0.9070250844772332 -0.0305479256569679
11227341 0.9070592107290316 -0.032135946499688685
11229617 0.9072809442587992 -0.033862000479502004
11229617 0.9070105746539489 -0.0341965868959853
11231939 0.9071319784276222 -0.035691635801797364
11234262 0.9067544754135549 -0.03742772801646845
11236584 0.9067753156046428 -0.03900684814726711
11238907 0.9069153603023072 -0.04075285516428169
11241229 0.9066523391526927 -0.042474550251361945
11243552 0.9067221289335573 -0.04415869900021109
11245875 0.9067100241213016 -0.045901641636924485
11248197 0.9064653122170694 -0.04775206464568619
11250520 0.9064619308199626 -0.0494316406029548
11252842 0.9063384868880225 -0.051173003562558585
11255165 0.906521095746995 -0.0529878318496941
11257488 0.9060994349819786 -0.054692737111998714
11259810 0.9063672389557855 -0.0563758421782659
11262133 0.9060657392638357 -0.05805632162492932
11264455 0.9064964147221248 -0.060091849609844906
11266778 0.9057384384998801 -0.06179356497335274
11269101 0.905839012050646 -0.0634241306506858
11271423 0.9057291755273996 -0.06528756168905804
11273746 0.905651114596307 -0.06700030474097761
11276068 0.9053466082185939 -0.06855512071188344
11278391 0.9051707103816449 -0.07042138383623796
11280713 0.9052041987690963 -0.07216088368671925
11283036 0.9049640233176244 -0.07393068630311916
11285359 0.9049126351625285 -0.07537629599838123
11287681 0.9048574815610303 -0.07710334891740424
11290004 0.9047304044426138 -0.07908299192769325
11292326 0.9045941523015968 -0.08061071489027433
11294649 0.9043364390351061 -0.08248484300922726
11296972 0.9042676108924106 -0.08439014166978125
11299294 0.9040252308419487 -0.08600113001300422
11301617 0.903731858116847 -0.08755078436880757
11303939 0.9041171752574919 -0.08936896435120746
11306262 0.9036282596106237 -0.09122585426596644
11308585 0.9033495284373902 -0.09258526618605972
11310907 0.9034318113454362 -0.0945084169451401
11313230 0.902991803314408 -0.09647498599075512
11315552 0.9027704327879711 -0.0980875505333822
11317875 0.9028610435334113 -0.09979345953571733
11320198 0.902666777885793 -0.10164536783664947
11322520 0.9023097797885826 -0.10341937976850937
11324843 0.9022077020511123 -0.10481321649881374
11327165 0.9021434288471368 -0.10672056517325856
11329488 0.9020870403800229 -0.10867616248502758
11331810 0.9016900373889438 -0.11000143145815038
11334133 0.9015665921379085 -0.11189938842321384
11336456 0.9013781395432897 -0.11362129845018795
11338778 0.9011805838564619 -0.11543369910775934
11341101 0.9008310145037318 -0.11698704615208792
11343423 0.9008323628841374 -0.1189723935585991
11345746 0.9006163866983433 -0.12069006165596047
11348069 0.9002885747588127 -0.12210782706248846
11350391 0.9000899441503719 -0.12392319564998353
11352714 0.8997657539676313 -0.12558330930977676
11355036 0.8996200300530487 -0.12739278963647277
11357359 0.8993481691011824 -0.12914073287540123
11359682 0.8992320272131161 -0.13102748732738712
11362004 0.8987096647424706 -0.13275287503687988
11364327 0.8983954106366125 -0.13434570609695837
11366649 0.8984320049014765 -0.13609249981260213
11368972 0.898167945522743 -0.13790817367494204
11371294 0.8979258754766927 -0.1395682981691606
11373617 0.8976080351664406 -0.14111491897550302
11375940 0.8972220297416906 -0.14305452349387918
11378262 0.8972359763273063 -0.14463450815778667
11380585 0.8966370097065556 -0.1461778108937168
11382907 0.8967884849000458 -0.14808909541566606
11385230 0.8965160991096559 -0.14992554278888537
11387553 0.8959642061613552 -0.1514795983615733
11389875 0.8956620859004764 -0.15325115217006446
11392198 0.8952983647113606 -0.1551657289358423
11394520 0.8950514323892149 -0.15663968300425646
11396843 0.8949053069686704 -0.15826838646291252
11399166 0.8947965722052695 -0.1600545776587769
11401488 0.89428690870691 -0.16181610143513925
11403811 0.8938415552523641 -0.16349440312552785
11406133 0.8937318860219204 -0.16522930433124544
11408456 0.8933223031096562 -0.16710690304030182
11410779 0.8929654841591517 -0.16867391538391444
11413101 0.8929205751930688 -0.17030812975568257
11415424 0.89274979520836 -0.17228905647888865
11417746 0.8923297517470815 -0.1737710218385769
11420069 0.8919907795973581 -0.17558610083643816
11422391 0.891651748253988 -0.17735110383646713
11424714 0.8912852593028381 -0.17908664485728545
11427037 0.890802917870345 -0.18059068781544216
11429359 0.8908696682051978 -0.1822202938162987
11431682 0.8903052715515156 -0.18403982170400252
11434004 0.8900030316275784 -0.18581921696760606
11436327 0.8895044114078856 -0.18749663872025024
11438650 0.8892409175873031 -0.18919446017812463
11440972 0.8888496801355642 -0.19096205836199415
11443295 0.8885383902578443 -0.19276976369281706
11445617 0.8880999813051254 -0.19421738626759175
11447940 0.887975861239634 -0.19580152479522706
11450263 0.8873991750410055 -0.19770551239464043
11452585 0.8869898052162337 -0.19944477208434716
11454908 0.8869159957415724 -0.20120725223973326
11457230 0.8865065293312988 -0.20292727729325608
11459553 0.8859073123952658 -0.20464538135057128
11461876 0.8855490822992883 -0.20627750326213207
11461876 0.8860179549651853 -0.20559339071072233
11464246 0.8855252101054835 -0.20793937813060484
11466617 0.8849270540514221 -0.20991999009093482
11468987 0.8843623618275768 -0.211378412196493
11471358 0.8840705969958826 -0.21327621953444692
11473729 0.8837349928667589 -0.21492869086620794
11476099 0.8832079108030348 -0.21667519884243922
11478470 0.8827636435919285 -0.21839295282349042
11480841 0.8823109491665007 -0.22004483140411432
11483211 0.8822267451443409 -0.22191718636200944
11485582 0.8816917844271561 -0.22369731648695834
11487952 0.8812514224834201 -0.22533860234826253
11490323 0.880766108432637 -0.22693017006565944
11492694 0.8803256974119448 -0.22888740637341634
11495064 0.8797952743900793 -0.23044532012438876
11497435 0.8793419841058996 -0.23199971385498816
11499806 0.8790448878733066 -0.23400999298755346
11502176 0.8784615116377192 -0.2357954956090945
11504547 0.8779997237288576 -0.23742664940561317
11506917 0.8775719156206279 -0.23899039690008894
11509288 0.8772047122435273 -0.24096980891603398
11511659 0.8766281271421786 -0.24248540744050776
11514029 0.8761664814097583 -0.24428918037224376
11516400 0.8757549109312428 -0.24585765626349196
11518771 0.8753031079344201 -0.2476338238433494
11521141 0.8748987220702578 -0.2494018490524846
11523512 0.8741152722589426 -0.25117321162505646
11525883 0.8737840526973596 -0.2527200084815038
11528253 0.8732475287247499 -0.25454286636941864
11530624 0.8727627799915917 -0.25630811616830557
11532994 0.8724509281749013 -0.2581493053872259
11535365 0.8718690092057138 -0.25954572102254303
11537736 0.8712936288355778 -0.26139551918399795
11540106 0.8708330277931511 -0.26306124572531553
11542477 0.8703713918631228 -0.2648384433438856
11544848 0.8700077553676502 -0.2663764309443405
11547218 0.8694962623894431 -0.26829508117948914
11549589 0.8686829150925851 -0.26999709346431217
11551959 0.8683661776768877 -0.27158949427379087
11554330 0.8677425200486855 -0.27314615241708423
11556701 0.8674485685247699 -0.2750701154564137
11559071 0.8661390751345427 -0.2764212113637009
11561442 0.8663638580054694 -0.27855095156063653
11563813 0.8656005098630577 -0.2802059354829086
11566183 0.8651432221142517 -0.2819055187214051
11568554 0.8645136679039763 -0.28359655201101674
11570924 0.8638229021491205 -0.2852809050021109
11573295 0.8631991718570838 -0.2867796442222179
11575666 0.8628557410340708 -0.2885693389441632
11578036 0.8622121950844722 -0.29041020433649506
11580407 0.8618718082193688 -0.29201107791551706
11582778 0.8610984043421955 -0.29348533192046283
11585148 0.8605748189718886 -0.295404052286545
11587519 0.8600071770777686 -0.29710851213909956
11589890 0.8594083162704241 -0.2986323521235205
11592260 0.858880871429949 -0.3002487628501983
11594631 0.8583697530247576 -0.30207948001496837
11597001 0.8578622843548003 -0.30393482630735286
11599372 0.8572283661078888 -0.3054967425779552
11601743 0.8566238471657854 -0.3071567723229587
11604113 0.8561301139900633 -0.3089159865800631
11606484 0.8553271277820009 -0.3104834929222022
11608855 0.8545845399095873 -0.3121646996018159
11611225 0.854192665827514 -0.3140447434748283
11613596 0.8535972748503833 -0.3155856064141862
11615966 0.8530984049247357 -0.31736211965054417
11618337 0.8522228360575311 -0.31885666294705367
11620708 0.8515564612765731 -0.3206463907898338
11623078 0.8512121782238163 -0.32211947293898086
11625449 0.8506661324804358 -0.3240657223581816
11627820 0.8496660846195048 -0.32544101206327775
11630190 0.849220053648542 -0.3270751624312429
11632561 0.848684869970601 -0.32916290201038023
11634931 0.8479479692128111 -0.33076408651848416
11637302 0.8472109031320235 -0.33227097410642803
11639673 0.8467293799404413 -0.33382415407091853
11642043 0.8459910294605865 -0.33552902640991955
11644414 0.8454196640588204 -0.3372027860490369
11646785 0.8448179043393569 -0.3386819810423104
11649155 0.8443321019500478 -0.34053088722947716
11651526 0.8434682748190506 -0.3422810953829701
11653897 0.843060581326746 -0.34392763759834166
11656267 0.8421688639582324 -0.3455985399434069
11658638 0.841353240543763 -0.34716299883505264
11661008 0.8407109776006881 -0.348892450415107
11663379 0.8401874815535749 -0.35059622298488685
11665750 0.8392858460280054 -0.3521169588771464
11668120 0.8386547517926063 -0.3537645810632913
11670491 0.8379992085475292 -0.3554540818882468
11672862 0.8372644047415895 -0.35707579264311773
11675232 0.8364932020905486 -0.35872473605883953
11677603 0.8361198706088572 -0.3603848950633736
11679973 0.8352690206368326 -0.36213367590696716
11682344 0.8345974094723432 -0.363786002473315
11684715 0.833839323203079 -0.3653264106642802
11687085 0.8331814304129193 -0.3667227769608152
11689456 0.8326794342089369 -0.3687468765772115
11691827 0.8316924091654008 -0.37034053137102374
11694197 0.8310904194224126 -0.37186667591786005
11696568 0.8303533208202459 -0.37331877552278975
11698939 0.8295457391066469 -0.3750026381364075
11698939 0.8293572604386522 -0.37529290304595825
11701358 0.8289171687796457 -0.3768166924710755
11703778 0.8280861721119624 -0.3784480783701277
11706197 0.8276267659806076 -0.3797300075458689
11708617 0.8265562253036854 -0.38175970476248194
11711037 0.8256299989633292 -0.3834169700678596
11713456 0.8248759411561586 -0.38496249333343024
11715876 0.8239819182147783 -0.3866542729613539
11718296 0.8235271823696784 -0.3880774573506038
11720715 0.8225571461137613 -0.3900120936479403
11723135 0.8215800351971164 -0.3915694687698136
11725555 0.8211763722100447 -0.3932063516768776
11727974 0.8202042542116795 -0.3947959127065175
11730394 0.8196520947974067 -0.39658959725413745
11732814 0.8188622265722237 -0.3981977085165269
11735233 0.8179983516567082 -0.3997603128376527
11737653 0.8172144616164627 -0.40165222952976243
11740073 0.8164869219049091 -0.40313768448218923
11742492 0.8158022913030661 -0.4046747927325754
11744912 0.8148624202828609 -0.4064860855133941
11747332 0.8139290031693809 -0.4079471651756784
11749751 0.8132366025756161 -0.40951296368126405
11752171 0.8121501948728646 -0.4110494252894807
11754590 0.8115678773303906 -0.4129040062377958
11757010 0.8108485021683466 -0.41434255916202867
11759430 0.8098888175932114 -0.41609583696786956
11761849 0.8092564570148613 -0.41786369576876065
11764269 0.8083551954929358 -0.4194906280535141
11766689 0.8073617076584937 -0.42116008449288955
11769108 0.806598046390177 -0.42269193621074247
11771528 0.8058489332109223 -0.42415870918042115
11773948 0.8049587400224011 -0.4257429257580012
11776367 0.8039502498025193 -0.42744701749832215
11778787 0.8032604426694934 -0.4290217352688672
11781207 0.802294377855561 -0.43062979715270305
11783626 0.8016503374193613 -0.43231268155370234
11786046 0.8006897430288431 -0.43371740432361233
11788466 0.7998029324035126 -0.43560088315810364
11790885 0.7990460867834837 -0.4370800545818546
11793305 0.7977982192711981 -0.4387261416742336
11795725 0.7970047399226519 -0.44023617679202076
11798144 0.796178674590168 -0.4416099195816032
11800564 0.7954316370653678 -0.44346344999348364
11802983 0.7944075670910311 -0.4451390328080116
11805403 0.7936102643516705 -0.44656921791110255
11807823 0.7927890613016665 -0.4482251723135454
11810242 0.7919548971356701 -0.44980543753290986
11812662 0.7908913288459681 -0.451630391501358
11815082 0.7900060730916328 -0.45305289083040823
11817501 0.7892023485113793 -0.4546014456133189
11819921 0.7882164788487959 -0.45605866210191504
11822341 0.7872962196929375 -0.4575394980252583
11824760 0.7862215291688397 -0.4592928287261957
11827180 0.785577160954407 -0.46102341755906945
11829600 0.7848291295727756 -0.4625203755300935
11832019 0.7838789998015225 -0.4641107412494835
11834439 0.7828803716609571 -0.46593155904466443
11836859 0.7817556639127707 -0.4672950326514914
11839278 0.7809790104503321 -0.46879548569344814
11841698 0.7800522214138592 -0.47047951622648443
11844118 0.7789690035411715 -0.4717411241604759
11846537 0.7782054280612057 -0.4735700079162976
11848957 0.7771472139879667 -0.4752599575374436
11851376 0.7763039030844286 -0.476666653687228
11853796 0.7757474482910509 -0.4786615631700781
11856216 0.7742818144362793 -0.4797705007435937
11858635 0.7735133428660899 -0.4815480568560407
11861055 0.7723987357505322 -0.4828532338428766
11863475 0.7716292332188558 -0.4843943287479474
11865894 0.7708031634477052 -0.4860784309432671
11868314 0.7696079268423841 -0.48774139734863275
11870734 0.7686139922847675 -0.4893644959588638
11873153 0.7677124579913033 -0.49076633965433075
11875573 0.7669153860913627 -0.49224990300933574
11877993 0.7659143880844411 -0.49378271826360387
11880412 0.7648087494059436 -0.495259530148148
11882832 0.7637082711547344 -0.4968351397236405
11885252 0.7627683453945657 -0.4982927625083907
11887671 0.7617838715604015 -0.4996473546374982
11890091 0.7609005447259708 -0.5015327399382137
11892511 0.7596123817943914 -0.5032065065123797
11894930 0.75864176667685 -0.5043900971577833
11897350 0.7578326825509125 -0.5061748950723342
11899769 0.7568681816413724 -0.5075608830349869
11902189 0.7558444055121097 -0.5090648395327917
11904609 0.7548809504454919 -0.5105952071399217
11907028 0.7537129553359849 -0.5121517629562066
11909448 0.7528136285438689 -0.5136480158526203
11911868 0.75167727391976 -0.5152904559844325
11914287 0.7505885333938039 -0.5168789778753714
11916707 0.749841877916697 -0.518389702039541
11919127 0.7486205781373593 -0.519517351007985
11921546 0.7478469811241695 -0.5209792434089453
11923966 0.7466417318893722 -0.5227129826406292
11926386 0.7455725971253545 -0.5241188955013071
11928805 0.7444156119168225 -0.5255652260637024
11931225 0.7433879656591178 -0.5271606058959022
11933645 0.7421107866551957 -0.5283798211734949
11936064 0.7413345745371964 -0.5302946183022766
11938484 0.7401556674957679 -0.5315286441332555
11940904 0.739341593564306 -0.5331700917940587
11940904 0.7394062083167269 -0.5337771926230328
11943373 0.7380282798642751 -0.5348657789528647
11945843 0.7369865117191431 -0.5362153046031837
11948313 0.7360669741005202 -0.5378376686051612
11950782 0.7349204905488069 -0.539063482014578
11953252 0.7336584909586777 -0.5403992292293364
11955722 0.7326363233782367 -0.541961803529115
11958191 0.7316718973221622 -0.5435809890970912
11960661 0.7304095877805866 -0.5449631140951241
11963131 0.7292885104513519 -0.5465964505880475
11965601 0.7281855389791398 -0.548206229249547
11968070 0.7270288853763834 -0.5495579046223725
11970540 0.7261176665096682 -0.551176198638747
11973010 0.724939812521917 -0.5525329832941775
11975479 0.7238588965048807 -0.5539278274689984
11977949 0.7225756554191153 -0.5554178831610969
11980419 0.7214633708250662 -0.5570946200278026
11982889 0.7202151760618608 -0.5586938901418507
11985358 0.7191951214634061 -0.5599757058724163
11987828 0.7180140709860067 -0.5614198314791018
11990298 0.7166040536678332 -0.56261548831621
11992767 0.7156967205836122 -0.5641581762238019
11995237 0.7145428814697928 -0.5655680458331919
11997707 0.7135331617939537 -0.567100661454783
12000177 0.7122989266860038 -0.5688272616377185
12002646 0.7110070869376278 -0.5703359695106991
12005116 0.7098479646291695 -0.5716838371761058
12007586 0.7087657248670094 -0.5733351298652357
12010055 0.7077537601416056 -0.5745248188041285
12012525 0.7066409144226704 -0.5760057244944706
12014995 0.7054320445448634 -0.5775099269478976
12017465 0.7043450650077717 -0.5789635695749511
12019934 0.7030690615536844 -0.5803684782558032
12022404 0.7018281649944946 -0.5816643544609352
12024874 0.7004149482560322 -0.5829070729430147
12027343 0.6992101458443419 -0.5844191039483754
12029813 0.6981707781842942 -0.5862238166827538
12032283 0.6968004678669633 -0.5873963049478118
12034752 0.6959022437787833 -0.5890530656029467
12037222 0.6945653867116135 -0.5904565446761957
12039692 0.6933430217269123 -0.5917248797885004
12042162 0.691953617200894 -0.5929246534401671
12044631 0.6908956048780748 -0.5945755992338925
12047101 0.6896417311600594 -0.5959895055156721
12049571 0.6885368981105685 -0.5973015152201555
12052040 0.6873061716085914 -0.5987088419542821
12054510 0.6860174787624 -0.6001590936604951
12056980 0.6850035077606612 -0.6017598502757884
12059450 0.6835671327332941 -0.6027939376138356
12061919 0.6824851878698803 -0.6041080212208828
12064389 0.681070872455257 -0.6057739656706241
12066859 0.6800850648371557 -0.6071896916254487
12069328 0.6786944707414262 -0.6084836700525432
12071798 0.6773768026394824 -0.6098758971204841
12074268 0.6760561694915719 -0.6112743117015529
12076738 0.6749811435880703 -0.6128595680766964
12079207 0.6737289510237083 -0.6142497306449949
12081677 0.6724383053278925 -0.6155088199353381
12084147 0.6712111245582308 -0.6168597810040589
12086616 0.6698944153277937 -0.6182760246941654
12089086 0.6688433756842719 -0.6196818401728195
12091556 0.6674962338380658 -0.6209864249092434
12094026 0.6660636438113078 -0.6223448724326394
12096495 0.6649774766257187 -0.6235602450931288
12098965 0.6637484055017518 -0.6248777969672423
12101435 0.6623717083926585 -0.6265340374681818
12103904 0.661292613592256 -0.6279564228444342
12106374 0.6596601695967402 -0.6289486167435953
12108844 0.6582892589137042 -0.6302178559357514
12111313 0.6574140260129829 -0.6315324669188734
12113783 0.6557128196070027 -0.6330539608021973
12116253 0.6547195620849996 -0.6345513542762438
12118723 0.6534924824091038 -0.6357459587587211
12121192 0.6519088164910672 -0.6370394061681722
12123662 0.6506228803357333 -0.6384695559181875
12126132 0.6494295357466162 -0.6397148400770873
12128601 0.6480638832726338 -0.6411025126946348
12131071 0.6468143471469906 -0.6423174886253635
12133541 0.645488159224772 -0.6434519383164576
12136011 0.644194235659298 -0.6450771786731125
12138480 0.6427526160791329 -0.6461436650599626
12140950 0.6414815286617193 -0.6476333117660649
12143420 0.6400344508714233 -0.6488913315432397
12145889 0.6387722560488669 -0.6502991037350979
12148359 0.6375517345150297 -0.6510583827664436
12150829 0.6362947546939327 -0.6532380218810332
12153299 0.6350969137074536 -0.6540839364880343
12155768 0.6335438934391175 -0.6555687603872365
12158238 0.6320627261816216 -0.6570379429670254
12160708 0.6306887345819925 -0.6581333040822467
12163177 0.6293229992059218 -0.6593356112155202
12165647 0.6279362625362137 -0.6603159782799966
12168117 0.626720949459472 -0.6616630893336235
12170587 0.6255446241911173 -0.6633012661388018
12173056 0.6241461337294972 -0.6645486836746252
12175526 0.6227212784786493 -0.6658587446537921
12177996 0.6213184129746273 -0.6668503075440677
12180465 0.6199616886279652 -0.6681076490617639
12182935 0.61843740658402 -0.6694598144315976
12185405 0.6172028344318959 -0.6707099003412905
12187875 0.6159158415004161 -0.672244472541036
12187875 0.6157304031834097 -0.6724737901771133
12190395 0.6144047255239307 -0.6733857692509971
12192916 0.6131630355249567 -0.6744584755150157
12195437 0.6116033996044972 -0.6759942933520079
12197958 0.6101318215015649 -0.6773168113305111
12200478 0.6088991412263077 -0.6783680546849253
12202999 0.6075125345677244 -0.6794636310498587
12205520 0.6060797469091308 -0.6808934762396034
12208041 0.6045807422907734 -0.6821574479212142
12210562 0.6032379679896474 -0.6836873101881548
12213082 0.6017234064294185 -0.684967567761034
12215603 0.6002414852801153 -0.6860106573851042
12218124 0.5988766508223723 -0.6872415441762962
12220645 0.59745583832777 -0.6884063985759283
12223165 0.5960245798891588 -0.6897314458909484
12225686 0.5945720533105207 -0.6908183485480162
12228207 0.5932117957598788 -0.6921723135880947
12230728 0.5918062802785858 -0.693421892010525
12233249 0.5902951813006114 -0.694382556690991
12235769 0.588771642470887 -0.6959114922123307
12238290 0.5871084623346784 -0.6969537914095609
12240811 0.5857034570526435 -0.6982145176822
12243332 0.5843845175616581 -0.6993946727195421
12245852 0.583086542221055 -0.7008513590106203
12248373 0.5816270549036084 -0.7019935435369001
12250894 0.5800268521423757 -0.7030554873572227
12253415 0.5785152117534474 -0.7042536426219894
12255936 0.5769745572728404 -0.7054309993490304
12258456 0.5756538870658869 -0.7067416670521527
12260977 0.5741148662074748 -0.7079593363719539
12263498 0.5726210820256205 -0.7092514562767447
12266019 0.5711151477902179 -0.710242878809986
12268539 0.5696929964735256 -0.7115057109582903
12271060 0.5680493285633798 -0.7126407582052107
12273581 0.5667397268935913 -0.7139010721392274
12276102 0.5651562866667893 -0.7149194669373481
12278623 0.5636608099489195 -0.7161893903402108
12281143 0.5622618547357455 -0.7174784646010671
12283664 0.5607369707264384 -0.718550521217167
12286185 0.5591777647812162 -0.719710037521712
12288706 0.5575795573128821 -0.7209656911296959
12291226 0.5562046985742023 -0.7221054908540943
12293747 0.5546475274288211 -0.723117737180247
12296268 0.553619420748397 -0.7245001015656014
12298789 0.5516597346644582 -0.725443090122481
12301310 0.5499905052771566 -0.7269201206297992
12303830 0.5485983825987952 -0.7278989329158316
12306351 0.5473098225608594 -0.7290449546573027
12308872 0.5454871747856884 -0.7301905272281566
12311393 0.5440093038283309 -0.7312402094046447
12313914 0.5423882817380924 -0.7322021413780815
12316434 0.5409574462442932 -0.733278048487432
12318955 0.539642075680683 -0.7344070299608811
12321476 0.5377685062189275 -0.7355756919592342
12323997 0.5364113295814041 -0.7367984497457646
12326517 0.5347576369569526 -0.7377591500004573
12329038 0.5334773943122224 -0.739166706458963
12331559 0.5316707626005653 -0.7400789304208473
12334080 0.5301476110034778 -0.7412880880460103
12336601 0.5286322572864164 -0.7423432568419427
12339121 0.5268956366486126 -0.7435334805717292
12341642 0.5253456615348009 -0.744618414531571
12344163 0.5239280353633833 -0.7455916791828586
12346684 0.5222883422761331 -0.7465840686480578
12349204 0.5208543073884287 -0.7478185628569778
12351725 0.5193537724241414 -0.7489558492466769
12354246 0.517763990006172 -0.7499836723353989
12356767 0.5164082528069911 -0.7511720815600522
12359288 0.5147742759329689 -0.7521010432551855
12361808 0.5130171774059419 -0.7533756319329348
12364329 0.5112820942852838 -0.7542447252139233
12366850 0.5098514525702864 -0.755281323464919
12369371 0.5081846417963034 -0.7562452803770661
12371891 0.5067597095503695 -0.7575009115761481
12374412 0.5052333686997248 -0.758675126436604
12376933 0.5036782905208286 -0.7597244653928267
12379454 0.5020593678164145 -0.7605924324773139
12381975 0.5002622305854256 -0.76167876570166
12384495 0.49906248550530136 -0.7628858699988894
12387016 0.49712862172500577 -0.7637462187279247
12389537 0.4954324599283968 -0.7649206583111583
12392058 0.49391149324954886 -0.7658358354852469
12394578 0.4922843795771339 -0.7668822722889737
12397099 0.49056664594084953 -0.7676897886766694
12399620 0.4890373820339854 -0.7687004794708852
12402141 0.4877416890680134 -0.7698455161299037
12404662 0.4859124313009843 -0.7708222012433075
12407182 0.4843083233568147 -0.7718299169576024
12409703 0.48295196363716697 -0.7729562879769118
12412224 0.48111894383785153 -0.7739339897753896
12414745 0.47936539040707304 -0.7747611587113777
12417265 0.47778460219640306 -0.7757202609703071
12419786 0.4760322995148641 -0.7766208663932557
12422307 0.4747652059190656 -0.7780222857655922
12424828 0.4730587358277892 -0.7789136756954718
12427349 0.47148511267490223 -0.7800367837174625
12429869 0.4697375276035728 -0.7807807966129104
12432390 0.46808880135510356 -0.7817943227392059
12434911 0.4664245345097911 -0.7827737205803913
12437432 0.4648555827779127 -0.783740150783232
12439953 0.463174628328322 -0.784648835083354
12439953 0.4641473699985218 -0.784776372279792
12442525 0.46197290773464267 -0.7860877524439295
12445098 0.45995712574426223 -0.7869244631395544
12447671 0.45850495760680265 -0.7876345021378414
12450244 0.45667471631443124 -0.7886930877453258
12452817 0.4548684124103146 -0.7897800365830601
12455390 0.45323620891780875 -0.7907065698947273
12457963 0.45176475821904577 -0.7917104439597815
12460536 0.4495272277731402 -0.7925637513421443
12463109 0.44836654997327163 -0.7936441323127803
12465682 0.44632791032535013 -0.7943993637971811
12468255 0.44466200886252455 -0.795335866430621
12470828 0.44288595698500766 -0.7962984637255797
12473400 0.4412647118099033 -0.7969629947375801
12475973 0.43943894360926494 -0.7980080907588439
12478546 0.4379262579920745 -0.7992817222432258
12481119 0.4361258584822574 -0.7998877649374859
12483692 0.4343278147846038 -0.8010884872227572
12486265 0.43277340751077287 -0.8018713542343424
12488838 0.4311083202390919 -0.8028942722790621
12491411 0.429348336557149 -0.8038800415401293
12493984 0.42768659213528826 -0.8045479177198328
12496557 0.425995586058668 -0.8056306007349933
12499130 0.4241675809755048 -0.8064016042108944
12501703 0.42246438349714566 -0.8076650919648916
12504276 0.42078539979902 -0.8082551996432077
12506848 0.4191702974848019 -0.8092351515858874
12509421 0.4173563129065589 -0.810054333516118
12511994 0.4156428055090132 -0.8111086380230754
12514567 0.4138249409579081 -0.8117663907398476
12517140 0.41195619976436554 -0.8127266751647758
12519713 0.4101661663380754 -0.8135719942870663
12522286 0.4086052740844242 -0.8146060401954818
12524859 0.40674375925052403 -0.8153770931500604
12527432 0.40506295048619906 -0.8162770316492736
12530005 0.4033510897025843 -0.8169311547163016
12532578 0.40163956091623954 -0.8175580190660826
12535151 0.3999435813256469 -0.8186721341701907
12537723 0.39824878906135525 -0.8194258895630885
12540296 0.39659434083393436 -0.8204878324838671
12542869 0.3947974673202741 -0.8214606905144003
12545442 0.39292546494767944 -0.8221857682317351
12548015 0.3911554360798354 -0.8228689774192403
12550588 0.3892731685387648 -0.8236337263517762
12553161 0.3876697771865949 -0.8244009797490945
12555734 0.3859029324225508 -0.8252565110504663
12558307 0.3842136423864532 -0.8261951825139554
12560880 0.38221791388312093 -0.8268713002246293
12563453 0.38074894292067957 -0.827661065157436
12566026 0.37880809963991113 -0.8285098404852627
12568599 0.3770726884540099 -0.829528498362344
12571171 0.37553825088357123 -0.8304566110647266
12573744 0.37358766840389696 -0.8311677831595685
12576317 0.3717471370462996 -0.8317246895690262
12578890 0.3699247282324067 -0.8324275276925391
12581463 0.367979059143465 -0.8334971489062567
12584036 0.3663844227272212 -0.8341517461632265
12586609 0.3646947348881937 -0.8348927557806868
12589182 0.36268059306901573 -0.835339721142304
12591755 0.36095077154042954 -0.8370314593103009
12594328 0.35940324024141146 -0.8373177571082426
12596901 0.3575941880178547 -0.8379297708983616
12599474 0.35566440188588144 -0.8386426643472754
12602046 0.35414396400564485 -0.8393360933289834
12604619 0.3520101087790502 -0.8402213850197607
12607192 0.3503361605193673 -0.8409670783573652
12609765 0.3485728216583107 -0.8415974395712247
12612338 0.34668250796786165 -0.8422408981354423
12614911 0.3451109678190867 -0.8432749156742589
12617484 0.3430067613839134 -0.8440243965960179
12620057 0.3413810340267099 -0.8447371509769256
12622630 0.33944129473097534 -0.845552868486305
12625203 0.3376220940398563 -0.8458855650512307
12627776 0.3359527950405657 -0.8467838991631155
12630349 0.3340826104358313 -0.8474245875738293
12632922 0.33230656979275985 -0.8481354466267996
12635494 0.33048660597336876 -0.8484908216492032
12638067 0.3286503759391298 -0.8493840648785785
12640640 0.32685341061684053 -0.8501700962952122
12643213 0.32507388662983766 -0.8509295533320002
12645786 0.32324032165452443 -0.8516534119469491
12648359 0.321464162062474 -0.8522888848485503
12650932 0.31963954670061023 -0.8529089628925286
12653505 0.31779940444374694 -0.8538194780243603
12656078 0.31594149233028557 -0.8540920123575603
12658651 0.3143657028442424 -0.8550756875902567
12661224 0.31250406162016064 -0.8556839016273011
12663797 0.31044533856142653 -0.8564407470247577
12666369 0.30887014661685513 -0.8570486439469786
12668942 0.3067552854336692 -0.8576648286386044
12671515 0.30499954070946456 -0.8582661870974692
12674088 0.30332474021468564 -0.8588061132092435
12676661 0.30128472967850844 -0.8596626656779949
12679234 0.2995142480714946 -0.8601798287887583
12681807 0.2975972769528469 -0.8605939741792569
12684380 0.2957963045146306 -0.8613514858937604
12686953 0.2940931379801265 -0.8620012018996055
12689526 0.2923272949236438 -0.8627917702326496
12692099 0.2903591745679795 -0.8633967270628948
12694672 0.2886457824598302 -0.8638528153148028
12697245 0.2866056334629686 -0.8646339794828687
12697245 0.2869305584148997 -0.8644813953775109
12699871 0.2847141269462624 -0.8651569236320049
12702497 0.2829350357806542 -0.8657034468194015
12705123 0.28111629352074025 -0.866351680001794
12707749 0.2789587875924131 -0.8667632405181379
12710375 0.27720500581005764 -0.8674921756005517
12713001 0.27549504316681994 -0.8680868645614438
12715627 0.2737005075704176 -0.8686126035012247
12718254 0.27168029896601553 -0.8693798193547122
12720880 0.26958753043242956 -0.8699048745593039
12723506 0.26798119538051396 -0.8705271000938886
12726132 0.26579754254922694 -0.8709992243998489
12728758 0.26398577090806324 -0.8716602160433704
12731384 0.261966880210519 -0.8723536789699473
12734010 0.26001434654446043 -0.8727616795377241
12736636 0.25822816201780224 -0.8734927115630619
12739263 0.2559388538861974 -0.8746228312540262
12741889 0.25443893697612474 -0.8743870337489442
12744515 0.25226653473942856 -0.8747607011219004
12747141 0.25052451000649056 -0.8755480339891563
12749767 0.2485057520067908 -0.8762113061635015
12752393 0.2466822062452848 -0.8765043235776214
12755019 0.24484550870424304 -0.877047461729343
12757645 0.24304388358087067 -0.8775213662568516
12760272 0.24087614876168026 -0.8782347962344617
12762898 0.23912970417182916 -0.8784981979848018
12765524 0.23715913768789026 -0.878871125741037
12768150 0.23508429382602608 -0.8796123812879154
12770776 0.23340111146193368 -0.8800571284533649
12773402 0.23154191906711555 -0.8806068246055524
12776028 0.22971274570859376 -0.8813164099918801
12778655 0.2277103886828613 -0.8814728171971432
12781281 0.2259191009299697 -0.8820297227306941
12783907 0.2239288905080344 -0.8825998288772944
12786533 0.2217863553493016 -0.8829835423311243
12789159 0.2200514165112258 -0.8834101471961857
12791785 0.21830034221533182 -0.8839628133405902
12794411 0.21607010249106615 -0.884475642049278
12797037 0.2141866025774553 -0.8850721748196934
12799664 0.21210730554025997 -0.8853756356992225
12802290 0.21017599438132012 -0.8856326653635342
12804916 0.20820010059428135 -0.8862888152447281
12807542 0.20649090904635592 -0.8868759183670548
12810168 0.20483800769802676 -0.8871400342181679
12812794 0.20254446660023226 -0.887731053415806
12815420 0.20052393971802118 -0.8882172984136262
12818046 0.19884739513955468 -0.8886696597177415
12820673 0.19683540221198023 -0.889099419320408
12823299 0.1948293912906385 -0.8892097620428857
12825925 0.19299759231884772 -0.8898386345261518
12828551 0.19101445174480225 -0.8898982964072508
12831177 0.18887512704717194 -0.8905553075047298
12833803 0.18680873452498953 -0.891084916435699
12836429 0.18491707886847697 -0.891526565842247
12839056 0.18297519423609535 -0.8915903748400867
12841682 0.18136156159614278 -0.8922031630355814
12844308 0.17923649042257506 -0.8924086738842625
12846934 0.17741988537853423 -0.8929670290967051
12849560 0.17537546964881542 -0.8931144994385176
12852186 0.17353295799494736 -0.8934238605639716
12854812 0.17147978992406712 -0.8938124856694618
12857438 0.1697149233550745 -0.8943064699927507
12860065 0.16780176018762755 -0.8948738336133137
12862691 0.16587709132212347 -0.895007774363311
12865317 0.16373634135687626 -0.8954082955889846
12867943 0.16187644954478606 -0.8956594048320993
12870569 0.15995030997024634 -0.8959045780865078
12873195 0.15790909968927916 -0.8962715703427312
12875821 0.15591061151880026 -0.896766067374123
12878447 0.1540318857749691 -0.8971761007971933
12881074 0.15195603357574652 -0.8974312980095611
12883700 0.1499538552919501 -0.8975952059757258
12886326 0.14771856053485513 -0.8978611881922182
12888952 0.14600663456453927 -0.8981783233684619
12891578 0.1442252805608184 -0.8985809391260015
12894204 0.14228051067324254 -0.8988719633737904
12896830 0.1404011722688461 -0.8993516503160349
12899457 0.13826451810696155 -0.8997272665864785
12902083 0.13629700364528624 -0.8998141263582805
12904709 0.13442098668428365 -0.9001540745765546
12907335 0.13232934498147103 -0.9001449429759848
12909961 0.13066457983896784 -0.9005792467355133
12912587 0.12865042694022208 -0.9010537332040699
12915213 0.12639786607744716 -0.9010829986700863
12917839 0.1246293709221306 -0.9015268548843509
12920466 0.12243812366316538 -0.9016623682658417
12923092 0.12064638947615319 -0.9022804845864635
12925718 0.11856925053555724 -0.9019701908567348
12928344 0.11665207584232085 -0.9024447985731274
12930970 0.11464888145548363 -0.9028778713224496
12933596 0.11256846065143301 -0.9030405601466615
12936222 0.11054000581860346 -0.903320266744577
12938848 0.10890224263247505 -0.9031458248476745
12941475 0.10687247579336756 -0.9038090842157156
12944101 0.10482771828832235 -0.9037425913931145
12946727 0.1028713777069306 -0.9041334964949888
12949353 0.10113708487069006 -0.9042861529882549
12951979 0.09899760923324442 -0.9046078933238073
12954605 0.09702372117695825 -0.9045736345114394
12957231 0.09506954815398312 -0.9049663015841458
12959858 0.09292451958652388 -0.9052855974976124
12959858 0.09334313000956122 -0.9055322613823276
12962538 0.09121759545378003 -0.9053088396305362
12965218 0.0889169045738929 -0.9056555325607277
12967899 0.0869567234091194 -0.9058793706749141
12970579 0.0849935023294284 -0.9058399329374389
12973260 0.0829395709427281 -0.9060897062492829
12975940 0.08090954034527832 -0.9062996716487366
12978621 0.0787442907567713 -0.9064047551440253
12981301 0.07671432342151147 -0.9064698671216255
12983982 0.07476188604081707 -0.9067893860744618
12986662 0.07295066450708204 -0.9069542217708356
12989342 0.0708394346832443 -0.9072770892661283
12992023 0.06917402935326149 -0.9072129720532196
12994703 0.06673084853757799 -0.9072808783928642
12997384 0.06490587719121163 -0.9074981645008215
13000064 0.06271173563394876 -0.9073110109648201
13002745 0.06084985567836189 -0.9075996860217347
13005425 0.05870922083319143 -0.9078194587755509
13008106 0.056715823920387785 -0.9079568979690864
13010786 0.05483199330799427 -0.9080898279154536
13013467 0.05274849030929334 -0.9081034588061606
13016147 0.05070729389285744 -0.9080823442474005
13018827 0.04865046309732635 -0.908409983079025
13021508 0.04671649522981304 -0.9085419849100356
13024188 0.04460931709480565 -0.9088321421849367
13026869 0.042906444903098154 -0.9087268544912932
13029549 0.040746691070945515 -0.908880937069386
13032230 0.03878294769789157 -0.908807295483408
13034910 0.03623252123910215 -0.9083586470274934
13037591 0.03453848231183532 -0.9088108348510723
13040271 0.03247009509755711 -0.9090588176784227
13042951 0.03047400304685486 -0.9090192524628569
13045632 0.028446679476917862 -0.9090297951209431
13048312 0.02639840241439008 -0.9091643299023876
13050993 0.024587882732497623 -0.909186959468113
13053673 0.022374227544911817 -0.9090023077680329
13056354 0.02044067982298223 -0.9092640544863438
13059034 0.018294763942864577 -0.9092846173072034
13061715 0.01639884918744704 -0.909255326191712
13064395 0.014269136674494684 -0.9094585452827318
13067076 0.012336499369499168 -0.9092706022122325
13069756 0.010273431645482969 -0.9090864554158767
13072436 0.008244958311013193 -0.9094140289487744
13075117 0.006192265849805049 -0.9093725730491391
13077797 0.004123486292566659 -0.9095163561712541
13080478 0.0021522082889239387 -0.9092545895615302
13083158 0.00030995612979215544 -0.9092818170408028
13085839 -0.0017728963563637048 -0.9091379065474079
13088519 -0.0037951165906165312 -0.90897954846016
13091200 -0.006130606660534257 -0.9092678448903593
13093880 -0.007819428344128361 -0.9091538108779327
13096560 -0.010043065296975316 -0.9093320709436984
13099241 -0.011766454810462146 -0.909115410248098
13101921 -0.01401922121706764 -0.9090300551304186
13104602 -0.01601317518247494 -0.9091335132264367
13107282 -0.017954367836553776 -0.9089582997197138
13109963 -0.02031033178248637 -0.9089054155356712
13112643 -0.02202777550513765 -0.9089371450722001
13115324 -0.024084344266120754 -0.9087937003231715
13118004 -0.0262010868950751 -0.9086323007027327
13120685 -0.02811928259636539 -0.908436579088493
13123365 -0.030111808357655975 -0.9086008876605052
13126045 -0.032200268412139015 -0.9083856474605856
13128726 -0.0342542362127261 -0.9084366993487156
13131406 -0.0363122594070127 -0.9080653520507538
13134087 -0.038171168133852934 -0.9081336944218663
13136767 -0.0404470687912327 -0.9081021438020404
13139448 -0.04215871051720523 -0.9079105913764381
13142128 -0.04443255011514399 -0.9076231913847768
13144809 -0.046221059011633314 -0.9078182117312146
13147489 -0.048201626407466946 -0.9074544360975627
13150169 -0.050185448185068156 -0.9073447616601313
13152850 -0.05259677854705158 -0.9073233141324929
13155530 -0.054283794559272056 -0.9069921592128904
13158211 -0.05648848400144863 -0.9073597067685413
13160891 -0.05851224205124225 -0.9070238388395206
13163572 -0.06036561533098798 -0.9067950202634061
13166252 -0.06231675862336811 -0.9066171110915441
13168933 -0.06449898450293173 -0.9064884280713199
13171613 -0.06661382487739262 -0.9063735632557578
13174294 -0.06868336804082027 -0.9062260427869856
13176974 -0.07070871807052011 -0.9060160662688723
13179654 -0.07247539439041727 -0.9057116707460378
13182335 -0.07444492405911922 -0.905330709308918
13185015 -0.07664186270947118 -0.9055286048920383
13187696 -0.07855933373576154 -0.9053899515426621
13190376 -0.08074352963607384 -0.9049943636445604
13193057 -0.08272560000280897 -0.9046196610886563
13195737 -0.08465812529512554 -0.9044559646140711
13198418 -0.0867767786942923 -0.9040066641821748
13201098 -0.08879726854614073 -0.9041836757370517
13203778 -0.09083636173326334 -0.9039074740149643
13206459 -0.09266468808542141 -0.9036453337063799
13209139 -0.09457500575236333 -0.9035751661344706
13211820 -0.09662185648684089 -0.9030332056387578
13214500 -0.09876753361981894 -0.9029987447729712
13217181 -0.10058437095166374 -0.9027611099251995
13219861 -0.10283333354894837 -0.9023629667986032
13222542 -0.10449329579403399 -0.9022270511763424
13225222 -0.10651923069132908 -0.9020909466952354
13227903 -0.1087644639714311 -0.9017080170981797
13227903 -0.10908980528702995 -0.9019472890438874
13230638 -0.11085685916131034 -0.9014279464635218
13233374 -0.11283416137232019 -0.9014260434410569
13236110 -0.1146365227174534 -0.9011607130974507
13238846 -0.11676381871030628 -0.9010006503860828
13241582 -0.11897048580624463 -0.9003122219137356
13244318 -0.1208631777403419 -0.8999785663658276
13247054 -0.1228717957641532 -0.8998372941682428
13249790 -0.12499844431871437 -0.8994773016964805
13252526 -0.12706821427664433 -0.8994210372257359
13255261 -0.12911315047904026 -0.8988177394975745
13257997 -0.13099760496356297 -0.8984332741272444
13260733 -0.13297261737908098 -0.8985090075198545
13263469 -0.13514637109297692 -0.8982157654237972
13266205 -0.13740572819440036 -0.897332099046494
13268941 -0.13923671816238684 -0.897072315899468
13271677 -0.14135047058485917 -0.897063215156201
13274413 -0.14331806932781163 -0.8966316876675298
13277149 -0.14544226823205272 -0.896587606948151
13279884 -0.14746025117304082 -0.8959784462205663
13282620 -0.14926724573408967 -0.8954530596016694
13285356 -0.15139639052847725 -0.8952493705161191
13288092 -0.1534006840249443 -0.8950639929834756
13290828 -0.15555850433089993 -0.8945885011466932
13293564 -0.15765787105990467 -0.8942164907475181
13296300 -0.1595247896731176 -0.8935439735454486
13299036 -0.16158310226703754 -0.8934873750847947
13301772 -0.16370528827797173 -0.893075973809395
13304507 -0.1656973697748212 -0.8926154464297531
13307243 -0.16742527947877942 -0.89225079347127
13309979 -0.1696450918468599 -0.8916726843134039
13312715 -0.17202987172989614 -0.8913322725492758
13315451 -0.1736643092632349 -0.8910783729577908
13318187 -0.1759157535351696 -0.8904230104015461
13320923 -0.1777063556493459 -0.8900181964978133
13323659 -0.17986608236604756 -0.889608207296298
13326395 -0.18176594699122897 -0.8894177731095931
13329130 -0.18271006609343496 -0.8897025920594611
13331866 -0.18567538235568826 -0.8883993523647743
13334602 -0.18783169924075577 -0.8882194932243975
13337338 -0.18979525387798468 -0.8876633372428333
13340074 -0.19176811520653975 -0.8871746534939721
13342810 -0.1937593273463053 -0.8868390835999773
13345546 -0.1957886404908757 -0.886318206384582
13348282 -0.19773980129416371 -0.8856726264296206
13351018 -0.19990685067658379 -0.8850243442149215
13353753 -0.20195634198133489 -0.8845820349050041
13356489 -0.2038637579835114 -0.8842315148797321
13359225 -0.205968171052052 -0.8836586350390035
13361961 -0.20787819282078668 -0.8837044059926644
13364697 -0.20971402981774712 -0.8829948889666489
13367433 -0.2116889177712739 -0.8824108148303222
13370169 -0.21390281842568923 -0.8819614781756643
13372905 -0.21549505862034307 -0.8813047195816288
13375641 -0.21759844537805603 -0.8806361064466939
13378376 -0.21947615206632218 -0.8800065909518224
13381112 -0.22157408121792743 -0.8798419571326982
13383848 -0.22361603092524807 -0.8792442828128044
13386584 -0.22579686464462845 -0.8785212517851605
13389320 -0.2277306484940038 -0.8781877473474357
13392056 -0.2299421150385076 -0.8778393940130523
13394792 -0.23165433636283367 -0.8772031225250595
13397528 -0.2334612536221689 -0.8765286563754358
13400264 -0.23553443516732045 -0.875661489731427
13402999 -0.2377944076591981 -0.8752967653559873
13405735 -0.23971937405437405 -0.8748682150213887
13408471 -0.24164394946950518 -0.8740598544906332
13411207 -0.243531614935674 -0.8736953701857024
13413943 -0.24539107239439015 -0.873270764407669
13416679 -0.24762211915111534 -0.8727303035869326
13419415 -0.24960980236960545 -0.8720073503676979
13422151 -0.25152332740941014 -0.8715494140681593
13424887 -0.25353341014938513 -0.8708157056511442
13427622 -0.25538810826531305 -0.8701548886775666
13430358 -0.25736424783968986 -0.8695958642118976
13433094 -0.2593149555341421 -0.8687850767655392
13435830 -0.26134887349774294 -0.8684421586015071
13438566 -0.2634542500592154 -0.8677220632306253
13441302 -0.2654057820948277 -0.8671599231554925
13444038 -0.26731934938639756 -0.8665666724975197
13446774 -0.2690655418565761 -0.8658852732695416
13449510 -0.27114457779825735 -0.865132480650645
13452245 -0.27308640568176 -0.864599519119932
13454981 -0.27528202270021573 -0.8638732054909661
13457717 -0.27723839825768476 -0.8633705583084387
13460453 -0.2792105852687918 -0.8627406227248138
13463189 -0.28101676386919705 -0.8618847851750236
13465925 -0.2828086458072826 -0.86124817272206
13468661 -0.28493519900894915 -0.8605028414449156
13471397 -0.28680320402180576 -0.8601570237609958
13474133 -0.2887646247063741 -0.8593272162646719
13476868 -0.2909953539165033 -0.8592093326330467
13479604 -0.2926070167831873 -0.8582482721577231
13482340 -0.2945312572532228 -0.8570059409730243
13485076 -0.2964298182262998 -0.8564364309013887
13487812 -0.2984875629368582 -0.8556974525489658
13490548 -0.30022609869185457 -0.8551328486121922
13493284 -0.3021769229764282 -0.854547365129923
13496020 -0.3041284651418597 -0.8537006285649458
13498756 -0.30623678875178256 -0.8530164494248957
13501492 -0.30815120890306613 -0.852382883296406
13501492 -0.3080604647989299 -0.8530659783509352
13504284 -0.30987281394856514 -0.8516086043662388
13507076 -0.3119393371595269 -0.8510805682511239
13509869 -0.31398616819494507 -0.8500643592493576
13512661 -0.31589361215493034 -0.8495320545283082
13515454 -0.3178317202660546 -0.8488029849124276
13518246 -0.31982430934161066 -0.847957323499469
13521039 -0.3217010030696036 -0.8472704410264026
13523831 -0.3236098958132509 -0.8464188750123152
13526624 -0.32558900497584997 -0.8453827859316057
13529416 -0.3274854215831119 -0.8450004512637961
13532209 -0.32932469484613497 -0.8438745558735945
13535001 -0.33121957608948066 -0.8431557340092185
13537794 -0.3333876022543166 -0.8426302559999864
13540586 -0.33544245146065244 -0.8416356671295951
13543379 -0.337298952606085 -0.8407719352214241
13546171 -0.33932534325171165 -0.8400693430313874
13548963 -0.3411781010596011 -0.83944672244444
13551756 -0.34318982089606176 -0.8383481523277861
13554548 -0.3451019357733915 -0.837491332002991
13557341 -0.34696231144368633 -0.8369946790653772
13560133 -0.34896428822735115 -0.8360380104315694
13562926 -0.35090005264802765 -0.8351485706716187
13565718 -0.35290296633821316 -0.8342689073979366
13568511 -0.35475183012985256 -0.8334269613320711
13571303 -0.35648293247226776 -0.832520191697718
13574096 -0.3584528555138982 -0.8317459583994993
13576888 -0.3606590542130817 -0.8308104023207615
13579681 -0.36235066064886895 -0.8302098445308741
13582473 -0.3642827035234808 -0.8291704106807856
13585266 -0.3661863090747291 -0.8281969166676904
13588058 -0.3681084795198948 -0.8273038255759715
13590851 -0.3699601195283619 -0.8263895224281903
13593643 -0.3718919016767621 -0.8256538455636955
13596435 -0.37390464870996054 -0.8247979604264339
13599228 -0.3758245895833128 -0.823879718226154
13602020 -0.377313303508468 -0.8228682435239122
13604813 -0.37965551796494795 -0.8220048644968407
13607605 -0.3815282511631863 -0.8211923940474766
13610398 -0.3832666716070116 -0.820548178054093
13613190 -0.3851877606633038 -0.8194356921320198
13615983 -0.38690013931685086 -0.818229438006456
13618775 -0.3889187989750033 -0.8177114910096156
13621568 -0.39060397473034664 -0.8168335761378022
13624360 -0.3935278735238819 -0.8150801929656352
13627153 -0.39471965997032055 -0.8147133574441024
13629945 -0.3963889273175524 -0.8139380183203705
13632738 -0.39818499555450576 -0.8128636955764088
13635530 -0.4003582581892912 -0.8120715193591825
13638323 -0.40191418270788476 -0.8107354514725237
13641115 -0.403916624203455 -0.8100664305428854
13643907 -0.40570655178891324 -0.808899341141427
13646700 -0.407670921463746 -0.8080476396816567
13649492 -0.4094773684436903 -0.8070721340651934
13652285 -0.4114791291006653 -0.8061389226897568
13655077 -0.4133041337944627 -0.8052613599290612
13657870 -0.41510306425045096 -0.8040053150889798
13660662 -0.4169425954062852 -0.8033828149751423
13663455 -0.41871925052064923 -0.8021693698785218
13666247 -0.42045710326341207 -0.8009675233300566
13669040 -0.4224666492153595 -0.8002219592432168
13671832 -0.42407074180981574 -0.7993482528984907
13674625 -0.42606274619581475 -0.7981057514788433
13677417 -0.42779117568896924 -0.7971729754266803
13680210 -0.4296417617259021 -0.7960363787317584
13683002 -0.4312512242679891 -0.7951649412106471
13685795 -0.4331423738853645 -0.7940230961683779
13688587 -0.43507251268645913 -0.7929356200277317
13691379 -0.4369117033536685 -0.7919983615227179
13694172 -0.438807788743997 -0.7906776510286941
13696964 -0.4405958562515719 -0.7897515035083663
13699757 -0.44251498554349594 -0.7887105001083379
13702549 -0.44432367258279515 -0.7880351207958731
13705342 -0.44604839109098854 -0.7868973575465245
13708134 -0.4478326575713708 -0.7856745972082736
13710927 -0.44950024384349047 -0.7845419452783227
13713719 -0.451206328377964 -0.7836085509868898
13716512 -0.4532046729051794 -0.7825398011042117
13719304 -0.45503551399189235 -0.781326956830322
13722097 -0.45665843946482415 -0.7803659353177851
13724889 -0.4586140063456159 -0.7793125043775677
13727682 -0.46050899354791935 -0.7777436469441101
13730474 -0.46211080755859324 -0.777090847900669
13733267 -0.46391429256179717 -0.7758342663224191
13736059 -0.46595606658493005 -0.774743768253016
13738851 -0.4675908830582631 -0.7736680085151737
13741644 -0.46925608683246367 -0.7725770739294473
13744436 -0.4712619440928838 -0.7715903030811907
13747229 -0.47288253683883313 -0.7703660676169437
13750021 -0.47470264669905204 -0.769443434858268
13752814 -0.4764072712179887 -0.7679953958817749
13755606 -0.4781859110859527 -0.7672042134162271
13758399 -0.4796637872517201 -0.7657467594819979
13761191 -0.4815832647907124 -0.7647498853760507
13763984 -0.4832652967881578 -0.7637396774685541
13766776 -0.48505542769968774 -0.7625486092714587
13769569 -0.4867578876909108 -0.7614402793436376
13772361 -0.48854459659331745 -0.7600272474466483
13775154 -0.49029772025017776 -0.7588503046374528
13777946 -0.4920831872132351 -0.7577295928205864
13780739 -0.4939889767883765 -0.7566167953286802
13780739 -0.4942026017459313 -0.7568402624154673
13783589 -0.4957417377980717 -0.7556156049568213
13786439 -0.4975558746159039 -0.7543013454810413
13789289 -0.49936690398396544 -0.7531960793398573
13792139 -0.5009770120722302 -0.7520232854731345
13794990 -0.5026982982201365 -0.7508014805297206
13797840 -0.5044044495951078 -0.7494844751550694
13800690 -0.5061363594891144 -0.7483809833947948
13803540 -0.5078130057631074 -0.7471394942744629
13806391 -0.5096810911491416 -0.7461052301601593
13809241 -0.5113658243877411 -0.744357281717125
13812091 -0.5134376004089897 -0.7433661950835282
13814941 -0.5149670803510689 -0.7421935070620106
13817791 -0.5167022327339712 -0.7409730411869974
13820642 -0.5185083651937354 -0.7397707803146121
13823492 -0.5200824069723062 -0.738486811231496
13826342 -0.5218930419670733 -0.7374066368402394
13829192 -0.5236823076111248 -0.7359963131410774
13832043 -0.5251772121258032 -0.7348719764303874
13834893 -0.5269165135702475 -0.7334670279605455
13837743 -0.5286875317009505 -0.7322168591189022
13840593 -0.5304247488899224 -0.7308246909367093
13843444 -0.5319206271982818 -0.7292869219149977
13846294 -0.5336322855900788 -0.7281706566871411
13849144 -0.5356236284140706 -0.727053195039934
13851994 -0.5373632339528079 -0.7255087263811456
13854844 -0.5387853736991726 -0.7245117265047721
13857695 -0.5406584417481672 -0.7233847704824129
13860545 -0.5423471213757952 -0.7222115679094301
13863395 -0.5438146381092624 -0.7205201009435178
13866245 -0.545738738577524 -0.7193148563207622
13869096 -0.547248613506526 -0.7179854512962471
13871946 -0.5490852745470626 -0.7166633807012471
13874796 -0.5505133228842609 -0.7150720510129607
13877646 -0.5525824021413728 -0.7139637973129738
13880497 -0.5539150614927385 -0.7124812329505271
13883347 -0.5555932540029419 -0.7112925827747101
13886197 -0.5574490873488657 -0.7098645947352714
13889047 -0.5590009510276971 -0.7086683636430089
13891897 -0.5606998678071261 -0.7074950765337085
13894748 -0.5621992793402018 -0.7057305472336212
13897598 -0.5639707510455833 -0.7046333785111614
13900448 -0.5655707197186545 -0.7031949924566486
13903298 -0.567154541270433 -0.701791736239073
13906149 -0.5689704207937896 -0.7004784466905248
13908999 -0.5704849797934056 -0.6989870184702576
13911849 -0.57205969050215 -0.6979177981694396
13914699 -0.5738728603451959 -0.6963761110478575
13917550 -0.5753355402430378 -0.6948549169837057
13920400 -0.577004983017924 -0.6935332439388031
13923250 -0.5784843932301357 -0.6922237365386542
13926100 -0.5799382636757695 -0.690755714835813
13928950 -0.5818122496824598 -0.6892910298982659
13931801 -0.5833912601847442 -0.6877829039684433
13934651 -0.5851058500532192 -0.6862713108137314
13937501 -0.5866588003630222 -0.6851677808378811
13940351 -0.5881531724136577 -0.6838375451131334
13943202 -0.5897541087269804 -0.6825026507548703
13946052 -0.5913596551351022 -0.6809687830869761
13948902 -0.5928326312026788 -0.6795713362735522
13951752 -0.5943576636797439 -0.6779301192003883
13954603 -0.5959572180452664 -0.6765723691003317
13957453 -0.5975130131674318 -0.675219189388955
13960303 -0.5990761114211418 -0.6736450897866412
13963153 -0.6007739550526535 -0.6721516326771
13966003 -0.6023240513243131 -0.670983385738102
13968854 -0.6037345757960241 -0.6694963657559735
13971704 -0.6053461396493011 -0.6678048292239678
13974554 -0.6066492470161764 -0.6663344590126327
13977404 -0.6081566258055437 -0.6648416823641178
13980255 -0.6099991843165321 -0.6634600808108551
13983105 -0.6114716325591167 -0.6620621652640701
13985955 -0.6130506798305264 -0.6605024670913633
13988805 -0.6147289572200595 -0.6592732847462835
13991656 -0.6162591290192431 -0.6576756122202678
13994506 -0.617726289994327 -0.6564511687389905
13997356 -0.6191661718111047 -0.6548720925676348
14000206 -0.6208139790932815 -0.6532858778604235
14003056 -0.6221866978530916 -0.6517581647465971
14005907 -0.6235148533000645 -0.6502937928198351
14008757 -0.6250504051858125 -0.6487564310930791
14011607 -0.6267027826917383 -0.6471557544965925
14014457 -0.6282367337418248 -0.6457813615560072
14017308 -0.6297799143659939 -0.6442895406833253
14020158 -0.631272884361889 -0.6427998564967791
14023008 -0.6325387352976103 -0.6413029349350682
14025858 -0.6339786614504963 -0.6398694258631503
14028709 -0.6356524132849409 -0.6381649498185161
14031559 -0.6371373392685014 -0.6366306016522504
14034409 -0.6385381211651253 -0.6352167818477024
14037259 -0.640005966051538 -0.6336874817859541
14040109 -0.641427663370625 -0.631963413841621
14042960 -0.6430713077498774 -0.6305230713114077
14045810 -0.6443722985540004 -0.6288042040019399
14048660 -0.6459901102208833 -0.6275236317774481
14051510 -0.6472959645671619 -0.6258836625689629
14054361 -0.6485984084091998 -0.6243387303842599
14057211 -0.650464756156609 -0.6230035371475835
14060061 -0.6516685754866989 -0.6213730790317098
14062911 -0.6530518352574849 -0.6197296923551322
14065762 -0.6549153668095359 -0.6184061695267765
14065762 -0.6547810191059343 -0.6179767108381065
14068671 -0.6562095498268335 -0.6164238770211787
14071580 -0.6575978071327013 -0.614976406507339
14074489 -0.6589789165945987 -0.6134175889435282
14077398 -0.6603988066941098 -0.611645030862142
14080307 -0.6617298143542407 -0.6101592204376469
14083217 -0.663100880436203 -0.6085533031433576
14086126 -0.6647287135434882 -0.6069099021079182
14089035 -0.6660718254783361 -0.6051334358506923
14091944 -0.6674861424884849 -0.6036753975480933
14094853 -0.6687685854312827 -0.6019716238604922
14097762 -0.6703724924264928 -0.6002960074052026
14100672 -0.6718437117779347 -0.5985742738791384
14103581 -0.6732369170761203 -0.5970818971647974
14106490 -0.674797137998315 -0.5953779423880237
14109399 -0.6761211704210675 -0.5938486848842315
14112308 -0.6774437701058345 -0.5924822116489545
14115218 -0.6787825202621601 -0.5906648679703638
14118127 -0.6803409388531159 -0.5889315649587844
14121036 -0.6816594831180616 -0.5871184313572168
14123945 -0.68292086473119 -0.585267706791408
14126854 -0.6844592758193941 -0.583868190133998
14129763 -0.6857583217777247 -0.5824019624192199
14132673 -0.6869231480526158 -0.5807130064723892
14135582 -0.6884139687553379 -0.5789011495424334
14138491 -0.689896588050822 -0.577317447102661
14141400 -0.6911593096943223 -0.5754099509626208
14144309 -0.6927033694270918 -0.5736807311112295
14147219 -0.6941170389215219 -0.5722118268669253
14150128 -0.6953152116624801 -0.5706321722597729
14153037 -0.6964202728985028 -0.568849866245451
14155946 -0.6977569845809257 -0.5669394716373146
14158855 -0.6993255722480707 -0.5653290488940014
14161764 -0.7006124904202815 -0.5636183960707511
14164674 -0.7020827671987615 -0.5616337838123994
14167583 -0.7034386892139967 -0.5603089776240066
14170492 -0.7044583124429187 -0.5587269837308128
14173401 -0.7058987039709576 -0.5567588800787204
14176310 -0.7072237371844055 -0.5551537688818932
14179220 -0.708255923797667 -0.5534853824767276
14182129 -0.7098025519315547 -0.5516307761524754
14185038 -0.7111786124368585 -0.5498096681723659
14187947 -0.7124873531691764 -0.5483889311726359
14190856 -0.7135463245410555 -0.5465953214310958
14193765 -0.7147912676678491 -0.5446936130928601
14196675 -0.7160557222870518 -0.5430351288076339
14199584 -0.7172706838522114 -0.5411679556555079
14202493 -0.7184122889385282 -0.5390574229487846
14205402 -0.7199350066888434 -0.537488768996458
14208311 -0.7212859605115982 -0.5360324360080085
14211221 -0.7225135052902579 -0.5342491158265418
14214130 -0.7239908609594148 -0.5323710288575724
14217039 -0.7250672851865678 -0.5307152676042328
14219948 -0.7260645292444752 -0.5290117494158671
14222857 -0.7275242776237265 -0.5269922451853964
14225766 -0.728753476183696 -0.5252170802826378
14228676 -0.7300775608593254 -0.5238696201238301
14231585 -0.7311881546900161 -0.5217396720536095
14234494 -0.7322418238406491 -0.5201974923896359
14237403 -0.7334928317526702 -0.5183700921187472
14240312 -0.7346915677720568 -0.5165152748574791
14243221 -0.7361009791164596 -0.5146596741756166
14246131 -0.7374255793099947 -0.5129756831458172
14249040 -0.7384029590002593 -0.5111681592224108
14251949 -0.7396737339208156 -0.5091507389089092
14254858 -0.7408292156777616 -0.5076279219965851
14257767 -0.7419502987068904 -0.5057166384664015
14260677 -0.7431468616518718 -0.5035448059968973
14263586 -0.7444575001500597 -0.5021474007276364
14266495 -0.7457080965568369 -0.5003887054890386
14269404 -0.7468143446324289 -0.49877186103510573
14272313 -0.7479118006879478 -0.49674979218000254
14275222 -0.7489807180221412 -0.4950864888933855
14278132 -0.7499645249071248 -0.4930547961149704
14281041 -0.7513361708305293 -0.4909892241488358
14283950 -0.7523572870318892 -0.48951706107514026
14286859 -0.7538283864802907 -0.4878466764571134
14289768 -0.7547942877441406 -0.4856687890468747
14292678 -0.7557477182286028 -0.48391008554594905
14295587 -0.7568045509347661 -0.48207227348953563
14298496 -0.7580134675172824 -0.48021797769632707
14301405 -0.7593970972187759 -0.47824566199912705
14304314 -0.7606037730539829 -0.4765710026381456
14307223 -0.7616244497542476 -0.4749392206849372
14310133 -0.7625378133144322 -0.4729369341339565
14313042 -0.7636532785726027 -0.4710793650042894
14315951 -0.7648953363952066 -0.4691140414386591
14318860 -0.7659708191056972 -0.4672048135016419
14321769 -0.7670330930403474 -0.46520156859244216
14324679 -0.7680375279144294 -0.4637452302713726
14327588 -0.7691415132898359 -0.46164345470653995
14330497 -0.7702572302041079 -0.4598161725638783
14333406 -0.7712322821266657 -0.4580053130947768
14336315 -0.7722012097153073 -0.4562365071137784
14339224 -0.7733418268239157 -0.45398105334001754
14342134 -0.7744823099259077 -0.4524292510583711
14345043 -0.7755326434797035 -0.4506002184559368
14347952 -0.7766156323637968 -0.4484434137627393
14350861 -0.777824371216435 -0.4467930051212068
14353770 -0.7786727383252904 -0.4450542644972947
14356680 -0.7797415338105315 -0.44304591860617065
14356680 -0.7799762080857013 -0.442877586580189
14359649 -0.7808306482834108 -0.4411572119295425
14362618 -0.7816009516762884 -0.4392722732053792
14365588 -0.7827334993785835 -0.43707980839158106
14368557 -0.7838882246037139 -0.4353146548567732
14371526 -0.7847922932089914 -0.43351891649136015
14374496 -0.7858288688255501 -0.4313166927514404
14377465 -0.7870082205286767 -0.4291016659900699
14380434 -0.7881436227673949 -0.4274175399562477
14383404 -0.7890275540753676 -0.42550932207356407
14386373 -0.789890552589958 -0.42349614289231274
14389342 -0.7909583360652084 -0.42173808170367155
14392312 -0.7917312640577516 -0.419585684821733
14395281 -0.7929933814176945 -0.4174849285260758
14398250 -0.7939325245981701 -0.415711076230842
14401220 -0.7949199328152821 -0.41384285425660206
14404189 -0.7956951149995349 -0.41205086805267016
14407158 -0.7968094824108078 -0.4096568709813742
14410128 -0.7978244420905658 -0.4077583990725975
14413097 -0.798698925252254 -0.40582862980929835
14416067 -0.7997034700450526 -0.4037649082710283
14419036 -0.8007042690188622 -0.40206585550459056
14422005 -0.8016032974778063 -0.40021779478679004
14424975 -0.8026556370939797 -0.3979476630637582
14427944 -0.8037088288984039 -0.3960672896425533
14430913 -0.804429602232012 -0.3941238042227091
14433883 -0.8054105795635131 -0.3921725746087292
14436852 -0.8061266083260012 -0.3899445265717554
14439821 -0.8070898696491345 -0.3878332327201374
14442791 -0.8082337329647232 -0.38611872936007285
14445760 -0.8087916713406371 -0.3837495308609863
14448729 -0.8100378519314646 -0.38217423527149325
14451699 -0.8107995910430271 -0.3802570734499858
14454668 -0.8115200063716875 -0.3779159275891285
14457637 -0.812692554162645 -0.37600837654786035
14460607 -0.8136709879695727 -0.3741483628130931
14463576 -0.8144650992503352 -0.37215816246070926
14466545 -0.8153086254682863 -0.3702075015323235
14469515 -0.8160558483590372 -0.3681012765370032
14472484 -0.8168751739172322 -0.3660523166386958
14475454 -0.8176275422693022 -0.36395426442844986
14478423 -0.8186749057478332 -0.362034892079497
14481392 -0.819623963107353 -0.36009994751155094
14484362 -0.8202537352676988 -0.35794625960940984
14487331 -0.8211092048616979 -0.35595149080263894
14490300 -0.8220736056048696 -0.35387312974634855
14493270 -0.8229075339488535 -0.35184306943810506
14496239 -0.823599107383513 -0.3499252308570273
14499208 -0.8243777534436613 -0.3478219317800949
14502178 -0.8253476905487733 -0.34586131054293484
14505147 -0.826101224886321 -0.34355966169884433
14508116 -0.8264576590128674 -0.3418146181448053
14511086 -0.8277772586347457 -0.33997696811271627
14514055 -0.8284595746488035 -0.337644341140704
14517024 -0.8292609217867851 -0.33572022765435433
14519994 -0.8301108112612605 -0.33362835330405693
14522963 -0.8309184688469389 -0.33154847689080186
14525932 -0.8317561212248643 -0.32950930309189563
14528902 -0.832322893876351 -0.3274196088258681
14531871 -0.8331424113983296 -0.3254695823083004
14534841 -0.8338390445004964 -0.32312265258696904
14537810 -0.8348526620987201 -0.32154005376537725
14540779 -0.8354333679086605 -0.3194280143514168
14543749 -0.8358838150873125 -0.317167297989055
14546718 -0.836811540242847 -0.3150921519841672
14549687 -0.8376059753351924 -0.3128964217036297
14552657 -0.8383868807606859 -0.311056002970162
14555626 -0.8390033172248639 -0.3088526636504673
14558595 -0.839556074838205 -0.3068560562836252
14561565 -0.8405624316573812 -0.30493915632087376
14564534 -0.84114648647365 -0.3025059239035215
14567503 -0.8420722158121664 -0.300696920407172
14570473 -0.8426666259133243 -0.2987825380806145
14573442 -0.8430260469967606 -0.29648847937478806
14576411 -0.8439165783100973 -0.29436993172305753
14579381 -0.8445981682023913 -0.2923977929358515
14582350 -0.845367414537018 -0.2903701536733712
14585319 -0.845860165668362 -0.2883168221022718
14588289 -0.8466455855744695 -0.28632084268464225
14591258 -0.8471917779591227 -0.28420115222545417
14594228 -0.8477146619930639 -0.28169544168178495
14597197 -0.848630713049678 -0.2797848556283599
14600166 -0.8493064649143641 -0.27773762835210003
14603136 -0.8498124754760232 -0.27558046789110824
14606105 -0.8504917850447706 -0.273685330373562
14609074 -0.8510743750919397 -0.271579587477279
14612044 -0.8516939749062846 -0.269617598368539
14615013 -0.8523354310563351 -0.2672579655932717
14617982 -0.8529417511511809 -0.2651811070502651
14620952 -0.8536129790456971 -0.26327319376844255
14623921 -0.8541476274221138 -0.26102610679752974
14626890 -0.8547948674056574 -0.2589681347866774
14629860 -0.8555994700212741 -0.25701046443766823
14632829 -0.8560640978555305 -0.2547980410848143
14635798 -0.8565888254465185 -0.2527378608379452
14638768 -0.8571001448419201 -0.25083054798536325
14641737 -0.8577318933533882 -0.24851066622715823
14644706 -0.8582334903010455 -0.24628361721949532
14647676 -0.8587507208181138 -0.24418323444290202
14650645 -0.8594770226525953 -0.24219561048753327
14653615 -0.8596084011419484 -0.24007468696024797
14653615 -0.8591632448458343 -0.24028652690960878
14656645 -0.8602132165636011 -0.23775666511348598
14659676 -0.86094815616418 -0.23550374538754648
14662707 -0.8616708425472184 -0.2336943270637453
14665738 -0.862016703428494 -0.23136735929930094
14668768 -0.8625061572863135 -0.22921426369550094
14671799 -0.8631069186754945 -0.22718318216177147
14674830 -0.8635057227145679 -0.22508291893640328
14677861 -0.8640652007500216 -0.22290974346794568
14680891 -0.8647592666161148 -0.22075647994969239
14683922 -0.86521664288386 -0.2183274673382227
14686953 -0.865653414897281 -0.2162555418592504
14689984 -0.8661057254050202 -0.21434133227023452
14693015 -0.8664618942093245 -0.212081108239225
14696045 -0.8670101718387889 -0.20976917609980777
14699076 -0.8676300675259997 -0.20760689136052043
14702107 -0.8679909752654665 -0.20557852049135802
14705138 -0.868150809302236 -0.20328789065028596
14708168 -0.8689805858035351 -0.20099612716654347
14711199 -0.86960577945853 -0.1989395087591
14714230 -0.8698754429429529 -0.19680053084943566
14717261 -0.8704014250482542 -0.19474711704561162
14720291 -0.8708222810739652 -0.19235207912402275
14723322 -0.8713216822958321 -0.19034118073071624
14726353 -0.8715212054203498 -0.18800203064504348
14729384 -0.8721931136534948 -0.18596909381558266
14732415 -0.8725941056802599 -0.1836149786759018
14735445 -0.872711004985306 -0.18136377046042768
14738476 -0.8732041678854544 -0.17941353832819484
14741507 -0.873878069238502 -0.17728245705283205
14744538 -0.8741099768289603 -0.17504642955163635
14747568 -0.8746746682049279 -0.17271122050003676
14750599 -0.8748977330355181 -0.17059844309144703
14753630 -0.8754560306284912 -0.16842408292113778
14756661 -0.8754741580720007 -0.1662955665341608
14759691 -0.8760697703359164 -0.16414582536153058
14762722 -0.8765486923840418 -0.16192451532274946
14765753 -0.8766797482596417 -0.1598622426376504
14768784 -0.877031723526878 -0.15744584439980516
14771815 -0.8773721671659448 -0.15538870348883557
14774845 -0.8778918083524976 -0.15311478959090272
14777876 -0.8779564249035339 -0.15090821400966223
14780907 -0.8782892660223535 -0.1487028494408927
14783938 -0.8786418604215921 -0.1466934728887713
14786968 -0.8790185900976955 -0.14426404894787048
14789999 -0.8793157010793244 -0.14225660974775228
14793030 -0.8798696514664311 -0.1401576331259824
14796061 -0.8797427372240794 -0.1378156486374637
14799091 -0.8803000630646982 -0.13554906574135483
14802122 -0.8807183166078775 -0.13349884110755292
14805153 -0.8803825116320374 -0.13105903231273755
14808184 -0.8810478022442162 -0.12905421313656237
14811215 -0.8813075691230298 -0.1266779144253049
14814245 -0.8819167416295047 -0.12452499395957552
14817276 -0.8820355375785619 -0.12240021760202516
14820307 -0.8821851962806694 -0.1203352495725832
14823338 -0.8826214395825316 -0.11804874745499994
14826368 -0.8826247720740426 -0.11575130731476285
14829399 -0.8828805553802856 -0.11382121161878911
14832430 -0.8831363605188217 -0.11132472289588041
14835461 -0.8832059194528723 -0.10909503034337496
14838491 -0.8836441221862501 -0.10686326071129543
14841522 -0.8839234923221416 -0.10472956440058923
14844553 -0.8841252089248365 -0.10266760560490464
14847584 -0.8842785194413438 -0.10050972598354375
14850615 -0.8843454143416627 -0.0981478983418453
14853645 -0.8847642028157251 -0.09612017096963904
14856676 -0.8849475466220466 -0.09391978919337357
14859707 -0.88490630832834 -0.09158525306817558
14862738 -0.8851519808499617 -0.08942981026970395
14865768 -0.8852573054054158 -0.08705433105164835
14868799 -0.8855017752950903 -0.08496866233194204
14871830 -0.8858001577445321 -0.08283419087989757
14874861 -0.8860340280692484 -0.08066066641011134
14877891 -0.8862275286965685 -0.07842647246712442
14880922 -0.8860364849825809 -0.07616908091567548
14883953 -0.8863858659247457 -0.07417288218945185
14886984 -0.8860296203449971 -0.07178532524781825
14890015 -0.8866381293083411 -0.0694178466926025
14893045 -0.8869083024852366 -0.06723281091064293
14896076 -0.8868813764490412 -0.06516360206105437
14899107 -0.8867528307037583 -0.06310818039094038
14902138 -0.8870532115436351 -0.06089224425409439
14905168 -0.8873730661734927 -0.058522285820573776
14908199 -0.887367101525347 -0.05638866521019196
14911230 -0.8874463189454888 -0.05418388062424769
14914261 -0.8874565709448697 -0.05210993633842389
14917291 -0.8876613442817249 -0.04968438178770458
14920322 -0.8880935915893936 -0.04747369379224806
14923353 -0.8880741482381863 -0.04557836121827442
14926384 -0.8880435977554562 -0.043256696356953894
14929415 -0.8878314051147898 -0.04083354206409486
14932445 -0.8881202363739327 -0.03866431919179291
14935476 -0.8881547824048389 -0.03667240096072921
14938507 -0.8881677837695556 -0.03430917001049858
14941538 -0.8880447971563422 -0.0320779139238405
14944568 -0.888478424659934 -0.029801952343907995
14947599 -0.8883120914225078 -0.02786387120192061
14950630 -0.8879478188726617 -0.025433376903775194
14953661 -0.8882612234375579 -0.02328381489361164
14956692 -0.8881434467261913 -0.021069994490405704
14956692 -0.8882171981162499 -0.021411971802444606
14959785 -0.8881348464296899 -0.019077181084518943
14962878 -0.8881580344717632 -0.016367133699386846
14965972 -0.8884514759198782 -0.014175727693365935
14969065 -0.8882617343362256 -0.012307232538088988
14972159 -0.8880099515047525 -0.009957210809421652
14975252 -0.8883167027009506 -0.007592106508086306
14978346 -0.8884348774561897 -0.005409238398759807
14981439 -0.8881876936241075 -0.0032103592529668817
14984533 -0.8881001049730393 -0.0007813976688248854
14987626 -0.8884168439736024 0.0012265218987906063
14990719 -0.8880388266431726 0.0035257928586372215
14993813 -0.8878138525932914 0.005699346276001009
14996906 -0.8879308286469939 0.008116997142178822
15000000 -0.8877755068026119 0.010389339483171035
15003093 -0.8877108188134235 0.012520737336873257
15006187 -0.8878745276665295 0.014893183242623054
15009280 -0.8877961119145075 0.017238365501970748
15012374 -0.8875585483171613 0.01921674807272578
15015467 -0.8874145374997856 0.021634628718985787
15018561 -0.887502453697586 0.023930078974507392
15021654 -0.8873820774886544 0.025899861166686914
15024747 -0.8870479295397735 0.028268375997717962
15027841 -0.8870392947368241 0.030598384760913925
15030934 -0.8869329351972606 0.03268646208299966
15034028 -0.8868190755612095 0.03482534627192721
15037121 -0.8868230573708988 0.03717438355782485
15040215 -0.8866506440369183 0.03958611956242709
15043308 -0.886486781860436 0.041760142758422734
15046402 -0.8862557151615752 0.04394978226204924
15049495 -0.8861314423279092 0.0461648652104822
15052588 -0.8859924108072187 0.04849303742824475
15055682 -0.8857529778774427 0.0506179676489231
15058775 -0.8857112954118248 0.0528869943005814
15061869 -0.8853557215098915 0.055168292464026145
15064962 -0.885398790870874 0.057377032856467204
15068056 -0.8852114032646311 0.05963435939718237
15071149 -0.8848600918147699 0.06198538020335015
15074243 -0.8848470955998929 0.0642419887167323
15077336 -0.8843286334384579 0.06630723475436476
15080430 -0.8844077264068734 0.06848524261676119
15083523 -0.8840229972823456 0.0706871952943027
15086616 -0.8838004545543628 0.07304596112209465
15089710 -0.8836950665149769 0.07515477789399977
15092803 -0.883366317554744 0.07735680527770326
15095897 -0.8830855832681762 0.07971798852171269
15098990 -0.8828985874505423 0.08203767927117261
15102084 -0.8827122241651736 0.08415501197360538
15105177 -0.8823920714639641 0.08628437920480983
15108271 -0.8822888736692549 0.08864882742558675
15111364 -0.8819488125481347 0.09059345214641647
15114457 -0.881405441955994 0.09305673198999584
15117551 -0.8811398806314034 0.095189599449862
15120644 -0.8811065153494639 0.09749797105645204
15123738 -0.8807766311713492 0.09953878010686631
15126831 -0.8805118977719395 0.10197631788014487
15129925 -0.8803392502215195 0.1041034685045241
15133018 -0.8801156127058182 0.10633643657031445
15136112 -0.8796794184781999 0.10855796942506274
15139205 -0.8791924742260718 0.11080917563634017
15142299 -0.8791885819550708 0.11313776884926059
15145392 -0.8788050978385887 0.1152144558496835
15148485 -0.8781461227686604 0.1172392406240188
15151579 -0.8781824738024946 0.11969478733550122
15154672 -0.8777575353331951 0.12179492073185424
15157766 -0.8772926684325107 0.12392969106752176
15160859 -0.8768133580830388 0.12628862715899278
15163953 -0.8766650124949446 0.12857566747828364
15167046 -0.8760865390557262 0.13082589040706355
15170140 -0.8757944932552153 0.13264184509811702
15173233 -0.87528389379563 0.13497107282601137
15176326 -0.8751228390968537 0.137442964655612
15179420 -0.8747082973090674 0.13942090293334775
15182513 -0.8744198084598674 0.14161930601205383
15185607 -0.8739636371457609 0.14402183657958129
15188700 -0.8734630650703414 0.14615471191351417
15191794 -0.8730161768898977 0.14805595829689586
15194887 -0.872622965139038 0.15054812317887353
15197981 -0.8722040865190855 0.15267922935147124
15201074 -0.8717046771503377 0.15475950769482025
15204168 -0.8712505645798483 0.1571456643605539
15207261 -0.871126740651428 0.15926435543998774
15210354 -0.8706184576832631 0.16141023318135264
15213448 -0.8701420407381717 0.1635633984581597
15216541 -0.8695492119672746 0.16586991592235223
15219635 -0.8691751951328835 0.16774317710319075
15222728 -0.8687898882687349 0.17003694923796575
15225822 -0.8682572398834821 0.17248993937488968
15228915 -0.8677096480375472 0.17478715135483397
15232009 -0.8674271149446475 0.17658365236102505
15235102 -0.8669635135051462 0.17881728062149843
15238195 -0.8664656124041534 0.1812402817675731
15241289 -0.8659645545640303 0.18319361911726825
15244382 -0.8655889197058452 0.18525898138190244
15247476 -0.864644335622564 0.18778651665554835
15250569 -0.8641571954625304 0.189750177433184
15253663 -0.8639448772651892 0.19190549193819015
15256756 -0.8631956529418289 0.19404554521036693
15259850 -0.862626964566711 0.19642091917699298
15262943 -0.8622123195511292 0.19831168375211783
15266037 -0.8617934578440707 0.20043559079837944
15266037 -0.8619604611774253 0.1998789215329594
15269194 -0.8610515579569498 0.202467482086218
15272351 -0.8602122713852284 0.2050491980093837
15275509 -0.8599052691668216 0.2073442393385488
15278666 -0.8594465530849266 0.20919009458541377
15281824 -0.8589266741142523 0.21149144340819412
15284981 -0.8581019016607142 0.2138536741876567
15288139 -0.8576390851919329 0.21591458530555807
15291296 -0.8569332825405432 0.2181667147058461
15294453 -0.8561189879255893 0.22055737580021254
15297611 -0.8558655780838897 0.22243324932739322
15300768 -0.8552911306754362 0.22480957411273886
15303926 -0.8547390513573653 0.22715232595832635
15307083 -0.8539511652671893 0.2289898930098556
15310241 -0.8534559245940768 0.23125731722748583
15313398 -0.8528955848655921 0.23339447448436326
15316555 -0.8519819138022766 0.23571518212195375
15319713 -0.8514547569288942 0.23782514995551748
15322870 -0.8510922498526583 0.24025038320958828
15326028 -0.8499641742362584 0.24218220760754144
15329185 -0.849438075614344 0.24420726780120752
15332343 -0.8487174824550456 0.24663721162807747
15335500 -0.8481851756013359 0.24904923938652412
15338657 -0.8473325638488882 0.2507787130323892
15341815 -0.8466646869997493 0.2530566334936484
15344972 -0.8461852906184291 0.25525148850907486
15348130 -0.8451819953991655 0.2574278844340641
15351287 -0.8445039824885539 0.2594284907104244
15354445 -0.8442142450368451 0.26171500966467276
15357602 -0.8432146902015496 0.2638379904490665
15360759 -0.8426334627123191 0.2659521459738925
15363917 -0.8419600305518058 0.2681143863635021
15367074 -0.8410662791269324 0.2704078300412748
15370232 -0.8401952154852625 0.2723576899464259
15373389 -0.839489088129407 0.27431698986204067
15376547 -0.8390984148155448 0.2764531660303852
15379704 -0.8377842930635945 0.2790031907362141
15382861 -0.8376247197069245 0.2809041492491247
15386019 -0.8367974810906962 0.2830661223422173
15389176 -0.8357394590815268 0.28525415244059577
15392334 -0.8352514857580847 0.2873896155833658
15395491 -0.8343136788109445 0.2895530483706071
15398649 -0.8331546598636693 0.29172263960323325
15401806 -0.832620075200624 0.2937367401856082
15404963 -0.8319467690277117 0.29583068756059056
15408121 -0.8312415210248049 0.298030414823123
15411278 -0.8300318160815295 0.3002813980903016
15414436 -0.8296659515351301 0.30216488147823006
15417593 -0.828785437048179 0.3044940352625429
15420751 -0.8278048927298456 0.30641206959488165
15423908 -0.8272757969704363 0.30842731661575246
15427065 -0.8262272838612769 0.31057209110957495
15430223 -0.8252304894999565 0.31294824818496025
15433380 -0.8247444160690949 0.3149002881619797
15436538 -0.8237080099594092 0.31700075978957215
15439695 -0.8230538318820908 0.3190496751426921
15442853 -0.821870465865887 0.32117053855507205
15446010 -0.8211148733300603 0.32300821222319154
15449167 -0.8205663956859268 0.32546731856828776
15452325 -0.819435306308972 0.32753671632891546
15455482 -0.8185783943501328 0.3294507950849967
15458640 -0.8179065554780744 0.331835554003161
15461797 -0.8167724499037182 0.33378657580809523
15464955 -0.8159496250639717 0.3357148155336114
15468112 -0.8150544761690441 0.33774389275516525
15471269 -0.8141992933340926 0.34000591626168203
15474427 -0.8130568098837812 0.3419159159186918
15477584 -0.8124594507211857 0.34411235853501637
15480742 -0.8115157166625817 0.346209024731131
15483899 -0.8102094202206469 0.3482035089302742
15487057 -0.8095481184831421 0.35023517796527487
15490214 -0.8087696119320205 0.352444816276577
15493371 -0.807364585315239 0.3545430000563828
15496529 -0.8065546960183363 0.35649344618975504
15499686 -0.8056566601728877 0.3582604235013809
15502844 -0.8050598853876416 0.3606883056787096
15506001 -0.8036421409770269 0.36260551735057095
15509159 -0.8030254218510513 0.3646571502315339
15512316 -0.8021407302680621 0.3668643497918795
15515473 -0.8005358244346991 0.36871757999066695
15518631 -0.8000687231051606 0.370742102574798
15521788 -0.7989649286147315 0.37304330011531667
15524946 -0.7978553597231427 0.37499144114556915
15528103 -0.7970174080318065 0.37692073309516155
15531261 -0.7961361074744259 0.3789056439732572
15534418 -0.7952655337695956 0.38100136110095484
15537575 -0.7937508886682302 0.3829067370821227
15540733 -0.7931606221398049 0.3850404119260206
15543890 -0.7920818451788437 0.3872400868321994
15547048 -0.7907243431236936 0.38885417975861697
15550205 -0.7898705783277022 0.39085738856168994
15553363 -0.7889245342173221 0.3931578829642837
15556520 -0.787607458719198 0.39509062677378415
15559677 -0.7866936421184381 0.39706233925152634
15562835 -0.7860429084775699 0.39920257750010185
15565992 -0.7851968488947482 0.401294238975083
15569150 -0.7832558020920563 0.40291609174500975
15572307 -0.782605875206589 0.4050136352580474
15575465 -0.781796300065656 0.407049476654
15578622 -0.7801887291961587 0.40891488414306715
15581780 -0.7793307876945589 0.41097349547564127
15581780 -0.778983051555641 0.41121719429646464
15585002 -0.7784354703005762 0.4131703923081136
15588225 -0.7771449945040776 0.4151648996857401
15591448 -0.7758110984785959 0.4169378873813624
15594670 -0.7748955412469348 0.41890850917094136
15597893 -0.7737769647443289 0.4213012593131119
15601116 -0.7726085943545961 0.42294140570704897
15604339 -0.771688142977115 0.42513216000199405
15607561 -0.7703633640634506 0.4273032827334556
15610784 -0.7688568507666561 0.42895263815213364
15614007 -0.7681674755482576 0.43105997468629725
15617230 -0.7668978768408863 0.43309507352744536
15620452 -0.7660044914206191 0.43533472391463784
15623675 -0.7643214008208449 0.4370648015277294
15626898 -0.7636275777654516 0.4389727570983099
15630120 -0.7620224082473639 0.44129625390616234
15633343 -0.7608932623342851 0.44278726135412944
15636566 -0.760026815841261 0.4449552645332851
15639789 -0.758768568585389 0.4472382145339735
15643011 -0.7573225187321401 0.448770263445924
15646234 -0.7559674203803187 0.4506716373099906
15649457 -0.7550089033310676 0.45294166493958715
15652680 -0.753885305884153 0.455155429497038
15655902 -0.7523836657224272 0.4563266075345263
15659125 -0.7513586221096328 0.45884974124640554
15662348 -0.750228568224168 0.46067958838234135
15665570 -0.7487234954715324 0.4622672464321308
15668793 -0.7478022755970222 0.4645503019124879
15672016 -0.7464687455784688 0.46658121784230644
15675239 -0.7447834112459656 0.46813228350622665
15678461 -0.7440650863487972 0.4704821302054099
15681684 -0.742719678116076 0.4723694225581947
15684907 -0.741504909555069 0.474484621948169
15688130 -0.7398844402983472 0.4763967295684366
15691352 -0.7391298722748525 0.4780838876535811
15694575 -0.7376413155490773 0.4803098374031272
15697798 -0.7363610717408271 0.4816410910832846
15701021 -0.7351875064659995 0.48379440774608784
15704243 -0.7337414996950454 0.48594060543297096
15707466 -0.732404978009143 0.48748526912193
15710689 -0.7311437076530133 0.4893503404730877
15713911 -0.7300790816421106 0.49165338301117717
15717134 -0.728644842478901 0.4934884711148042
15720357 -0.7270568186851186 0.49489298013667476
15723580 -0.7261173571172033 0.4972705333004898
15726802 -0.7246063745455751 0.4993490528109987
15730025 -0.7234475031713251 0.5005605041352046
15733248 -0.7219868211697962 0.5028541045684576
15736471 -0.7202849575264441 0.5046443366726233
15739693 -0.7189911234622023 0.5061204805733585
15742916 -0.7180220626898195 0.5083567167563059
15746139 -0.7163760415452964 0.5102048593262837
15749361 -0.7152462379882717 0.5124866856257827
15752584 -0.7137227969640862 0.513572014842696
15755807 -0.7127037727121203 0.5158250456778964
15759030 -0.7111497208579901 0.5177896879804259
15762252 -0.7097848962321278 0.5193222572880699
15765475 -0.7082686683883669 0.5211395005671706
15768698 -0.7066935840074065 0.5232152018781598
15771921 -0.705389988844899 0.524646488499652
15775143 -0.7042453408939633 0.5267922797691662
15778366 -0.7026474561321578 0.5287383571330699
15781589 -0.7012999613886576 0.5305051383639051
15784811 -0.7000399665445955 0.5318495799091846
15788034 -0.6985643516210644 0.5342189546351652
15791257 -0.6971137815622268 0.5360008169532732
15794480 -0.696024507782775 0.5374411992109135
15797702 -0.6944843458685737 0.539550143103313
15800925 -0.6928405225662339 0.5415305351326247
15804148 -0.6914343978861743 0.5426302844672153
15807371 -0.6898968402472672 0.5447870518713064
15810593 -0.6884761040010339 0.5467914483492573
15813816 -0.6870637885254357 0.5489997838220109
15817039 -0.6857674281814753 0.5499842955469291
15820262 -0.684417276864202 0.5519043843656605
15823484 -0.6825093055293556 0.5539961643747867
15826707 -0.6813491698193582 0.5550703555549331
15829930 -0.6798430977194603 0.5571868478437002
15833152 -0.6780700297589932 0.559237650722258
15836375 -0.6766866047455617 0.5603771272230533
15839598 -0.6752836909369082 0.5624634146561076
15842821 -0.6740046491310814 0.564205374957498
15846043 -0.6720899424156711 0.566126424981366
15849266 -0.6708228149261631 0.567607029704194
15852489 -0.6693393453132115 0.5695514272886031
15855712 -0.6675495238141824 0.5712839856587236
15858934 -0.6664628017873172 0.5726441848996866
15862157 -0.6647787235859184 0.5745826836064201
15865380 -0.663084081670715 0.5766487136262961
15868602 -0.6619568065890687 0.5775584097331533
15871825 -0.6601514279200625 0.579542967189564
15875048 -0.658509859548488 0.5813874148532234
15878271 -0.6572900130684198 0.5835161328550305
15881493 -0.6557960045651867 0.5842942074033791
15884716 -0.6542540494507726 0.5865195109299589
15887939 -0.6523268040492537 0.5884263130063762
15891162 -0.6513887331669115 0.5896633732055202
15894384 -0.6497880214652165 0.5918398946820376
15897607 -0.6474594059191036 0.593562518943754
15900830 -0.6464507385408793 0.5949260739196245
15904053 -0.6448051801464113 0.5965486871728729
15904053 -0.6451205906003796 0.5962306353006749
15907342 -0.6428510754208703 0.5980482607700667
15910631 -0.6414764925692881 0.6003531820771569
15913921 -0.6401363094248766 0.6014151146246767
15917210 -0.6383075259026988 0.6033514762371486
15920499 -0.6362870967463186 0.6054807580847341
15923789 -0.6351941762719585 0.6067345051791329
15927078 -0.6336034679692438 0.608542907763902
15930368 -0.6316102261936187 0.6101666548210029
15933657 -0.6302553590219054 0.6114650812338384
15936946 -0.6285365941039567 0.6134517703024023
15940236 -0.6267424674443545 0.615053462927431
15943525 -0.62514781431097 0.6167620718352022
15946815 -0.6237252993277642 0.6182563861152016
15950104 -0.6218922038590903 0.6201714179110255
15953393 -0.6200964196495328 0.6216884762729616
15956683 -0.6187819918363681 0.623157872040367
15959972 -0.6169099482649856 0.6249660269052864
15963262 -0.6148861617664515 0.6266292759065631
15966551 -0.6136329178322225 0.6279255964008942
15969840 -0.6115886295561537 0.6296845904555085
15973130 -0.6100466719192654 0.6313178657177202
15976419 -0.6082445496300524 0.6329280427134852
15979708 -0.6069659984536271 0.6343064013862811
15982998 -0.6048842702930096 0.6358106578479314
15986287 -0.6026874744298932 0.6378753118432398
15989577 -0.6017933451226675 0.6392320222112818
15992866 -0.5998135555600898 0.6410087980252135
15996155 -0.5977650244647641 0.6426301188053437
15999445 -0.5968342200795019 0.6439796609472399
16002734 -0.5945909342231576 0.6456765943180611
16006024 -0.5927731785142518 0.6472628518184659
16009313 -0.5909967434741067 0.6487219475664494
16012602 -0.5896367708268647 0.6499638284718514
16015892 -0.5876928692687674 0.6518592112297977
16019181 -0.5855206609472011 0.6532974758278842
16022471 -0.5844200142831552 0.6550733372204927
16025760 -0.5825057058495834 0.6567405062493598
16029049 -0.5804085235415195 0.6579699283822019
16032339 -0.5791036577394107 0.659326330194499
16035628 -0.5769473972450909 0.6609907344150419
16038917 -0.5751043272920491 0.6623822025446592
16042207 -0.5731867668707614 0.6639812341505623
16045496 -0.5719834576981461 0.6652052592635026
16048786 -0.5698119185944095 0.6670111411839132
16052075 -0.5678554602314482 0.668507418198719
16055364 -0.5665794573990615 0.6698286332624005
16058654 -0.5643661919241092 0.6714275747428801
16061943 -0.5626895716769234 0.6729608975454708
16065233 -0.5612671829997249 0.6743621658690062
16068522 -0.559231642749533 0.675894339880435
16071811 -0.5571524525588603 0.6772822443765895
16075101 -0.5552529846633433 0.6786207250132696
16078390 -0.5537344818209444 0.6799586207721788
16081680 -0.5518815403529929 0.681799946836887
16084969 -0.5497967619458087 0.6830109699221908
16088258 -0.5485356551586756 0.6846079840251665
16091548 -0.546347877892071 0.6862016122366286
16094837 -0.5442952384396087 0.6873114918190986
16098127 -0.5430187892202549 0.6887370778158185
16101416 -0.5407705505913486 0.6901150786844508
16104705 -0.5386920050869467 0.691465004019229
16107995 -0.5368639249774287 0.6929395108877283
16111284 -0.5352254262689043 0.6942099188918419
16114573 -0.5332322578211595 0.6958172246200062
16117863 -0.5312941770073886 0.697048398862116
16121152 -0.5299975963496175 0.6987066867777094
16124442 -0.5274657647821794 0.6998803063317995
16127731 -0.5253979613638523 0.7011440668096364
16131020 -0.5244592923181417 0.7025659479868153
16134310 -0.5221514569942469 0.7041723692384939
16137599 -0.5200034396810441 0.7053003559699812
16140889 -0.5181342394690015 0.7069450264886384
16144178 -0.5166281341674789 0.7081376168681358
16147467 -0.5143844607160727 0.7094961445927581
16150757 -0.5123711449903848 0.7108306451916296
16154046 -0.510873012302398 0.7123089548955004
16157336 -0.5087242106402339 0.7136760246373978
16160625 -0.506668917860692 0.7147265254208057
16163914 -0.5051937310501657 0.7160991907975977
16167204 -0.5029090331540716 0.7175399344314745
16170493 -0.5009129719073896 0.7186012880085666
16173782 -0.49887659678407614 0.7200008095622314
16177072 -0.49734578467972157 0.7213265128745437
16180361 -0.4953502961927874 0.7228468682958474
16183651 -0.4930891892565569 0.7239069689441578
16186940 -0.4915323441188293 0.7253799760674285
16190229 -0.4893212172087569 0.7266957641197571
16193519 -0.4872555017063024 0.7276675508456997
16196808 -0.48582078395986517 0.7292406858272648
16200098 -0.4837499065589051 0.7304225248429006
16203387 -0.4815649862549046 0.7317786909311589
16206676 -0.4796224205267527 0.7327630216021387
16209966 -0.47789027827377295 0.7339817819357571
16213255 -0.4756841468869272 0.7352616579673931
16216545 -0.473488943671822 0.7363906247209512
16219834 -0.4721546777573008 0.7379840143708695
16223123 -0.46983080582604264 0.7393933864291224
16226413 -0.46756798911025116 0.740090588448425
16229702 -0.4661706758850887 0.7414530378349002
16232992 -0.4637893762094765 0.7427552924256888
16232992 -0.46366362538259814 0.7426606763970254
16236349 -0.4620639431663131 0.7440118868260227
16239706 -0.4598329695547556 0.7452190049026916
16243064 -0.45765336793078415 0.7462044360399296
16246421 -0.4559595177851945 0.7475683049357384
16249779 -0.4540042063289003 0.7486909293561923
16253136 -0.4514847241947189 0.7501062472957024
16256493 -0.44962650687965977 0.7512623133462203
16259851 -0.4477085410651565 0.7527497785180018
16263208 -0.4456273578231694 0.7536637574478021
16266566 -0.44323522541191096 0.7548063544334813
16269923 -0.4414755242540872 0.7561650383330049
16273281 -0.4393449632589901 0.7570059673848777
16276638 -0.43701715026277027 0.757780267060901
16279995 -0.43499569706381364 0.7591790956954529
16283353 -0.43313893758191724 0.760618537220907
16286710 -0.4309424062278096 0.7615941482881823
16290068 -0.428767378487354 0.7628631968988567
16293425 -0.4270466231748716 0.7640666949579431
16296782 -0.424842727207747 0.7652721254340697
16300140 -0.42265383806444595 0.7661515743835823
16303497 -0.42077995727730616 0.7676378734938574
16306855 -0.4181613321485682 0.7684822534263461
16310212 -0.4161329559234724 0.7694483139081875
16313570 -0.4143265723828464 0.7704541874405284
16316927 -0.4123349256454246 0.7719820735897014
16320284 -0.41024581362787005 0.7730324306456681
16323642 -0.40778563239859333 0.7734985942072427
16326999 -0.4059399127836254 0.7751602132139899
16330357 -0.4036473816969512 0.7759892377765152
16333714 -0.40145021586799234 0.7768927390655149
16337072 -0.3996348843821402 0.7782106605854077
16340429 -0.3973836259770417 0.7791057668453839
16343786 -0.3951605847681474 0.7801340086605931
16347144 -0.3932228454486246 0.78120158962803
16350501 -0.391121361918488 0.782478681716657
16353859 -0.3889298829635161 0.7834728672533513
16357216 -0.3864472132673329 0.7842547179390374
16360573 -0.38472122154993493 0.7856843309307224
16363931 -0.38233228547814224 0.7864357545393078
16367288 -0.3805060566467086 0.7871734318844636
16370646 -0.3782293374160495 0.7887142359962266
16374003 -0.37575063093734296 0.7898597118173072
16377361 -0.37378686148012763 0.7904047786993885
16380718 -0.3717866615093011 0.7915922109752976
16384075 -0.36967425863319 0.7924820793392414
16387433 -0.3673283264142652 0.7933887387270102
16390790 -0.3652053479812448 0.7941790615668376
16394148 -0.3632338341829628 0.7957124860924687
16397505 -0.36101601626827257 0.7965255362377034
16400863 -0.35857935351142955 0.7971156231827541
16404220 -0.3565794166301718 0.7984481314327104
16407577 -0.35436625390869925 0.799299527434152
16410935 -0.35219534563274046 0.7999275689012837
16414292 -0.3499260099009262 0.8011135709254604
16417650 -0.34783964437687376 0.8020042942875495
16421007 -0.34562005102114973 0.8030386876958754
16424364 -0.3434426442445902 0.8037441020937154
16427722 -0.341282817446736 0.804911847727555
16431079 -0.3391793460405141 0.8055029224964463
16434437 -0.33698385895989014 0.8064204460822841
16437794 -0.33474935263585304 0.8076339710228179
16441152 -0.33240209040663105 0.8084624142324375
16444509 -0.33030236418712045 0.8090906046835715
16447866 -0.32814892535554524 0.8100395804737733
16451224 -0.32610701733015673 0.8111407088878488
16454581 -0.32366890293023465 0.8121195666839984
16457939 -0.32119635845460565 0.8124687154809223
16461296 -0.31929288253301547 0.8135055003296454
16464653 -0.31689876762062086 0.814497572904439
16468011 -0.31509521041162025 0.8149834103630149
16471368 -0.312565042698772 0.8162816294633122
16474726 -0.31043726570484653 0.8168843425775125
16478083 -0.3082018253559771 0.817600561768546
16481441 -0.3061171637975565 0.8184933885572004
16484798 -0.30379089281863203 0.8194576331249523
16488155 -0.30129019497109966 0.820090034343549
16491513 -0.29924999973535005 0.8207650039138457
16494870 -0.2971675196158326 0.8217112696159289
16498228 -0.29468340135678023 0.8225859714069885
16501585 -0.29291287907199465 0.8232313278737289
16504943 -0.29031526123261236 0.8240125886242458
16508300 -0.2881208840773143 0.824789175952858
16511657 -0.28595148516400787 0.8252432913629196
16515015 -0.2838189014529597 0.8265072695472003
16518372 -0.2815400942003044 0.8271589370668372
16521730 -0.2790844768556385 0.8277689158491089
16525087 -0.27700426778144593 0.8282793097095155
16528444 -0.2747162529882814 0.829641092653954
16531802 -0.2725092190075627 0.8298475277035763
16535159 -0.2703162252220722 0.8303891935061878
16538517 -0.2678819100579014 0.8314342502885842
16541874 -0.26546110981958887 0.8320846753549227
16545232 -0.2636028335167626 0.8327863912953769
16548589 -0.2610396358221651 0.833577900778028
16551946 -0.25898780347015193 0.8342434489049455
16555304 -0.25655374598728636 0.8351521168662892
16558661 -0.25425741672189744 0.8354031172435835
16562019 -0.25209028849082366 0.8363112404388485
16565376 -0.24977375438863694 0.8367614094544885
16568734 -0.24754717135154658 0.8374110680066954
16568734 -0.2471998146397703 0.837799054638787
16572160 -0.24541988475911655 0.8381951831825081
16575587 -0.2429442264877 0.838987528386221
16579014 -0.24066684897137602 0.8395420390757372
16582441 -0.23830071880746787 0.8404566323260878
16585868 -0.23597325253951643 0.840861227305098
16589295 -0.2338509285735014 0.8414903933771041
16592722 -0.2314990105216616 0.8420989844581048
16596148 -0.22904011044489028 0.8427441705467786
16599575 -0.2266472577107956 0.8433364726188766
16603002 -0.2244036537262736 0.8438394177663668
16606429 -0.22215264708192045 0.8445953346044452
16609856 -0.2196682117650775 0.8451347253913251
16613283 -0.21739693159707685 0.8454024333146866
16616710 -0.21511126910875025 0.8464798481674756
16620136 -0.21250442240806247 0.8467220650389367
16623563 -0.21044127564656318 0.8472859160777871
16626990 -0.20813657911131678 0.8477362491592703
16630417 -0.20578803759641032 0.8481850258266767
16633844 -0.2032114025395794 0.8489426437220928
16637271 -0.20131229891080965 0.8494159801942364
16640698 -0.19845869318993362 0.8500171009224079
16644124 -0.19612728695216378 0.850510999515388
16647551 -0.19402553754323584 0.8510752639790403
16650978 -0.1915127847624009 0.8516021044413863
16654405 -0.1889554847061243 0.8519296242279139
16657832 -0.18702510869090086 0.8522312937198417
16661259 -0.1847231187248117 0.8533075159054054
16664686 -0.18213184594381693 0.8534931624629155
16668112 -0.17971388147912506 0.8540682559415046
16671539 -0.17748953734013342 0.8543299370280149
16674966 -0.17496774463639223 0.8549698459414901
16678393 -0.17262924617718686 0.8552558114417398
16681820 -0.17041383202156532 0.855853434225301
16685247 -0.1677684465392801 0.8563129548779198
16688674 -0.16544813589478555 0.8568892384267571
16692100 -0.16334938760996665 0.856933891431778
16695527 -0.16103771973019598 0.8576946228238743
16698954 -0.15860672604244525 0.8582441652795693
16702381 -0.1562967682827953 0.8583354000770775
16705808 -0.15385311761097428 0.8586842780426704
16709235 -0.1515732668317769 0.8591544869183324
16712662 -0.1487904850244792 0.8597395181141835
16716088 -0.1468173051251695 0.8599987732810764
16719515 -0.14436397627062014 0.8603882807385758
16722942 -0.14189937298573624 0.8604279952133881
16726369 -0.1396663104044192 0.8610846166498561
16729796 -0.13728669347799022 0.8614662111208494
16733223 -0.13475164048263247 0.8618130692075046
16736650 -0.1324389101539971 0.8620358497987624
16740077 -0.1301157378856492 0.8626021735225534
16743503 -0.12761855131362188 0.8629331862167192
16746930 -0.12512092097189112 0.8630307339625792
16750357 -0.12302202200624157 0.863325639049094
16753784 -0.12057336824860795 0.8639313479617962
16757211 -0.11810692864119535 0.864036969005987
16760638 -0.11595820237469137 0.8644262587139188
16764065 -0.11365437309692134 0.8648061012834493
16767491 -0.11113362977707278 0.8651909311487208
16770918 -0.10861555640850744 0.8653403581541751
16774345 -0.10630605625722417 0.8654442069324312
16777772 -0.10394291700409453 0.8659304180730732
16781199 -0.10153271086788732 0.8659251763326667
16784626 -0.09893822245149114 0.8662114058570071
16788053 -0.09671444593136917 0.8666342578052979
16791479 -0.09437008247158647 0.8666883288078799
16794906 -0.09189838279029379 0.8668246134919726
16798333 -0.08966929905405616 0.8675337770244267
16801760 -0.08715178210630235 0.8674911014104153
16805187 -0.08478950335481669 0.8678192044298062
16808614 -0.08262858510415914 0.8676596324546437
16812041 -0.08017705012887115 0.8681095700685423
16815467 -0.07768530344422922 0.8683316709094118
16818894 -0.07563595245278588 0.8685339345298775
16822321 -0.0728764601652896 0.8685817606428518
16825748 -0.0703106504245266 0.8688744430588837
16829175 -0.06808303234570304 0.8692796501454743
16832602 -0.06563323240083113 0.8694021653291305
16836029 -0.06329650082290743 0.8691625935185535
16839455 -0.06084699579610895 0.8694934530304615
16842882 -0.05849229262315241 0.869924996262632
16846309 -0.05604362406482965 0.8696889505577291
16849736 -0.05354961757832409 0.8701838082664579
16853163 -0.05131435434829594 0.8702566040556985
16856590 -0.04903300638194232 0.8702538183322202
16860017 -0.0464311363867367 0.8701045808338023
16863443 -0.044022637880485015 0.870290116056012
16866870 -0.041861070584786414 0.8708730131159171
16870297 -0.03932267848074027 0.8705031248218732
16873724 -0.03702554023855549 0.8708662402419886
16877151 -0.0345724406516417 0.8705949253640483
16880578 -0.03257652263107534 0.8709710751403527
16884005 -0.029613232651209798 0.8707457370053231
16887431 -0.027400316793580105 0.8708021174261694
16890858 -0.02488388934273416 0.8709356457898215
16894285 -0.022558679158660326 0.8711999519014121
16897712 -0.020300520452485583 0.8708948817509874
16901139 -0.01783451977451211 0.871549688020114
16904566 -0.01540721694097583 0.8710394119483957
16907993 -0.01310474764197192 0.8712337110198403
16911420 -0.010772118403903748 0.8710856059030053
16911420 -0.01115898985911303 0.8709931566917576
16914917 -0.008208357462643975 0.8708984400201267
16918415 -0.005683147970555003 0.8710880264918907
16921913 -0.0031998195288102564 0.8711308727383821
16925410 -0.0008427443779721313 0.871160296944631
16928908 0.0015927255329244736 0.8708955718490334
16932406 0.0039385286366061395 0.8711366102279762
16935904 0.006521433689257829 0.8710409973648107
16939401 0.008882176311635383 0.8709497162453205
16942899 0.011283949427461457 0.8711357593188921
16946397 0.013737891482946006 0.8709203944221445
16949895 0.016160985675196145 0.8707544343438212
16953392 0.018646569508374657 0.8708896815541921
16956890 0.021204448046043337 0.8708007054037996
16960388 0.023655166594620605 0.8706812452955878
16963886 0.02615268123953322 0.8707024687318456
16967383 0.02832514826502697 0.8704328693104737
16970881 0.030833607212340675 0.8701552034497503
16974379 0.03317697587059061 0.8703556635666535
16977877 0.0357585995388496 0.8701893903919968
16981374 0.038081956933720414 0.8698938765563079
16984872 0.04051847956782881 0.8694823283021337
16988370 0.042951237192997885 0.8699160938019347
16991868 0.04535454965824674 0.8696761761108118
16995365 0.04767402494057193 0.8695095694215162
16998863 0.05043676472028217 0.8693885461735539
17002361 0.0527188942999658 0.8692396671568994
17005858 0.05500272387499486 0.8689691927911789
17009356 0.05764147236552866 0.8687227361066789
17012854 0.059886781009282554 0.8687820288042598
17016352 0.06280576483085568 0.8683797824935142
17019849 0.0647289826961127 0.8680851428521592
17023347 0.06723220734704177 0.8679342075212327
17026845 0.06991843120315348 0.867928726785245
17030343 0.07206054051194388 0.8676882991085854
17033840 0.07464977162130826 0.867441671185565
17037338 0.07722392357919923 0.8670262377263194
17040836 0.07947207528300043 0.8670033847281952
17044334 0.08170782779638365 0.8664209246881257
17047831 0.08425197340580072 0.8665170573874772
17051329 0.08685047627426275 0.8659954808139014
17054827 0.08907992397793169 0.865889184276993
17058325 0.0913891357782701 0.8657196292530621
17061822 0.09403768462335597 0.8652257265067959
17065320 0.09653782606177594 0.8650088197053619
17068818 0.09884228768236764 0.8646796631554814
17072316 0.10153260113709231 0.8641722946349965
17075813 0.10388584761427866 0.8641225388963151
17079311 0.10594536603318479 0.8637053486626438
17082809 0.10834168471341932 0.8636966307441039
17086307 0.11096736441335914 0.8630900973790282
17089804 0.11332769676534524 0.863007716888961
17093302 0.11581913730835643 0.8628075633733503
17096800 0.11839162297260958 0.8619668900271262
17100297 0.1204681914077092 0.862061477985103
17103795 0.12318666044421082 0.861410949606575
17107293 0.12527462346522902 0.8613496870877285
17110791 0.12799621258816096 0.8607561777583272
17114288 0.13018314898159414 0.8604181312440401
17117786 0.1325814581485945 0.8604797729573929
17121284 0.1350857084380389 0.8595730016784853
17124782 0.13754326916162427 0.85923865700341
17128279 0.13988485510155696 0.8588957091215186
17131777 0.14216461010897727 0.8583090177794779
17135275 0.14484298633626122 0.8581543830108056
17138773 0.14704832895607464 0.8577158663177749
17142270 0.14948998265604882 0.857504763404314
17145768 0.15203437022828392 0.8567818663665145
17149266 0.15418640577422302 0.8563364955441591
17152764 0.1567946047600618 0.8559753954768193
17156261 0.15913294294876645 0.855451148213818
17159759 0.16137762462239638 0.8548816229895588
17163257 0.1640802670522079 0.8539217638459717
17166755 0.1660344250614198 0.8538097827553341
17170252 0.16864385666322346 0.8534444740908492
17173750 0.1709234099519184 0.8526778235337821
17177248 0.17361568761337243 0.8526498946591601
17180745 0.1759505147562597 0.852122070778548
17184243 0.17832881232399736 0.8516261978588772
17187741 0.18075209356450792 0.8511227558876887
17191239 0.18295703961011522 0.850344704129529
17194736 0.1850898647101332 0.8498052482383869
17198234 0.18752811797130384 0.8495568464959227
17201732 0.18987557332425006 0.8490550451956091
17205230 0.1926148159491372 0.8483908481080719
17208727 0.19466252610864915 0.8478572333239832
17212225 0.197047162038658 0.8473194645045489
17215723 0.19936292298784433 0.8466828757627441
17219221 0.20196491068957584 0.8460518192344244
17222718 0.2040762837905109 0.8456965433545863
17226216 0.2065107340478158 0.8448847081774223
17229714 0.20883146648792408 0.8445353276173793
17233212 0.21143715923076456 0.8440428654137395
17236709 0.21365764839685694 0.8432213068846588
17240207 0.21597503910201285 0.8425280699749284
17243705 0.21813685259151339 0.8418403424911111
17247203 0.22076616885354086 0.8414253712047679
17250700 0.2229526680480401 0.8405775131955686
17254198 0.22539379010782565 0.840210989583081
17257696 0.22775022651065 0.8398605518446125
17261194 0.2300349356800966 0.8389469233429401
17261194 0.22940853163065136 0.8394811347006019
17264764 0.23234571095263057 0.8375598305641065
17268334 0.23480721811748342 0.8377444749594131
17271904 0.23740831246690064 0.8369244100504537
17275474 0.23973745289656812 0.8361854849618539
17279044 0.24211046486271592 0.8356070397492805
17282614 0.24420272865541 0.8345196598264271
17286184 0.2468304612180182 0.8343502237807626
17289754 0.24915234437154476 0.8334256651762724
17293324 0.2514520505370187 0.8326081066785412
17296894 0.2540576805060789 0.8318325518601144
17300464 0.256181335270543 0.8308808270956582
17304034 0.258633084816636 0.8303011057684065
17307605 0.261048681113429 0.8299644507265923
17311175 0.26326693129662937 0.8288494523586909
17314745 0.2657901229664085 0.8281550576789883
17318315 0.2681613593968237 0.8273749844784092
17321885 0.2706174993619075 0.8267016438920217
17325455 0.2728577800515268 0.8255884755014573
17329025 0.27506441426086214 0.8249906190778871
17332595 0.27744521388525817 0.8245289199299918
17336165 0.2798208626145316 0.8233845887721477
17339735 0.2821084633974568 0.8225639460220979
17343305 0.2847191115738043 0.8220361627740611
17346875 0.2869656580138468 0.8207232595408044
17350446 0.28937328128452355 0.8200275244367531
17354016 0.29132411325052876 0.8192538701429618
17357586 0.293906489648603 0.8185179426654697
17361156 0.2962732354198816 0.8176443123620832
17364726 0.29840110033736983 0.8166144861712676
17368296 0.30089716282687395 0.8159937100207021
17371866 0.30333266004064996 0.8149067550269734
17375436 0.305466906735484 0.8139463149550631
17379006 0.3077826869364475 0.8133424107918094
17382576 0.3101069497278044 0.8122370303235498
17386146 0.3124249961364511 0.8111960529114167
17389716 0.31478150885266915 0.8104594863592355
17393286 0.3174447917107549 0.8098244039755441
17396857 0.3194248665763611 0.8085201850049056
17400427 0.3215511808520015 0.8077194722332826
17403997 0.32424782217062587 0.8074594168345482
17407567 0.3261873308648947 0.8059180725921457
17411137 0.3284858895211317 0.8050388314586276
17414707 0.3310727716439047 0.8043008268080993
17418277 0.3331301133912194 0.8030693415904608
17421847 0.3354644532466605 0.8020597937644071
17425417 0.3373569677940951 0.8010047489737407
17428987 0.34014961721741316 0.8001170374300715
17432557 0.3424039477092789 0.7990725176794413
17436127 0.344346236081676 0.798137724247209
17439698 0.3469912430283066 0.7975674505059495
17443268 0.3490739620774367 0.7962948376428014
17446838 0.3511436672830254 0.7951561593917439
17450408 0.35352202690546924 0.7939911243010623
17453978 0.355919635476725 0.7931513891502564
17457548 0.35779792166903873 0.792310508193858
17461118 0.3603350227840576 0.7912658053186865
17464688 0.36283604458713314 0.7902366029217663
17468258 0.36479662534095353 0.7887923482444181
17471828 0.36706410400086487 0.7880383024040247
17475398 0.36976763596442236 0.7871234978693317
17478968 0.3715133907498336 0.7856767853190716
17482538 0.37402425082310015 0.7848323623116404
17486109 0.37631815975654315 0.7838235359515818
17489679 0.378148024336428 0.782580651385358
17493249 0.38058012770680566 0.7814451936017711
17496819 0.3825746685554125 0.7803697076856252
17500389 0.38509078035853433 0.7795058461050965
17503959 0.3870805260036768 0.7783250958120203
17507529 0.38921097328352383 0.777320514301214
17511099 0.39178254065085477 0.776046188443251
17514669 0.39383925559073646 0.7747164548516025
17518239 0.3960374534291782 0.7737552129933951
17521809 0.39871689382570463 0.7727189596649832
17525379 0.40036775235563177 0.771477247964047
17528950 0.4025767749395174 0.7701913477170562
17532520 0.40450081851018727 0.7693667451348094
17536090 0.4072858285078825 0.7679923547627041
17539660 0.4090636831258442 0.7669750846169614
17543230 0.4113782554640366 0.765392961203215
17546800 0.4139896668554511 0.7643936266428617
17550370 0.41592418425862365 0.7631138291510864
17553940 0.4176487627397293 0.7623841072938885
17557510 0.4203513297985602 0.7607842307921426
17561080 0.42245278719591284 0.7595590649604343
17564650 0.42428955332051843 0.7586247040489749
17568220 0.42627741913787404 0.7572426286692163
17571790 0.42910211504570017 0.7560621394038426
17575361 0.4308352596579172 0.7549042983334422
17578931 0.4328538945017094 0.7535158658514208
17582501 0.435599517270117 0.7523296572619228
17586071 0.4370937161569327 0.7507999987411917
17589641 0.43935077548665735 0.7497054924378805
17593211 0.4419468200698218 0.7485208825064804
17596781 0.4438271460311692 0.747313723654734
17600351 0.44574148934579594 0.7461053616667023
17603921 0.44789806791485587 0.7448270974333905
17607491 0.45051915982902657 0.7433593181757899
17611061 0.45205723715057183 0.7420199202946588
17614631 0.4543104852536414 0.7408275840952206
17618202 0.456697659716635 0.7397451770866419
17618202 0.4564808757883095 0.7393987854651508
17621845 0.4585971203723442 0.7380823597354872
17625489 0.4604761558798325 0.7370080672904644
17629133 0.46316547020773435 0.735530390869983
17632777 0.4651070891274368 0.7338890312420283
17636421 0.4670088321550464 0.7329990982122974
17640065 0.4686958073836235 0.7314542976042302
17643709 0.47164642458056255 0.7300044656756798
17647353 0.4733988209208522 0.7286862665293783
17650997 0.4755279704153317 0.7273350653501518
17654641 0.4778993287806578 0.7257884648541945
17658285 0.4796206615885827 0.7244426952929285
17661929 0.4816738222338083 0.7231171729004525
17665572 0.4842146061023781 0.7216545018487699
17669216 0.486123903309758 0.7201458903677206
17672860 0.48813074281134766 0.7188105573536615
17676504 0.4901680975251716 0.7174655943233917
17680148 0.4927008987078105 0.7158396941002865
17683792 0.4942521511640417 0.7143225951876988
17687436 0.49633164331607255 0.7132508706038463
17691080 0.49895446715312997 0.7115156727899216
17694724 0.5005756931103281 0.7103240957012125
17698368 0.5025283348556782 0.7088271033077408
17702012 0.5049723370654892 0.7068303998625217
17705656 0.5068356788429379 0.7055695279009386
17709300 0.5088155270377192 0.7044932743881697
17712943 0.510724114706423 0.703099514669778
17716587 0.51316312054587 0.701028714166128
17720231 0.5150164949025324 0.6999455190509845
17723875 0.5169897473959488 0.6984184681358651
17727519 0.5194921388063108 0.6966025179569195
17731163 0.5209527049313819 0.6955368083492944
17734807 0.5228536005655733 0.6937912677717014
17738451 0.5253162787034277 0.6921154732258774
17742095 0.5271508744943891 0.690802772810918
17745739 0.5290830392968693 0.6892174909162945
17749383 0.5309357142671315 0.6878881613624227
17753027 0.5336007563953326 0.6861889143965227
17756670 0.5351979796587042 0.6847374612078763
17760314 0.5371170801198645 0.6833017337552962
17763958 0.5393086688787738 0.6811049142667963
17767602 0.5410498568380728 0.6799123097399838
17771246 0.5429923133644656 0.678396969966516
17774890 0.545431503237273 0.6767579646095588
17778534 0.5470917464440135 0.6750719743793613
17782178 0.5488454909761911 0.673563968582455
17785822 0.5507582717092713 0.6719709622648045
17789466 0.5530655708088799 0.6700712100258561
17793110 0.5548098595614178 0.6687733744444723
17796754 0.5568767077374357 0.6671724465664579
17800398 0.5589532181556963 0.665206343781527
17804041 0.5606171974532331 0.6638934386933597
17807685 0.5626872014483563 0.6622605283309002
17811329 0.564695678426371 0.6604919851470511
17814973 0.5664756003729827 0.6589737311339076
17818617 0.5684366556530079 0.6576332782313793
17822261 0.5699817657779944 0.6558705195790266
17825905 0.5724303324337605 0.6537121161270149
17829549 0.5737733547675758 0.6524436302487066
17833193 0.5759760985487452 0.6508814412571421
17836837 0.5779970946961195 0.6487760986939097
17840481 0.5795400391883417 0.6472578361797691
17844125 0.5816364092987871 0.6455824268603665
17847768 0.5835059830040784 0.6436083202615385
17851412 0.5852668175530901 0.6418518923760197
17855056 0.5871944534734086 0.6406098506842214
17858700 0.5891115151309654 0.6388222176347778
17862344 0.5909202927126705 0.6366421599611576
17865988 0.5926250679116378 0.6356902584893438
17869632 0.5944964163387144 0.633615434644387
17873276 0.5965035254558014 0.6313242638751327
17876920 0.5983849158651334 0.629923221093328
17880564 0.6002659596597487 0.6284222809989555
17884208 0.6018092019621591 0.6263756379530412
17887852 0.6038677577820751 0.624464073277121
17891496 0.605471367588832 0.6228120472528152
17895139 0.6071295650472306 0.6216027133035155
17898783 0.6094102342775473 0.6193940056530696
17902427 0.6110688737226592 0.6178878950472299
17906071 0.6129311939837561 0.6161879872772045
17909715 0.6147801305663407 0.6138799287531369
17913359 0.6162920200973627 0.6125099618955645
17917003 0.6178897704378783 0.610584527768486
17920647 0.6199963328667135 0.6085381952492072
17924291 0.6217006154314275 0.6067318026052815
17927935 0.6235141312354355 0.6053680385487248
17931579 0.6252423220501782 0.6036117417889045
17935223 0.6270256358843324 0.601216797271413
17938866 0.6289057339838348 0.5999539689725398
17942510 0.6304905390136679 0.5979781745319266
17946154 0.6322831215753782 0.5957445987030712
17949798 0.6342253333961424 0.5944184939930366
17953442 0.6357976392902217 0.5924717899640091
17957086 0.6374578816527455 0.5904506372338347
17960730 0.6391652930973959 0.5885538375019969
17964374 0.6408748666367505 0.5869022963520049
17968018 0.6423405079591471 0.585142773188984
17971662 0.6443931573811759 0.5828045412695925
17975306 0.6459193490218282 0.5813831400236807
17978950 0.6476257151069594 0.579462864199251
17982594 0.6494387504901876 0.5771832977360793
17982594 0.6495974843877069 0.5772528808324582
17986313 0.6512254065601372 0.5758920583367423
17990032 0.6525177396313684 0.5734754440004219
17993751 0.6545431836653466 0.571349944479097
17997471 0.6561659126026674 0.5698857821644437
18001190 0.657643995987565 0.5681260689476189
18004909 0.6594054665520681 0.565422992375326
18008629 0.6610229889569138 0.56380296316221
18012348 0.6628430678916326 0.5620394394636631
18016067 0.6644998660975698 0.5598320317032198
18019786 0.666159940202416 0.5582150621291929
18023506 0.6681030898450286 0.5563450856055171
18027225 0.6695448433470831 0.5538065354183677
18030944 0.6711776204878864 0.5517382606225213
18034664 0.6729254923494246 0.5500092733128803
18038383 0.6744581165688461 0.5481715311450633
18042102 0.6758920880162154 0.5456145221127693
18045821 0.6777151877807932 0.5441197664627921
18049541 0.679385402448497 0.5419622395116758
18053260 0.6809968759221061 0.5398282588882979
18056979 0.6826586501608144 0.5382701443153337
18060699 0.6842179851894133 0.5361684012876362
18064418 0.6857725449745146 0.534172085292199
18068137 0.6872632666051165 0.5317247965282824
18071856 0.6888070152185297 0.5299972562694695
18075576 0.6904892101756839 0.527892229970343
18079295 0.6920824679661373 0.5255772454095794
18083014 0.6938050228471903 0.5239303823613175
18086734 0.6953484358903259 0.5218811323791174
18090453 0.6966653500376883 0.5194991342978696
18094172 0.6980665770785954 0.5176358330048654
18097891 0.6997033390056451 0.5155947240782235
18101611 0.7014868344978251 0.5135332485878215
18105330 0.7027670883822018 0.511014502594937
18109049 0.7045034147570499 0.5090818262179504
18112769 0.7058730592356051 0.507236615171233
18116488 0.7071875242540027 0.504764702243883
18120207 0.7090120312601659 0.5029838304227305
18123927 0.7106921743746433 0.5009331410597713
18127646 0.7118446718993897 0.4985458317194016
18131365 0.7132467070268814 0.4966347626530553
18135084 0.7149692838171625 0.4947563030435234
18138804 0.716262921742664 0.49253751911275734
18142523 0.7177842726103101 0.49005862044979165
18146242 0.7191695297821843 0.48813182352717926
18149962 0.7207252616049569 0.48601337643438375
18153681 0.7221089436775613 0.48354252590574165
18157400 0.7233719810056825 0.48183004919223926
18161119 0.7252452944182406 0.4795763335297255
18164839 0.7263723789059358 0.4771694734007551
18168558 0.7280762324029727 0.47518118166415024
18172277 0.729542560442554 0.47318952575721723
18175997 0.730753067572344 0.47111596607407125
18179716 0.732056896562316 0.46875336824592473
18183435 0.7335691214665245 0.46654512941473636
18187154 0.7349750760210417 0.46460131748122585
18190874 0.7360719175840102 0.46196856185834423
18194593 0.7377459496624661 0.4602053122312432
18198312 0.7389640189003853 0.45796945078499063
18202032 0.7401855294058846 0.45540009169043894
18205751 0.7416651762839835 0.45336998302967785
18209470 0.7431078228618287 0.4513088920966077
18213189 0.7443941407159299 0.44881087704036543
18216909 0.7458087770122187 0.4468823660148615
18220628 0.7470165172189654 0.44471707260553567
18224347 0.7486149878379412 0.44268008149202925
18228067 0.7494818767849382 0.43989216518060537
18231786 0.7509843677361681 0.43797093951259203
18235505 0.7523747821382578 0.4356183341177301
18239225 0.7534965598703955 0.4333536394289617
18242944 0.7551896057235219 0.4313032206132115
18246663 0.7562288192308476 0.42900529133405774
18250382 0.7574300590931421 0.4266944599417978
18254102 0.7583429627462986 0.42425066814668466
18257821 0.760061359230805 0.4225586313878578
18261540 0.7613003964759161 0.42006246680993425
18265260 0.7623147428395955 0.41760722816309764
18268979 0.7637412106601911 0.415478565510337
18272698 0.7649798246224225 0.41328987062046924
18276417 0.7659232362930111 0.4107772815188939
18280137 0.7676586441707792 0.40871925237488055
18283856 0.7687117048547542 0.40641242824971197
18287575 0.7698680415933137 0.40412492947109047
18291295 0.7708677597880074 0.4016637662521191
18295014 0.7721388944094094 0.3994462544911688
18298733 0.7736052110722603 0.3972399732965711
18302452 0.7744084834989712 0.39484815921478467
18306172 0.7759450451817973 0.3927476970551552
18309891 0.7772101849177631 0.3904201495714555
18313610 0.7778648977314389 0.38781643151106787
18317330 0.7792896440049714 0.3856605319840133
18321049 0.7804739850340945 0.38340287522277755
18324768 0.7815527252238514 0.38088976281206643
18328487 0.7827874088070471 0.3786219966250004
18332207 0.783606641991572 0.37658687765745325
18335926 0.7851685959763997 0.37422034340303917
18339645 0.7858146748148154 0.37156067529822756
18343365 0.787357351493867 0.3694367479890123
18347084 0.788227482225363 0.36699385020513453
18350803 0.7892324272945077 0.36477160294388095
18354523 0.7905125905681484 0.36236576813622656
18354523 0.7904596098229874 0.3621571851777281
18358319 0.7915959656359232 0.36008101507782847
18362115 0.7926965670905852 0.35737952539370804
18365911 0.7938223957818549 0.3551705688486423
18369707 0.7946406860189689 0.3529074922838904
18373504 0.7957903707442203 0.3501830040947681
18377300 0.7969821407529597 0.3479674841190338
18381096 0.7979511139598151 0.3454774211305861
18384892 0.7987975171994439 0.34283234475299856
18388688 0.7998656874659744 0.34069794359433564
18392485 0.8013811917699432 0.33825883863128153
18396281 0.8019869617953888 0.33585990433960095
18400077 0.8032279542999059 0.3333251842022372
18403873 0.8044991141848115 0.33107814184455386
18407669 0.8051037663053773 0.32867229690223465
18411466 0.8059574558105214 0.3261150238794854
18415262 0.8071796439601233 0.3235799240212525
18419058 0.8081347311108484 0.3210855516780494
18422854 0.8088909957741457 0.31869039135701666
18426650 0.8100543994448025 0.316393918600345
18430447 0.8112908427529548 0.3139395418127539
18434243 0.8118183932516996 0.3114112170122265
18438039 0.8130360706060212 0.3089640497643157
18441835 0.813863006040084 0.3065358989624671
18445632 0.8144300883975248 0.3040011811606924
18449428 0.8158525593919878 0.30152087228664953
18453224 0.816768905360161 0.29902737518791644
18457020 0.8175635516821361 0.2966230987367309
18460816 0.8182201369155041 0.2941320819384481
18464613 0.8194549207833418 0.29180918843090675
18468409 0.8203608124750458 0.2891313851122762
18472205 0.8211136308518023 0.2867051010107607
18476001 0.8222506008498459 0.2841861530939165
18479797 0.8231682205313643 0.28171142673786864
18483594 0.8238204974011816 0.27923384193218587
18487390 0.8246854970933889 0.2766393177310429
18491186 0.8256299557802317 0.274270625989751
18494982 0.8262514475853224 0.27169545536398054
18498778 0.827018628311627 0.2692460758802909
18502575 0.8280229928615451 0.2667364308117626
18506371 0.8289952680019897 0.2639782071262817
18510167 0.8294458425495274 0.26174690146962476
18513963 0.8304594975079045 0.25931561513054724
18517760 0.8314811626153857 0.2565664624156421
18521556 0.83185401301965 0.25418030968025995
18525352 0.8326221637564236 0.25147619629866286
18529148 0.833592509709595 0.24907067252997891
18532944 0.8342646104866114 0.2465629450253392
18536741 0.8350358307025193 0.24414681413676415
18540537 0.8358440495361071 0.24162410923354094
18544333 0.8367354281639856 0.23893164043981865
18548129 0.837227853253353 0.23648644817979042
18551925 0.8379446162870061 0.2339094915548473
18555722 0.8385991194462715 0.231411154723825
18559518 0.8392893050135162 0.2289223374486479
18563314 0.8402930130037968 0.22634931483870643
18567110 0.841084871968216 0.223791898194119
18570906 0.8416546461980563 0.22129099035643424
18574703 0.8420684370566762 0.2188374173417984
18578499 0.843029718923598 0.2160907403616758
18582295 0.8436961162205115 0.2134589239720459
18586091 0.8440382739512254 0.21090038791412766
18589888 0.8449238509164612 0.2083363637582437
18593684 0.8456146005344719 0.2058371884104541
18597480 0.8461062003707324 0.20333920422172783
18601276 0.8469200752506905 0.20072402422494254
18605072 0.8474842153031403 0.19805312554005697
18608869 0.8479509042520346 0.19557546806095374
18612665 0.8485158105847731 0.19302704593731382
18616461 0.8491791069636814 0.19051399835011723
18620257 0.8498054329011194 0.187854175116766
18624053 0.8501905145389936 0.18532866929793002
18627850 0.8509355980421673 0.18257284962897655
18631646 0.8516724585572253 0.1800883319527868
18635442 0.8518993612719339 0.1776327988023839
18639238 0.8523761681396849 0.1751279782856463
18643034 0.8532742308466389 0.1724352467928354
18646831 0.8538780516687905 0.16974589359284054
18650627 0.8540698765757372 0.1671674168554244
18654423 0.8547132730719217 0.16443492719304592
18658219 0.8555170152653918 0.16188757662887374
18662016 0.8556655151771694 0.1595115952407334
18665812 0.8563988569385963 0.15683139405856597
18669608 0.8567998741682422 0.1539158123846727
18673404 0.8571604783828405 0.15166018963297484
18677200 0.8578670579264078 0.1489501596407325
18680997 0.8584355609934096 0.14648014823036395
18684793 0.8585093582209841 0.14380117464338815
18688589 0.8589332189420145 0.14130788085751306
18692385 0.8596081031648694 0.13856012268366005
18696181 0.8601849859352706 0.13592408039413692
18699978 0.8602318621854045 0.13361127596404787
18703774 0.8608630411205374 0.13071153442459302
18707570 0.8611196411240502 0.12804657482579304
18711366 0.8614036577888664 0.12557845441325685
18715162 0.8620419528602575 0.12289656113694268
18718959 0.8624450569124044 0.12027240388622017
18722755 0.863088165715237 0.1175958902279188
18726551 0.8630742396139194 0.115261962852446
18730347 0.8633475265600905 0.11246096489669233
18734144 0.8639567805657552 0.10963686207722179
18734144 0.8632770945152917 0.10954132223253552
18738018 0.8641205180143878 0.10709564632066396
18741893 0.8645321663594215 0.10437911974865914
18745768 0.8648781220341218 0.10187405742030965
18749642 0.8651281374360874 0.09919599931058473
18753517 0.8655990983832783 0.09630894247254912
18757392 0.8655525334195121 0.09375591456557102
18761267 0.8661854273273917 0.09100580185317617
18765141 0.8666430769600508 0.08836531475210367
18769016 0.8667222804893918 0.08573901385756266
18772891 0.8672369696030879 0.08285952452855207
18776766 0.8674701323828455 0.0803318799794982
18780640 0.8675941116331913 0.07763426096782722
18784515 0.8674760964433549 0.07491123855959829
18788390 0.8682384847808492 0.07207212441687079
18792264 0.8683580205907813 0.06940424023298723
18796139 0.8684215057644586 0.06695196543623363
18800014 0.8689419655459794 0.06424757944762531
18803889 0.869004198568456 0.06150906917354989
18807763 0.8689750078948666 0.05904885930367178
18811638 0.8695719232219794 0.056042928248412796
18815513 0.8697047643893999 0.05357234478078704
18819388 0.869694948025257 0.05050776650241539
18823262 0.8699991637665995 0.04809876033459158
18827137 0.8702265839601867 0.045353182555115244
18831012 0.8700766742928088 0.042477069643087874
18834886 0.870445255511568 0.04021773132772161
18838761 0.870569915983559 0.037302569344668864
18842636 0.8707082859340783 0.03440238749060114
18846511 0.8708651186680161 0.031982485716282226
18850385 0.8711588610850957 0.02909389923159488
18854260 0.8712510455243689 0.02639340139806531
18858135 0.8707046232254632 0.023591398691675678
18862010 0.8714780998936967 0.02120452605262073
18865884 0.8719072436047621 0.018232220004210167
18869759 0.8717216505491613 0.015513975404611587
18873634 0.8716638396784191 0.013116284499891299
18877509 0.8717983423619714 0.010069122075970958
18881383 0.8719048509380316 0.007486601267016561
18885258 0.871583300484654 0.005040465702221612
18889133 0.8717571126131273 0.002119564203458377
18893007 0.8718247679772123 -0.0006630091634296475
18896882 0.871898168517971 -0.003531968163174809
18900757 0.8716684397886368 -0.005790553464489096
18904632 0.871835400130031 -0.008755416674559872
18908506 0.8718288554233803 -0.011780521208803608
18912381 0.871827697351942 -0.013880733123721565
18916256 0.8717310867915776 -0.01686609358699876
18920131 0.8717594360419935 -0.01969200971974406
18924005 0.8716342603743933 -0.022286950527991314
18927880 0.8717701098817694 -0.024961772050239386
18931755 0.8711454062549562 -0.027612036757854785
18935629 0.8714771303020292 -0.030692406936563228
18939504 0.8714258095950739 -0.03303535653181796
18943379 0.871438679201525 -0.035835239706244366
18947254 0.8710851697544376 -0.038582735994784206
18951128 0.8709313954155612 -0.04131055103998246
18955003 0.8712810699101153 -0.04411022435238113
18958878 0.8710135874870939 -0.0468780499180373
18962753 0.8709939249705639 -0.04927175485662796
18966627 0.8705934549197255 -0.05211688363708865
18970502 0.8705577453164702 -0.05480528075927685
18974377 0.8703207391728133 -0.05759972710860337
18978251 0.8701105437962411 -0.05993302097940846
18982126 0.870262593358358 -0.0628483366730517
18986001 0.8698571284167481 -0.06585783107013701
18989876 0.8696398373212854 -0.06815064384540655
18993750 0.8693895897110828 -0.07101618098025386
18997625 0.8692054107911107 -0.07384230349391423
19001500 0.8688829291117471 -0.07639883923278544
19005375 0.8688257348499996 -0.07914157088276937
19009249 0.8685196450391189 -0.0818516663544941
19013124 0.8683980809134927 -0.0845976431926496
19016999 0.8682355339243029 -0.08725214335397564
19020874 0.8679627102471388 -0.09004084323292146
19024748 0.8676873635052997 -0.09271270483611369
19028623 0.8673079512384516 -0.0951225303875745
19032498 0.8672321685885959 -0.0979994866786292
19036372 0.8669046098056937 -0.10082581692511923
19040247 0.8665583934353687 -0.10328295472866182
19044122 0.8663373821579191 -0.10615922989519244
19047997 0.865665547132103 -0.10896488119631431
19051871 0.8651738532165862 -0.1115805576414048
19055746 0.8653338348918228 -0.11410215681896936
19059621 0.8650904499985992 -0.11689406238739378
19063496 0.8645602353332599 -0.1196497333248736
19067370 0.8642332443318693 -0.12204918657483059
19071245 0.8637394014987863 -0.12499070779678043
19075120 0.8634632091831907 -0.12787104239019317
19078994 0.8627825961039279 -0.13006391781333715
19082869 0.862660815477347 -0.133168349898765
19086744 0.8624626592825922 -0.13571847436292236
19090619 0.8619329480095992 -0.13827334894020837
19094493 0.8614450226393268 -0.14088518518163495
19098368 0.8608830558138035 -0.1438690513245489
19102243 0.8602780441803838 -0.14639899375514234
19106118 0.8602106667605559 -0.14892376058038265
19109992 0.8598132967493285 -0.1517947479314384
19113867 0.8592885530264301 -0.154629824968778
19117742 0.8590746965183098 -0.1570994955100571
19121617 0.8580003844219501 -0.15985137892770002
19121617 0.858552511557379 -0.1600229500007246
19125571 0.8577162909683363 -0.16251491740941254
19129526 0.8573177853830058 -0.16537269244458008
19133481 0.8568812049580954 -0.16771527632689012
19137436 0.8562768981296738 -0.1708524121825109
19141391 0.8558585283969744 -0.17349831545516842
19145346 0.8550829053782962 -0.1763059910551287
19149301 0.854810849184301 -0.17876677420509393
19153255 0.8541038339189645 -0.18168165354499027
19157210 0.8532959345108129 -0.18442831288569825
19161165 0.85291306588811 -0.18695189951426355
19165120 0.8523105497129911 -0.18968542061662055
19169075 0.8518573873959062 -0.19260218952569266
19173030 0.8512645557965275 -0.1950298631040583
19176985 0.8505577464449452 -0.19794660129417133
19180940 0.8501107308284851 -0.20069988241050699
19184894 0.8494455508993011 -0.20337641823784586
19188849 0.8488413721573734 -0.20601746500953233
19192804 0.8479431621400414 -0.20876174357067165
19196759 0.8474758933242375 -0.2114549171230862
19200714 0.846697006972747 -0.21408961379113495
19204669 0.8461414488710779 -0.21706638493326316
19208624 0.8452937589463325 -0.2195411838907323
19212579 0.8447216065837788 -0.22199906778146977
19216533 0.8442416339606564 -0.22509388401040528
19220488 0.8432784233714123 -0.22762738135771446
19224443 0.8426544019079696 -0.23034522305810382
19228398 0.8420095081199435 -0.2329007468214781
19232353 0.8413704774588697 -0.23564471650897628
19236308 0.840373467093309 -0.2383973002770802
19240263 0.8397511129633427 -0.2408475350352713
19244217 0.8392441446184521 -0.2438962729894981
19248172 0.8382375870222412 -0.24648364591752353
19252127 0.837781962172545 -0.24899975106507602
19256082 0.8366425139377137 -0.25183558045479926
19260037 0.835960807136891 -0.25454663494300545
19263992 0.8351775885644527 -0.25704483558457575
19267947 0.8344655723430016 -0.2597968266088506
19271902 0.8334818335771748 -0.2625515288409537
19275856 0.8329839516408489 -0.2651264274781451
19279811 0.8321758923748058 -0.2676237836997182
19283766 0.8312042831328116 -0.2704522861309107
19287721 0.83040724291504 -0.27305182720148213
19291676 0.8295221097149074 -0.27567152084133933
19295631 0.8284908038956162 -0.2783520007176314
19299586 0.8276308077175561 -0.28117053432213696
19303541 0.8264901296414613 -0.28384499057289414
19307495 0.8257764165723359 -0.28633294283859323
19311450 0.8246796249281684 -0.28880142603590847
19315405 0.8237604907698095 -0.2914711948261826
19319360 0.8232210597650544 -0.2942604708449378
19323315 0.8224094779175377 -0.29686405868874643
19327270 0.8214032647772251 -0.29948059420037126
19331225 0.8204941826608525 -0.30200921501571903
19335179 0.8193709885940765 -0.30467192960519185
19339134 0.8183534245079734 -0.30731192973725985
19343089 0.817176445045358 -0.3098899836324757
19347044 0.8166405834450883 -0.31247510907068327
19350999 0.815520690934659 -0.3151558499097391
19354954 0.8145408632236318 -0.3176820354918862
19358909 0.8135646422073156 -0.32000984082259915
19362864 0.8124376237024522 -0.3229070352707045
19366818 0.811466603706146 -0.325566790894818
19370773 0.8103325778655733 -0.32795326610963077
19374728 0.8099083581099297 -0.3304733903754075
19378683 0.8083609514693298 -0.33344362397561295
19382638 0.8072310392059576 -0.3359144139202555
19386593 0.8063029323824582 -0.3383533549717561
19390548 0.805331355960666 -0.34093856607345235
19394503 0.8041042258933678 -0.34349090179923747
19398457 0.8030183850093682 -0.3461645559644629
19402412 0.8019209847715749 -0.34872352312364996
19406367 0.8006590468883683 -0.3513620153917551
19410322 0.7999561830655812 -0.3538680268988128
19414277 0.7987293355617227 -0.35642776354618294
19418232 0.7975983247452267 -0.3589203095519125
19422187 0.7963320520002765 -0.36154610885975763
19426141 0.795231381389615 -0.3638818721834249
19430096 0.7940825992354131 -0.3666024078181826
19434051 0.792942547534045 -0.36926859715539145
19438006 0.7918537992305179 -0.3716786220118136
19441961 0.7906391007779933 -0.37434498701937585
19445916 0.7895586317439833 -0.37697472127629733
19449871 0.7883852037747937 -0.37933451831008824
19453826 0.7871533953730165 -0.38203489843507477
19457780 0.7859803017371902 -0.38437038931059964
19461735 0.7844297787661363 -0.3867545011972769
19465690 0.7836869066335326 -0.38939135847296996
19469645 0.7821883183205472 -0.391897977588689
19473600 0.7809512108064173 -0.3944460980178486
19477555 0.7798998631319222 -0.396728240004807
19481510 0.77840388282182 -0.3995160899141836
19485465 0.7771898155859747 -0.40202767521845256
19489419 0.7758250058878313 -0.40419329270110166
19493374 0.7747340895607768 -0.4069690517243025
19497329 0.7734829640408912 -0.40946368002927885
19501284 0.7721565784733038 -0.4117002059666193
19505239 0.7708484716127992 -0.4143178579208148
19509194 0.7696615256317397 -0.4167612784453102
19513149 0.7680580217577104 -0.4190353500220833
19517104 0.7669065314798056 -0.42169576203495457
19517104 0.7663998863786349 -0.42185456931822046
19521140 0.7656454767517015 -0.42416383070519204
19525177 0.7640670471514117 -0.4268506612439311
19529213 0.7628155128578484 -0.4293529289262302
19533250 0.761297978020719 -0.4318198542156761
19537287 0.7600309395436179 -0.43424136037923633
19541323 0.7585462760784825 -0.4368040504545559
19545360 0.7573503326114589 -0.43933581010472
19549397 0.7556493382873692 -0.4419099817653441
19553433 0.7542619996362077 -0.44437051192838994
19557470 0.7530816490057273 -0.4468414315953837
19561507 0.7513730540059802 -0.44918404496175557
19565543 0.7499911003713259 -0.45170780390085974
19569580 0.7485547860704767 -0.4540970219735497
19573617 0.7469738847764331 -0.45626535485866804
19577653 0.7456511772926445 -0.45909291185729484
19581690 0.7440185445556472 -0.46160062004037544
19585727 0.7427681508218414 -0.46397059865322565
19589763 0.7409822143211918 -0.46638939278428304
19593800 0.7396439164527419 -0.46858344649171496
19597837 0.7382584669213063 -0.4713085243200672
19601873 0.7363841453669379 -0.4734119563513427
19605910 0.7347174365381014 -0.476067891879643
19609947 0.7333588606694862 -0.4782002388318067
19613983 0.7320614148439076 -0.4810154618518469
19618020 0.7304052339930844 -0.48327538418409494
19622057 0.7286274241836396 -0.4858194465404919
19626093 0.7276429285423667 -0.4881060320788068
19630130 0.7256846593801375 -0.49051028109326544
19634167 0.7241773641634476 -0.4928282555414375
19638203 0.7225754595071008 -0.4951836236462499
19642240 0.7207891769964058 -0.49747383086479774
19646277 0.7191091827976093 -0.4997609533399696
19650313 0.7175634659549267 -0.5021802430059978
19654350 0.7161907261854682 -0.5047137231751506
19658387 0.7146412716330818 -0.507201541306428
19662423 0.7125850405593557 -0.5091202991049277
19666460 0.7112282702117475 -0.5116686837360865
19670497 0.7098121100073502 -0.5145685552981204
19674533 0.7077319845656392 -0.5163490389170127
19678570 0.7062055984131067 -0.5186687666069267
19682607 0.7045719853513986 -0.5211085468204966
19686643 0.7025824349462125 -0.5234500371846385
19690680 0.7009972113817963 -0.5256501546036318
19694717 0.6997677987605725 -0.527837295277744
19698753 0.6977783072812177 -0.5304035033072023
19702790 0.6960979281318996 -0.5325101127510493
19706827 0.6945532638887545 -0.5349889750786805
19710863 0.6924035305564458 -0.5370702174481842
19714900 0.6908255562499787 -0.5394495200118207
19718937 0.6890727455201434 -0.5416142722132338
19722973 0.6872487179281824 -0.5439669753283187
19727010 0.6853615166112389 -0.5460560839857178
19731046 0.6834604897364369 -0.54824798155923
19735083 0.6820714404482693 -0.5508273541683436
19739120 0.6801861561315196 -0.5530737846725865
19743156 0.6778825084975967 -0.5550854063290139
19747193 0.6767632880943483 -0.5572650652856541
19751230 0.674668944879928 -0.5597161105205976
19755266 0.6729270829831221 -0.561819289562114
19759303 0.6711732689529426 -0.5642059490206018
19763340 0.6692863937198914 -0.5664726621084143
19767376 0.6671912938319537 -0.5685553778181355
19771413 0.6655158545236955 -0.5706448833475357
19775450 0.6637163765805216 -0.5729539191735441
19779486 0.6616092649354641 -0.5750458310696918
19783523 0.6596730567303454 -0.5772465329597474
19787560 0.6579671906468404 -0.5794563180703148
19791596 0.6561600112910078 -0.5815281834650965
19795633 0.6540001490036114 -0.5836465903864602
19799670 0.6525599587195253 -0.5858840612219451
19803706 0.6502763024447307 -0.5879294146178325
19807743 0.6485630009592809 -0.5900280482935739
19811780 0.6464269845008792 -0.5921080190299641
19815816 0.6448852141620043 -0.5944876280257876
19819853 0.6428479026215804 -0.5965448897675293
19823890 0.6406623342417309 -0.5985991388777143
19827926 0.6388181810434129 -0.6007026598406602
19831963 0.6369128918745764 -0.6029102633982859
19836000 0.6346851303947063 -0.6049238625892821
19840036 0.6330369002115209 -0.6071964121093841
19844073 0.6307935580547684 -0.6090376569608362
19848110 0.6287197025989265 -0.6112151687652243
19852146 0.6267744579578088 -0.6130274544329106
19856183 0.6250287048773435 -0.6154166771672458
19860220 0.6229352470837517 -0.6172400467725713
19864256 0.6207365387843075 -0.6192139958609436
19868293 0.618905504245993 -0.6214377731253483
19872330 0.6167843902949086 -0.6235120221049184
19876366 0.614990315757045 -0.6254119286761705
19880403 0.6125866946735452 -0.6275163998360233
19884440 0.6107612063372552 -0.6294657456003552
19888476 0.6086211273866045 -0.6316543276099738
19892513 0.6064954598925529 -0.6334729650126613
19896550 0.6044426229684622 -0.6355040662241618
19900586 0.6027255708515015 -0.6375884145456091
19904623 0.6003515761960282 -0.6394063435546681
19908660 0.598237859331368 -0.6415089465058478
19912696 0.596026214356218 -0.6432191519447531
19916733 0.593959011527427 -0.6453027715729596
19920770 0.5918738967305045 -0.6472219032339345
19920770 0.5914353117299457 -0.647141300342181
19924890 0.5900496009622573 -0.6492334511721166
19929010 0.5876212610758748 -0.6513100112775787
19933130 0.5854428713586455 -0.6529447169392851
19937250 0.5833278205991493 -0.6552004777851106
19941370 0.581170977000801 -0.6570805716516271
19945490 0.5788052860533589 -0.6591135881340986
19949611 0.5767247420415202 -0.661010673080146
19953731 0.5745167123962316 -0.6628519888820401
19957851 0.5723542066928977 -0.6648499481288139
19961971 0.5702754479786629 -0.6668319698102437
19966091 0.5682426715557847 -0.6689739009919702
19970211 0.5654852657843836 -0.6706279008995509
19974332 0.5630837754955577 -0.6724865513134182
19978452 0.5612367655464128 -0.6742821549238442
19982572 0.5586867635028956 -0.6762248107025279
19986692 0.556457600294955 -0.678183934962128
19990812 0.5543098006749485 -0.679944663146306
19994932 0.55190899709947 -0.6817980170844975
19999053 0.5494870892665118 -0.6835109961579137
20003173 0.5473792996441855 -0.6852680830005735
20007293 0.5452747257839019 -0.6875151833576832
20011413 0.5429115849418512 -0.6889854364837887
20015533 0.5405124381156848 -0.6907448343370488
20019653 0.5381957918461417 -0.692848548769634
20023774 0.5358852352120073 -0.6944778022123638
20027894 0.5336655706593878 -0.6962687111062225
20032014 0.5313037850104047 -0.6981237358261172
20036134 0.5288901028736377 -0.6997400739754241
20040254 0.5265351653908869 -0.7015737538981727
20044374 0.524254944218195 -0.7030038978224152
20048494 0.521694323171969 -0.7055417358974417
20052615 0.5193722270708421 -0.7069398300678504
20056735 0.5173086421850638 -0.7087859709275581
20060855 0.5145820791578404 -0.710400152357798
20064975 0.5123052078588294 -0.7119119354882476
20069095 0.5098168345063127 -0.7138185117688325
20073215 0.5076866395407728 -0.7156301040853777
20077336 0.5052266616493195 -0.7172636449352592
20081456 0.5026528900883127 -0.7186239137048644
20085576 0.50031577696403 -0.7204273106530903
20089696 0.49797109326867567 -0.7222290284750219
20093816 0.4954632245684075 -0.7238098035885007
20097936 0.4932839307187612 -0.7254962408991983
20102057 0.490809510302007 -0.7272664351385812
20106177 0.488244062985286 -0.72874238738823
20110297 0.4858293105039918 -0.7302520902547726
20114417 0.48308646480970274 -0.7319233003450701
20118537 0.4811215587886172 -0.7337489885293532
20122657 0.4784649787577669 -0.7351120262137251
20126778 0.47610274812482756 -0.7366559876512682
20130898 0.47352310676629844 -0.7384843056356458
20135018 0.4709488483845033 -0.7403019086620758
20139138 0.4685711711128789 -0.7416483846053444
20143258 0.46602822178674147 -0.7432259768218717
20147378 0.4635610106685936 -0.7444292059080703
20151498 0.4611238444547023 -0.7461718541461353
20155619 0.45854103322602335 -0.7475894346246149
20159739 0.45612841879662197 -0.749252245059206
20163859 0.45354323268689933 -0.7506647001913168
20167979 0.4510414965359286 -0.7521233152259826
20172099 0.4486341543675408 -0.7538051552498243
20176219 0.4457155911040626 -0.7552622514469558
20180340 0.44331272164816105 -0.7566713105191345
20184460 0.4408433297062802 -0.7581577538654461
20188580 0.4382571103651506 -0.7596789832520728
20192700 0.4357734459010871 -0.7608307145701672
20196820 0.4331179047377594 -0.7624621201653623
20200940 0.4306326385982922 -0.7639005914511288
20205061 0.4280556421271266 -0.7653223812474371
20209181 0.4256588117107988 -0.7667398084847593
20213301 0.4231156931672831 -0.7682150772837529
20217421 0.4205485719495077 -0.7697983832272491
20221541 0.41799610068776166 -0.7710268495737285
20225661 0.4152881320235125 -0.7722473828554391
20229782 0.41261935066848426 -0.7738243531711478
20233902 0.41008541619182803 -0.774963222233141
20238022 0.4077601807390491 -0.7763040636777074
20242142 0.40500272389010783 -0.7779073171335977
20246262 0.40234261235888363 -0.7788775378466438
20250382 0.3997104988457859 -0.7803019692695331
20254502 0.39693231322975403 -0.7817853897661385
20258623 0.3944684148480093 -0.7830093598496858
20262743 0.39199346935824186 -0.7841913392741531
20266863 0.3888355612588972 -0.7856270347429056
20270983 0.3864436638389275 -0.7868257234669999
20275103 0.38388308266488547 -0.7880673919466631
20279223 0.3810963816638207 -0.789434176688633
20283344 0.3783645506111827 -0.7907183549335025
20287464 0.37601813039349574 -0.7920695072637853
20291584 0.37312742306000046 -0.7931487439640788
20295704 0.3704524568049183 -0.7943318325995573
20299824 0.36786510705427516 -0.7954525449497538
20303944 0.36539152163177707 -0.7971115940019468
20308065 0.3622476120317187 -0.7982094064107986
20312185 0.36008464512679556 -0.799069850730629
20316305 0.3571350959795679 -0.8004229816997049
20320425 0.3545592505937542 -0.8015993558185767
20324545 0.3517576719066361 -0.8031284959607564
20328665 0.34919464786771093 -0.8040397030280736
20332786 0.34650925239718927 -0.8050858111500415
20332786 0.346608718943789 -0.8048017491917142
20336991 0.34386639367710364 -0.8063333000490078
20341196 0.34107993253278207 -0.807164609796822
20345402 0.3382140886310796 -0.8085591455770814
20349607 0.3355783961682005 -0.8098499368209332
20353812 0.33265195491497357 -0.8108403497420318
20358018 0.3298305330920982 -0.8118965455715524
20362223 0.32710983041058034 -0.8131777587652952
20366428 0.3243724803288498 -0.8142057177716372
20370634 0.32168263775227246 -0.8154371416115123
20374839 0.31890438621133915 -0.8164997043074658
20379045 0.3160945348259744 -0.8173018417768023
20383250 0.3134332815330825 -0.8182635566390727
20387455 0.31030330280475893 -0.8195297588818775
20391661 0.3074897703290853 -0.820525296452872
20395866 0.30474663631997934 -0.82158043716738
20400071 0.30204875939131354 -0.822624740145611
20404277 0.2990818411810868 -0.8234974841924909
20408482 0.296060250341273 -0.8242537318555276
20412688 0.29371403296968634 -0.8258210361623851
20416893 0.29041265093995916 -0.8267986755171964
20421098 0.28796162279954307 -0.8274579006723185
20425304 0.28505209720778385 -0.8285578773001611
20429509 0.2820911497495612 -0.8294116190303774
20433714 0.2792672606128794 -0.8304957281219361
20437920 0.27667952849904953 -0.831411408383959
20442125 0.2735803069752109 -0.8322515446187598
20446330 0.2709222484153762 -0.8332867448734688
20450536 0.2679359815336211 -0.8341235267503986
20454741 0.2651662507188167 -0.8348628868511986
20458947 0.2622725480257434 -0.8357766684986558
20463152 0.2594968733884782 -0.8367380389744413
20467357 0.25656327862990613 -0.8377838229297649
20471563 0.25338348864158655 -0.8387503832755003
20475768 0.2507464054827153 -0.8395522719696056
20479973 0.24804745662981212 -0.8405190969169329
20484179 0.245377657331715 -0.8412558325022693
20488384 0.24210657749350156 -0.8419798245473514
20492590 0.23943643850904991 -0.8427180381824958
20496795 0.23655826295288646 -0.8435709584711804
20501000 0.23338849491282482 -0.8440705799263468
20505206 0.23040206814372946 -0.8450876058592309
20509411 0.22774255098309173 -0.8460341696284475
20513616 0.22467116976674775 -0.846422295706386
20517822 0.22193116740463287 -0.8475098751718024
20522027 0.21916982369353616 -0.8481680483278623
20526233 0.2165472314647571 -0.8491110701716577
20530438 0.21346279706325622 -0.8496639020816895
20534643 0.2103093028826776 -0.8504982376302146
20538849 0.2075267801501559 -0.850964939436226
20543054 0.20449084419413868 -0.8515879857922272
20547259 0.20168562027076728 -0.8525297055112048
20551465 0.1987678981989789 -0.8527093861405952
20555670 0.1957030028568352 -0.8537168049876247
20559875 0.1928749317801875 -0.8547495775867242
20564081 0.18986074552215013 -0.8549360429532976
20568286 0.18722086161998752 -0.8556716982439352
20572492 0.1841194595952923 -0.8563176758624813
20576697 0.1808686276431944 -0.8565897715273048
20580902 0.178225559848313 -0.8573089103469824
20585108 0.17504909526106657 -0.8580156535757597
20589313 0.17238531586486797 -0.8587558533540968
20593518 0.16939741409616305 -0.8591856530452301
20597724 0.16630423927953739 -0.8596133390362966
20601929 0.16360762144240965 -0.8601810823720714
20606135 0.16078247713398683 -0.8608103474632365
20610340 0.15756188407810903 -0.8615107944643815
20614545 0.15483724836548196 -0.8618931743967836
20618751 0.15195832009516488 -0.862139903455721
20622956 0.14877853631837087 -0.8629602992734543
20627161 0.14597082608343043 -0.8633860956031622
20631367 0.14294613505781803 -0.8641216064767233
20635572 0.14011513559060884 -0.8642657372532256
20639778 0.13703280104780527 -0.8649770253673806
20643983 0.13421419586719807 -0.8654449819571807
20648188 0.1310522130574206 -0.8656283917125636
20652394 0.12839660821749166 -0.8663071814529893
20656599 0.12526231085940276 -0.8665506636217202
20660804 0.12220123996720121 -0.8669946128856275
20665010 0.11923008094413441 -0.8673315747669741
20669215 0.11623071770771233 -0.8677132168122463
20673420 0.11320815571322328 -0.8680892240318393
20677626 0.11045208439934932 -0.8685347711344772
20681831 0.10763041781313284 -0.8687354070585802
20686037 0.10460233150017458 -0.869387153311785
20690242 0.10146340599003309 -0.8697067031990556
20694447 0.09852109359223228 -0.8700508132727623
20698653 0.0954615296409954 -0.8702627149953867
20702858 0.09239900443365667 -0.8703725293362969
20707063 0.08950481527280633 -0.8707895189569993
20711269 0.08655424913498551 -0.8713749729139635
20715474 0.08365083418249222 -0.8712765455517282
20719680 0.0807781724254743 -0.8717296871124383
20723885 0.07752393479887804 -0.8721027179284312
20728090 0.07485270495110591 -0.8721826047502147
20732296 0.07165784425417047 -0.872532381648394
20736501 0.06892925126971206 -0.8727269053636318
20740706 0.0657359994111655 -0.8729462217055934
20744912 0.0627057177041769 -0.8731561302306744
20749117 0.059549663310173674 -0.8731676640059387
20753323 0.05665466094719889 -0.873293113525332
20753323 0.05638119797857338 -0.8733106151693905
20757615 0.053741987706057086 -0.8735743391264615
20761907 0.0507187589873269 -0.8738782177844899
20766200 0.04773346565357643 -0.8740154921440269
20770492 0.04469690526208982 -0.87453419296463
20774784 0.041709981331704386 -0.8743502026268027
20779077 0.03863667839562057 -0.8744828542405486
20783369 0.03532653162175271 -0.8748250861864301
20787661 0.03238773077478666 -0.8746631504129324
20791954 0.02939951767623473 -0.8745510340613807
20796246 0.026508699194504142 -0.874991816052594
20800538 0.02331522925358826 -0.8747097125603271
20804831 0.02000259885533649 -0.8750115562204662
20809123 0.017123651843637882 -0.8749835588306814
20813415 0.014155817046504857 -0.87504515257514
20817708 0.011100748242967376 -0.8751226040317474
20822000 0.008254446728877958 -0.875268264866628
20826292 0.005041797802680152 -0.8749746390783374
20830585 0.00190705957170007 -0.8751323616493349
20834877 -0.0012439656647386511 -0.8753413229973459
20839170 -0.004323099269969459 -0.8752587928995119
20843462 -0.007265161803294129 -0.8749593548082517
20847754 -0.010394253770112456 -0.8749906780242328
20852047 -0.013299221399062706 -0.8749299459975556
20856339 -0.016410793102666466 -0.874663147863691
20860631 -0.01949760862393912 -0.8747061598479996
20864924 -0.02241271928436166 -0.8746990214758036
20869216 -0.025658286758002927 -0.8745924066972494
20873508 -0.028528422168955923 -0.8745011973061401
20877801 -0.03165676885634573 -0.8742738484657282
20882093 -0.034587173466349326 -0.8743069984062304
20886385 -0.03770707327086465 -0.8742432202706627
20890678 -0.040846581927471766 -0.8740032578900829
20894970 -0.04386594937000102 -0.873793784467896
20899262 -0.04678485699058989 -0.8734322430743642
20903555 -0.04968520095470202 -0.8735451253879377
20907847 -0.05299873048536163 -0.8733668483356223
20912139 -0.055977653308150355 -0.8731688951091695
20916432 -0.058987145425767246 -0.8728578945227232
20920724 -0.06224401733850907 -0.8726459365992472
20925017 -0.06517838042142271 -0.8723254552754051
20929309 -0.06818800319339131 -0.8721500019526175
20933601 -0.07098162449086919 -0.8716992394581208
20937894 -0.07419697852522514 -0.8715802703645709
20942186 -0.07731559669363879 -0.8713152093849631
20946478 -0.08015865709912813 -0.871116801271783
20950771 -0.08299461192710224 -0.870928612275793
20955063 -0.08615366109490821 -0.8703407716329458
20959355 -0.08953190808594823 -0.8698646037917672
20963648 -0.09253619684399633 -0.8696046915791141
20967940 -0.09525768400942551 -0.8692122574995572
20972232 -0.09819613457771288 -0.8692597586910852
20976525 -0.10137908266040017 -0.86878939906707
20980817 -0.10443494181558913 -0.8681448681597004
20985109 -0.10742081870391403 -0.8678511452522629
20989402 -0.11060741476789196 -0.8674321344550309
20993694 -0.11329385684760775 -0.8669376702994352
20997986 -0.1163871722457347 -0.8667436266512868
21002279 -0.11943830093690215 -0.8659575002624134
21006571 -0.12252640365897492 -0.8656593792869068
21010864 -0.12565585539295296 -0.8652346065642796
21015156 -0.12858919579798694 -0.8647315143877731
21019448 -0.1315046216498437 -0.8644669067637732
21023741 -0.13476696404353172 -0.8638518338274611
21028033 -0.13748898706460047 -0.8633916166424964
21032325 -0.14070801324567642 -0.8631014880620713
21036618 -0.14397103962224808 -0.862297649095791
21040910 -0.14661415446306159 -0.8618615684995662
21045202 -0.14948912744315485 -0.861229390140903
21049495 -0.15244360532693688 -0.8605008570295061
21053787 -0.15574744827725617 -0.8603062584943167
21058079 -0.15852426448202092 -0.8594856009825363
21062372 -0.1615732170579822 -0.8589488493876759
21066664 -0.16459144954809726 -0.8582967053156285
21070956 -0.16743743780921555 -0.857573879425623
21075249 -0.1706054201721974 -0.8572714263216759
21079541 -0.1733913518665158 -0.8565089529045398
21083833 -0.17660420956303846 -0.8561417221305917
21088126 -0.17916220563099614 -0.8552479987593169
21092418 -0.18227695523918036 -0.8544086542779024
21096711 -0.1851028486816692 -0.8540780315505218
21101003 -0.18805615303118176 -0.8532817131374761
21105295 -0.19140795597165627 -0.852663347477412
21109588 -0.19437914722168187 -0.8517890181465265
21113880 -0.19732964582358284 -0.8512828269306818
21118172 -0.20008370329741548 -0.8505863160402839
21122465 -0.20303397397192094 -0.8498889465105904
21126757 -0.206052631035819 -0.8488766461564702
21131049 -0.2089773952066317 -0.848368506008226
21135342 -0.21197004212562057 -0.8475633609741069
21139634 -0.21504528854150146 -0.8469793450193686
21143926 -0.21835619154621794 -0.8458240988270824
21148219 -0.22072617837157266 -0.8449637402784894
21152511 -0.22397471403636077 -0.844444479013359
21156803 -0.2268074014479782 -0.8433556812266424
21161096 -0.22973907554837708 -0.8425582107327175
21165388 -0.23240948098538955 -0.8418693984551359
21169680 -0.23543503830150084 -0.841011032587771
21173973 -0.238221358118795 -0.8399123992348313
21178265 -0.24136793993676653 -0.8392896019420658
21182558 -0.24428717601378722 -0.8384416259532703
21182558 -0.2440133275643631 -0.8378460904189262
21186939 -0.24675200864460672 -0.837742457597948
21191320 -0.250153889608834 -0.83666997477825
21195701 -0.2529789566343298 -0.8356792619675788
21200082 -0.25595496245522803 -0.8349792537138655
21204463 -0.25905716976034376 -0.8338217245623046
21208844 -0.2617897007732271 -0.8331790932356185
21213225 -0.2649645642259072 -0.8317920314993479
21217606 -0.26778842361468413 -0.8307138559423358
21221988 -0.27096022021969174 -0.8298971451052738
21226369 -0.27346631652676084 -0.8291795027331936
21230750 -0.2766271023758068 -0.8279151761483977
21235131 -0.27957950829550643 -0.8269501898012754
21239512 -0.28268623080117083 -0.8259728696367091
21243893 -0.28549099381670784 -0.8249732012376048
21248274 -0.2884204297245703 -0.8238103960565151
21252655 -0.291425257365321 -0.822877616936938
21257037 -0.2943870824483136 -0.8216470605954361
21261418 -0.296925806283512 -0.8207536233236372
21265799 -0.3000289576436147 -0.8195835661965186
21270180 -0.3029406583416859 -0.8184262440510762
21274561 -0.3059093157968945 -0.8171745117606525
21278942 -0.30863856381257493 -0.8161190761239734
21283323 -0.31157237975470586 -0.815309849274958
21287704 -0.31439463667536033 -0.8138819326943314
21292086 -0.31749925863520956 -0.8120546166597034
21296467 -0.32028179309631244 -0.81173883550082
21300848 -0.32306193690206375 -0.8106379364964686
21305229 -0.3259749410979463 -0.8095640218999003
21309610 -0.3288173541980818 -0.8081280745891096
21313991 -0.3315113221830685 -0.8068183232744424
21318372 -0.3345959235514273 -0.8057405948089927
21322753 -0.3374567654101111 -0.8045320504967205
21327134 -0.3402489769758747 -0.8032494491591237
21331516 -0.3432578631039901 -0.8020406084508808
21335897 -0.3459350872493027 -0.8005089553916759
21340278 -0.34856577040090303 -0.7995991360903645
21344659 -0.3517335500003648 -0.7985671228959043
21349040 -0.3546092945276748 -0.7969923287868521
21353421 -0.35735366576186595 -0.7959309796321201
21357802 -0.3598504874891202 -0.7945147040701155
21362183 -0.3629341064584247 -0.793071507591388
21366565 -0.3657894495605788 -0.7916713730636175
21370946 -0.36870982831610233 -0.7903749362973382
21375327 -0.37154346955469236 -0.7891371783243238
21379708 -0.37413465066825524 -0.7878977934208422
21384089 -0.37681015975400645 -0.786427916409308
21388470 -0.3797729535303122 -0.7849328289046774
21392851 -0.38239317164932873 -0.7836469991313777
21397232 -0.38499875491359264 -0.7823159400755794
21401614 -0.387921887353173 -0.7807290425705625
21405995 -0.39085939944456044 -0.7795326466514074
21410376 -0.393593811015072 -0.7781461608418716
21414757 -0.3962879985856075 -0.7769926059701939
21419138 -0.39895369059467745 -0.7750494838894175
21423519 -0.40202840470266515 -0.77389810584521
21427900 -0.4045322079688169 -0.7721556707287334
21432281 -0.4070857335273542 -0.7707155604935052
21436662 -0.40969019881688934 -0.7693336841529267
21441044 -0.41288004801285183 -0.767895808398893
21445425 -0.41532538726422685 -0.7663247301642937
21449806 -0.4180497959882164 -0.7649903617966866
21454187 -0.42066227497562425 -0.7634840121612049
21458568 -0.42331784772646464 -0.7616590544248768
21462949 -0.42615859483701735 -0.7602701892004605
21467330 -0.428593671712962 -0.7585321433480128
21471711 -0.43145154809498787 -0.7570104954284258
21476093 -0.43397910093181896 -0.7555873228978094
21480474 -0.436566012254502 -0.7538496984811439
21484855 -0.43933249304695005 -0.7526440005744669
21489236 -0.4419364449846039 -0.7509294993134756
21493617 -0.4448428794317004 -0.7491005684773437
21497998 -0.44734643774495547 -0.7475177977008857
21502379 -0.44990102550123645 -0.7463778608226028
21506760 -0.452574023065896 -0.7444234850163967
21511142 -0.45522658885152756 -0.7426246490709828
21515523 -0.4578158641582587 -0.7408291019758333
21519904 -0.46036868561133487 -0.7395108182741251
21524285 -0.462949364854732 -0.7378391315174637
21528666 -0.46577547727730695 -0.7361812237410766
21533047 -0.4683905259118057 -0.7345777337788889
21537428 -0.4708427163385348 -0.7328478943403136
21541809 -0.4734016467583839 -0.7312863813012539
21546190 -0.4758685137892576 -0.7289109957046322
21550572 -0.47864011783382127 -0.7272958686371281
21554953 -0.48104317527545654 -0.7259035177712987
21559334 -0.483529336003472 -0.724170883790686
21563715 -0.4863297356584057 -0.7224529630818102
21568096 -0.4887441603755713 -0.720870647504698
21572477 -0.49131567847351404 -0.718774139045212
21576858 -0.4938969761683256 -0.717135208801706
21581239 -0.49633643078681594 -0.7152737499377279
21585621 -0.4984400353433608 -0.7135908774796959
21590002 -0.5013265972697152 -0.7115091701676277
21594383 -0.5039498770254236 -0.7100499088042905
21598764 -0.5061911644550858 -0.7080226406860369
21603145 -0.5087598903682174 -0.7060699013869023
21607526 -0.5113877217529097 -0.7043710296238151
21611907 -0.5136537450688305 -0.7025617533060337
21616288 -0.5162149532407111 -0.7006674453850913
21620670 -0.5187954845157784 -0.6987587798641505
21620670 -0.5185304069037897 -0.6988874915242423
21625141 -0.5212946339509251 -0.6968780199517723
21629613 -0.5236521026387584 -0.695068438801882
21634085 -0.5262180264665499 -0.6928809045386985
21638556 -0.5285640728763963 -0.6910144336215899
21643028 -0.5313148074207102 -0.6893612403703674
21647500 -0.5336488212897865 -0.6873312171746205
21651972 -0.5358895718605233 -0.6856063896130602
21656443 -0.5384658755289781 -0.6833120517562639
21660915 -0.5410337770020524 -0.6811314083281038
21665387 -0.543237616692295 -0.6790890814805938
21669859 -0.5458297183802666 -0.6775720517802838
21674330 -0.5480786802878552 -0.6752743454887175
21678802 -0.5505749762954523 -0.673169016503727
21683274 -0.5532025021350802 -0.6713252000133115
21687746 -0.5555686954620058 -0.6695370880455552
21692217 -0.5577816135061234 -0.6676987258382774
21696689 -0.56020889373976 -0.6649552970481389
21701161 -0.5626182674377153 -0.6633703394981094
21705633 -0.5650045386445947 -0.6610139039799027
21710104 -0.5674073600728126 -0.6589778322951709
21714576 -0.5699076042515644 -0.6570665717852299
21719048 -0.5718940172130811 -0.6547174078957823
21723520 -0.5743207594972302 -0.652847924314454
21727991 -0.5766172188349338 -0.6505107210565518
21732463 -0.57885077671275 -0.6485721423030734
21736935 -0.5812030822548023 -0.6463017045705951
21741406 -0.5835325798720656 -0.6443951492846945
21745878 -0.5859010348372622 -0.6419138444158348
21750350 -0.5883312709384639 -0.6402652520632791
21754822 -0.5904963013974803 -0.637872300533006
21759293 -0.5927440446368338 -0.6355521674021515
21763765 -0.594933121042659 -0.6336949512433341
21768237 -0.597277450358392 -0.6313040019477322
21772709 -0.5996445253493635 -0.6291365480307843
21777180 -0.6019007792141545 -0.6270535265586766
21781652 -0.6040497952556879 -0.6249627279129943
21786124 -0.6062040250835563 -0.6223159710140402
21790596 -0.6084942864309764 -0.6202546404113416
21795067 -0.6106720587513682 -0.6182891486786332
21799539 -0.6130213927640606 -0.6158500252203756
21804011 -0.6149524163294864 -0.6136692142499599
21808483 -0.6173495092931329 -0.6113904652473701
21812954 -0.6194088829245612 -0.6091391892415717
21817426 -0.6217233479654739 -0.6066375152710292
21821898 -0.624027947813027 -0.6046927586486432
21826370 -0.6257928070051622 -0.6021395227174167
21830841 -0.62792016706463 -0.6000611998623605
21835313 -0.6302421871689704 -0.5977316053601972
21839785 -0.6321987953850522 -0.5951544064536601
21844257 -0.6344854047482726 -0.5928493110019607
21848728 -0.6366655743510125 -0.590618530596587
21853200 -0.638510902364583 -0.5883654092151517
21857672 -0.6406039480172051 -0.5858797595832205
21862143 -0.6427801213276786 -0.583488027670067
21866615 -0.6449190934427719 -0.5814067608178515
21871087 -0.646677409738675 -0.578805030298018
21875559 -0.6490044329199323 -0.5764188982114674
21880030 -0.6511135407174117 -0.5742393178914635
21884502 -0.6529966879234381 -0.571833990725511
21888974 -0.6549575598128263 -0.5695724503877877
21893446 -0.6569562496850322 -0.5670024292546477
21897917 -0.6591767181944121 -0.5647639256144007
21902389 -0.6609766199266155 -0.5623257171294241
21906861 -0.6631475178119517 -0.5596794282938579
21911333 -0.6652332575659625 -0.557146647171746
21915804 -0.6670392189006227 -0.555061777440907
21920276 -0.6689000272740617 -0.552330872820689
21924748 -0.6709407119315371 -0.5500911784693591
21929220 -0.6728983518917198 -0.5477929498222459
21933691 -0.6750361112918332 -0.5453560750562355
21938163 -0.6769534441940473 -0.5427107147456696
21942635 -0.6786030157452483 -0.5402480063279638
21947107 -0.6805249367748989 -0.5380070026122588
21951578 -0.6824162330513956 -0.5352785052858038
21956050 -0.6845184856712146 -0.5328901689085501
21960522 -0.6863333103542727 -0.5303980935123657
21964993 -0.6880686613207105 -0.5276581617865489
21969465 -0.6900796174204801 -0.5254222092163138
21973937 -0.6918568120290106 -0.5228603820436307
21978409 -0.6935624562348089 -0.5201877721735909
21982880 -0.6955999035120319 -0.5177521851427709
21987352 -0.69731965593604 -0.5150960587978173
21991824 -0.6989535085019329 -0.5126685211753077
21996296 -0.701060702136241 -0.5101796855713477
22000767 -0.7029672090185136 -0.5076145526345426
22005239 -0.7045644296945469 -0.5051113513664274
22009711 -0.7062897130842017 -0.5023831955444555
22014183 -0.7080066945994614 -0.4998511810849258
22018654 -0.7098581212059172 -0.497420444836709
22023126 -0.7117170718282362 -0.49465189674934784
22027598 -0.713362651011407 -0.492187911409914
22032070 -0.7149605634407179 -0.48954100572402626
22036541 -0.7165452446403963 -0.4869808135179886
22041013 -0.7185339838546162 -0.4843018432452438
22045485 -0.7201341266870508 -0.4816867875677804
22049957 -0.7218729419443423 -0.4791980500021159
22054428 -0.7235838764383187 -0.47645070985084187
22058900 -0.7251498379718038 -0.4737812029373251
22063372 -0.7269336967294229 -0.4712981471897948
22067844 -0.7286187487770593 -0.46831373162600703
22067844 -0.7279057370105441 -0.46828486655615253
22072408 -0.7301068031388271 -0.4661937111754783
22076972 -0.7318713623704802 -0.46315206811980186
22081536 -0.7336029893296252 -0.4606154185195247
22086100 -0.7352379825511126 -0.4577507282141315
22090665 -0.7366452209879295 -0.4551259073605847
22095229 -0.7384590266509071 -0.4522363368448486
22099793 -0.7400618851481241 -0.449513404851235
22104357 -0.7417110982814318 -0.4469040535404575
22108922 -0.7433210941109305 -0.44402911081226204
22113486 -0.7448249283853408 -0.44134822135707136
22118050 -0.7464790096405006 -0.4385763026150919
22122614 -0.7482005432598772 -0.4359550346984607
22127178 -0.7494878513774228 -0.43287610947727334
22131743 -0.7510124855541188 -0.43029846446211323
22136307 -0.7526790178139672 -0.427424716579113
22140871 -0.7541861661340268 -0.4245064308680168
22145435 -0.7556337195559554 -0.4216860092524351
22150000 -0.7572813364439058 -0.41900961733452236
22154564 -0.7585847009075123 -0.41611863388351156
22159128 -0.7601898813194065 -0.41347203591668485
22163692 -0.7616720765933794 -0.4106400921393537
22168257 -0.7631824776791889 -0.4078234157184804
22172821 -0.7645557161896152 -0.40497243248280684
22177385 -0.7660472174677 -0.4019369777103368
22181949 -0.7676190493173628 -0.399208952999868
22186513 -0.7689574240943412 -0.396635575696717
22191078 -0.7703340208516056 -0.39365473388798555
22195642 -0.7719732433067952 -0.3906822826868009
22200206 -0.7732590778377106 -0.3880971002625723
22204770 -0.7744566053963303 -0.3851053488012147
22209335 -0.7759610443696264 -0.38224749463598173
22213899 -0.7771446559905475 -0.37948716726143306
22218463 -0.7786118800119882 -0.37656539742496525
22223027 -0.7798074625775305 -0.37367164473308406
22227592 -0.7811081049536882 -0.37065979843647573
22232156 -0.7825239512197907 -0.3679416306023067
22236720 -0.7838400527266988 -0.36493074678798726
22241284 -0.7850333876761578 -0.36210802065485925
22245848 -0.7865114991152924 -0.359361905689129
22250413 -0.7875688184874676 -0.35627708847606726
22254977 -0.788886649717176 -0.35322307637528033
22259541 -0.7902117964097113 -0.3505066053689742
22264105 -0.7915373471594609 -0.34756423107781326
22268670 -0.7927349758600664 -0.3445802994069946
22273234 -0.793967314498417 -0.34186661046040173
22277798 -0.7952060623783765 -0.33874035011856785
22282362 -0.796255308673574 -0.33591922652282113
22286927 -0.7974424430786321 -0.33303086980027485
22291491 -0.7988883491028459 -0.329975443011605
22296055 -0.7999076340572004 -0.32700089566465407
22300619 -0.8008367011683856 -0.3239959423838721
22305183 -0.8020056678770583 -0.32126236512626144
22309748 -0.803209204255943 -0.3182422258819646
22314312 -0.8045570787812867 -0.31510713912292243
22318876 -0.8054630092592696 -0.31230573425374014
22323440 -0.8064081580452961 -0.3092642170474613
22328005 -0.8077237028705455 -0.3062909553236597
22332569 -0.8087557915028664 -0.3035259839281618
22337133 -0.8099293259239028 -0.3003781628986841
22341697 -0.8110392019769489 -0.29740184605580466
22346262 -0.81190833598543 -0.29442932302872155
22350826 -0.8130491818172539 -0.2915438175369174
22355390 -0.8141721251357128 -0.2885955158359678
22359954 -0.8149190404489994 -0.2854605450198888
22364518 -0.8158804154495628 -0.2823787610063409
22369083 -0.8170728726544024 -0.2794058394159871
22373647 -0.8180386324315742 -0.2763635816776947
22378211 -0.8190814739764696 -0.27371278754654493
22382775 -0.8199341313431714 -0.2704523414183688
22387340 -0.8207866625866799 -0.26730545580104664
22391904 -0.8218996963842569 -0.2646302125597595
22396468 -0.8227468254158196 -0.2613456062704461
22401032 -0.8236903610452063 -0.2581911960883824
22405597 -0.8244157461629208 -0.25547886906740497
22410161 -0.8253170984731522 -0.25215609007616807
22414725 -0.8264082345031968 -0.24929921091530832
22419289 -0.8270669312226792 -0.24633390890019985
22423853 -0.8281798038881618 -0.24306562628280143
22428418 -0.8290345320181172 -0.24021665118124177
22432982 -0.8297768015583779 -0.23716111905747617
22437546 -0.8307667243222839 -0.23403852256182336
22442110 -0.8314286819877273 -0.23112056312268767
22446675 -0.8322154733051733 -0.22797577611813716
22451239 -0.8329564524362653 -0.22487669356520568
22455803 -0.833860006027969 -0.22176745326154912
22460367 -0.8344593165500848 -0.21886045642067975
22464932 -0.8352877498944943 -0.21577311139142788
22469496 -0.8362868802783735 -0.21279890692453818
22474060 -0.8366848089015316 -0.20965844539469536
22478624 -0.8376947781526038 -0.20640026835877823
22483188 -0.8385207752927715 -0.20350650686597202
22487753 -0.8390266042009771 -0.20050678836925215
22492317 -0.8399137056722453 -0.19732539338551433
22496881 -0.8404428604310429 -0.19429310780112988
22501445 -0.8409372282856024 -0.19104739111109983
22506010 -0.8417642368204995 -0.18802868250607568
22510574 -0.8423535617476761 -0.1849757275600612
22515138 -0.8429255439349398 -0.18179770664940187
22519702 -0.843683628140369 -0.17887110000222398
22524267 -0.8443990196336308 -0.17585266407931882
22524267 -0.8441854448989151 -0.175613978478369
22528925 -0.8447375325302435 -0.17256038515411654
22533584 -0.8454463065530271 -0.1693885136902855
22538242 -0.8459909018129784 -0.16625606739067844
22542901 -0.8464367872411381 -0.1629823639245428
22547560 -0.8474347014949873 -0.15984017524910235
22552218 -0.8479201767835198 -0.15685270038216095
22556877 -0.8484179654861734 -0.15341861687257513
22561536 -0.8489186815164229 -0.15056801242707715
22566194 -0.8495919422209158 -0.14724454779262575
22570853 -0.84981195175529 -0.14409057618007293
22575511 -0.8503296279809899 -0.14070747864821392
22580170 -0.8510793789313683 -0.13760685733932604
22584829 -0.8513509342657459 -0.13457018035025048
22589487 -0.8518906886533182 -0.13125781378017326
22594146 -0.8522700147133352 -0.12809725746012687
22598805 -0.8526468209136586 -0.1248004515564019
22603463 -0.8534344642501687 -0.12185426370322788
22608122 -0.8534705081442019 -0.11842770530562828
22612780 -0.8539827778213707 -0.11535606366798513
22617439 -0.8543014904216887 -0.11196166355163287
22622098 -0.8546777567599424 -0.10883093253915296
22626756 -0.854992548767426 -0.1058562690965135
22631415 -0.8555153600608396 -0.10240794659369816
22636074 -0.8557601383920383 -0.09937758595000583
22640732 -0.8560943030041204 -0.09598426107185715
22645391 -0.8564889906055053 -0.09305084437699478
22650050 -0.8568534926135759 -0.08976303514829297
22654708 -0.8570580498823243 -0.08655768053169224
22659367 -0.857251283683478 -0.08321015571852143
22664025 -0.8577647830840035 -0.08028208183215786
22668684 -0.8579495451681995 -0.07695011842213495
22673343 -0.8581868656669625 -0.07366121147827483
22678001 -0.8582960244405516 -0.07052581711032327
22682660 -0.8585228978713741 -0.06737094067776049
22687319 -0.8588633486096846 -0.06413792007383168
22691977 -0.8589356772225253 -0.06081907778789058
22696636 -0.8589975306100801 -0.057746673268049664
22701294 -0.8594779381819638 -0.05444854569105221
22705953 -0.8595219098372766 -0.05120330418842924
22710612 -0.8596029057880838 -0.04802647088728876
22715270 -0.8596677374221644 -0.044919879471896615
22719929 -0.8597181498722123 -0.04145999827118321
22724588 -0.8600279310921272 -0.03834024080081704
22729246 -0.8600445518593208 -0.03540118916118064
22733905 -0.8601527884902407 -0.03200691622765464
22738563 -0.8601355029261964 -0.028969742242962327
22743222 -0.8603108874160651 -0.025547469799950838
22747881 -0.8602797883127092 -0.022481291489440034
22752539 -0.8604493102071475 -0.019190422280026855
22757198 -0.8604182941971589 -0.016127752041964413
22761857 -0.860408025161792 -0.012728970355078207
22766515 -0.8605629697465945 -0.009584932030369142
22771174 -0.8601522065900978 -0.006359446110989888
22775833 -0.860293267178071 -0.0032016729854663513
22780491 -0.8601788424035646 0.00015409036242827707
22785150 -0.8602412755585407 0.0033222962481253573
22789808 -0.8602588210876173 0.0065260429934239274
22794467 -0.8601116930604586 0.009703496233596908
22799126 -0.8599601121197055 0.012835428011818141
22803784 -0.8600886317968967 0.01617861676149608
22808443 -0.8598673686923155 0.01916370898844216
22813102 -0.859622639234046 0.022428037101981824
22817760 -0.859549055481606 0.025783152062990557
22822419 -0.8594802078906267 0.028851894855637987
22827077 -0.8591809325789759 0.03223388618217277
22831736 -0.8590850076885937 0.035350968863689186
22836395 -0.8589963963407273 0.03850432546905011
22841053 -0.858655888989945 0.041657583235358266
22845712 -0.8583969631241963 0.04496739730018841
22850371 -0.8583103980000992 0.04786712831888384
22855029 -0.8581544745901508 0.05121101078236683
22859688 -0.858045716805928 0.054595401401457216
22864346 -0.8573465453369263 0.05753582171183933
22869005 -0.8573436354358066 0.060923465817208214
22873664 -0.8571740142953548 0.06409475207801006
22878322 -0.8567126032612715 0.06736147344017719
22882981 -0.8563858511551505 0.07026708090636724
22887640 -0.8561991665753717 0.07367158537033912
22892298 -0.8556147626537136 0.07681185717387855
22896957 -0.855279574497356 0.07997806500136638
22901616 -0.8550293201500258 0.08305777096251228
22906274 -0.8547968329812649 0.08620119219055293
22910933 -0.854526058963142 0.0895622910810551
22915591 -0.8539213142971701 0.09252881501982939
22920250 -0.8533051538260661 0.09590741867526836
22924909 -0.8531710739464285 0.09887702654861746
22929567 -0.8525250505811546 0.10211245404181328
22934226 -0.8522239464578095 0.10519551278154558
22938885 -0.851849347262844 0.10844067768943672
22943543 -0.8513811752581318 0.11179646199436157
22948202 -0.850864384198203 0.11472374764989399
22952860 -0.850446880728551 0.11804235795971016
22957519 -0.8499431264741125 0.1211149893258601
22962178 -0.8491168339195304 0.1243734004407403
22966836 -0.8488866246783552 0.12742441666680057
22971495 -0.8483916577570748 0.1305520994817419
22976154 -0.8478227372637658 0.1338286779213058
22980812 -0.8473013420368265 0.13676869767418057
22985471 -0.8466864943979232 0.14009435646453014
22990130 -0.8461502135351071 0.14307933483367932
22990130 -0.8465967290919039 0.14359124868300363
22994884 -0.8455356387562427 0.14644268830589713
22999639 -0.8449919458481695 0.1493764783159317
23004394 -0.8446225372130379 0.15285822564789506
23009149 -0.8437273847936496 0.1558199192973018
23013904 -0.84326293751246 0.15922531511219842
23018659 -0.8424508681778695 0.16225896234368126
23023414 -0.8418326967794912 0.16557556080727553
23028169 -0.841216346372989 0.16865333658052273
23032924 -0.8402907256185699 0.17194187614958664
23037679 -0.8396946004886603 0.1751189593651414
23042434 -0.8390308605555252 0.17827100789361783
23047189 -0.8383680703609666 0.1813402894798543
23051944 -0.8376662803860507 0.18469673392249308
23056699 -0.836936489718998 0.1877474158406044
23061454 -0.8358287949214864 0.19078750685739473
23066209 -0.8352188161752295 0.1939712541947164
23070964 -0.8346075397441223 0.1972824631599319
23075719 -0.8335608323437705 0.20030132600258363
23080474 -0.8328246362739139 0.20347651977423845
23085229 -0.8320826482096187 0.20657233656493287
23089984 -0.8313037130927662 0.20971518462350805
23094739 -0.8302773925399545 0.21273161605715193
23099494 -0.8294971919275834 0.2160629329590783
23104249 -0.8285290202293407 0.21914715093886256
23109004 -0.8277114188396617 0.22240449100232426
23113759 -0.8268515703298713 0.2254356765701422
23118514 -0.8259823999787904 0.2284859483594985
23123269 -0.8251523185820074 0.23178777268650635
23128024 -0.8241422628620998 0.234726527743188
23132779 -0.8230896659622658 0.2378001904327735
23137534 -0.8223283150353266 0.24092895463769107
23142289 -0.8213444313383504 0.24404901799906706
23147044 -0.8202453385282356 0.24715068740345755
23151799 -0.8192525607770138 0.25018326351764186
23156554 -0.8183745565347216 0.2532478372006206
23161309 -0.8173505433513116 0.25649620840701665
23166064 -0.8162624784640004 0.2595432735099588
23170819 -0.8152825807921095 0.26262771921875167
23175574 -0.8142782101056826 0.2654464774545448
23180329 -0.8132890991490681 0.2687153438808561
23185084 -0.8121243740996383 0.27159248250647694
23189839 -0.8107751913026904 0.2749111741737714
23194594 -0.810076408383162 0.2778956553275542
23199349 -0.8086804213631076 0.2808714922636277
23204104 -0.8076044621167238 0.28393969042425093
23208859 -0.8069113563820209 0.2866653159900039
23213614 -0.8053890095219287 0.2901602309000036
23218369 -0.8044978018967576 0.29321872954576494
23223124 -0.8030753598260217 0.29617498923768776
23227879 -0.8018448775543039 0.298911765061031
23232633 -0.8008339943725308 0.30223460539714836
23237388 -0.7996512823176166 0.30515389227588036
23242143 -0.7984450737129704 0.3081675416049989
23246898 -0.7973013592996542 0.31096749052360695
23251653 -0.7960650118529917 0.3142695007751506
23256408 -0.7946909495915843 0.3170734599958546
23261163 -0.7936015851829413 0.32023403697641245
23265918 -0.7924398884719245 0.32295107222172087
23270673 -0.7909095926174252 0.3261193302598354
23275428 -0.7897885641627608 0.32919761864690855
23280183 -0.7884598912497747 0.3321565409118981
23284938 -0.7871797567882739 0.3349910267057838
23289693 -0.785943616199766 0.3378099524626102
23294448 -0.7845361953689546 0.34109824037429615
23299203 -0.7831773525009854 0.3437798960085998
23303958 -0.7818228724843242 0.3466561791410938
23308713 -0.7803761869754653 0.34965876353482056
23313468 -0.7789630129254458 0.35276469745005784
23318223 -0.777748920569255 0.3555189457475989
23322978 -0.7763194799763329 0.3584469890256742
23327733 -0.7750114036792253 0.36144328838338013
23332488 -0.773507691075957 0.3643834170176031
23337243 -0.7721388633316427 0.3670942130701779
23341998 -0.77073675363293 0.3700973257884115
23346753 -0.7693555041910728 0.3728408347005039
23351508 -0.7677592416234267 0.3759969676561476
23356263 -0.7663346087419881 0.3781286431587322
23361018 -0.7650038100613509 0.38172961901995633
23365773 -0.7635244061775875 0.3844897863219044
23370528 -0.7618787743682214 0.3874753261133834
23375283 -0.7603182658221926 0.3901428007467971
23380038 -0.7589767876928564 0.392966366303164
23384793 -0.7573794672363569 0.3960730750055477
23389548 -0.7557757342723084 0.39895881640637304
23394303 -0.754371431893871 0.4018295980694357
23399058 -0.7526576636289551 0.4042726397079078
23403813 -0.7510544589078181 0.4072649040544595
23408568 -0.7496905942986175 0.41037733920672587
23413323 -0.7480299332694613 0.4129709083642948
23418078 -0.7464035160300857 0.41561952705268146
23422833 -0.7449026591396042 0.41862815215357985
23427588 -0.7432725906636577 0.42128875620328515
23432343 -0.7415911794503688 0.42419775488716915
23437098 -0.7398645372648106 0.42679305204363577
23441853 -0.7382084193179077 0.42969843435095784
23446608 -0.7364529830277065 0.4324822532326841
23451363 -0.7350801389592447 0.4351903590465511
23456118 -0.7333948372021677 0.4379767401786728
23460873 -0.7316266984253295 0.4405885057711942
23465628 -0.729714044666915 0.4432027960064881
23465628 -0.7297372823086854 0.44349373475347525
23470481 -0.7276985806496016 0.44606648880275107
23475334 -0.7262706599112917 0.44872384656385217
23480187 -0.7245256864824957 0.4515200023742161
23485041 -0.7228429812887072 0.4544869815172888
23489894 -0.7211133300111029 0.45712047144641227
23494747 -0.7191130031736461 0.4600759439698643
23499601 -0.7174177275972583 0.4627446164873686
23504454 -0.7157234388533799 0.46519093804028433
23509307 -0.7140347698442735 0.4683078340079991
23514161 -0.7119206651506256 0.47087901607723076
23519014 -0.7101690543332583 0.47367064606816756
23523867 -0.7080849541137748 0.47648635513980625
23528721 -0.7062177530302238 0.478964482476815
23533574 -0.7045756537459196 0.4817496197065982
23538427 -0.7026122718101272 0.4845227759296416
23543281 -0.7005458309704804 0.4869344145391268
23548134 -0.6987813997171397 0.4898317356068777
23552987 -0.6968696191900178 0.4923886172002393
23557841 -0.6950268892422443 0.4951479031570697
23562694 -0.692900153167563 0.4977911728795981
23567547 -0.6910352925937997 0.500370988662322
23572401 -0.6888395162115959 0.5028798585487624
23577254 -0.6868467940049514 0.505544143691609
23582107 -0.6853236484658458 0.5081280549701338
23586961 -0.6832506966016197 0.5110414748762174
23591814 -0.6813172215962119 0.5136599549406085
23596667 -0.679329926198881 0.516047207767132
23601521 -0.6771475862917545 0.5187295360748699
23606374 -0.6751641415229944 0.521273814998115
23611227 -0.6731667749796842 0.5238155567213938
23616081 -0.6712033011219862 0.5264897540313842
23620934 -0.6690911769102491 0.5288213266268494
23625787 -0.6669993909135596 0.5316257421536271
23630641 -0.6647953937430313 0.5339995710926455
23635494 -0.662913847632411 0.5365482931639909
23640347 -0.6607920575436074 0.5393000291462752
23645201 -0.6587024974103439 0.5417148101984154
23650054 -0.6566753668719041 0.5441514434753478
23654907 -0.6542804130805874 0.5466842941324762
23659761 -0.6520539130128714 0.5489887547471061
23664614 -0.649975291944665 0.5515292260277999
23669467 -0.6479039426472148 0.5540909097255555
23674321 -0.6457086106154616 0.5565545748470622
23679174 -0.6436349051431391 0.5589813132949649
23684027 -0.641412437071957 0.5613590443607518
23688881 -0.639367291951541 0.5638364820565143
23693734 -0.6370965463914986 0.5663661498077037
23698587 -0.6350642675554115 0.5686324959378262
23703441 -0.6325606452564254 0.5712901363331008
23708294 -0.6300821019700525 0.5735255966398785
23713147 -0.6283256713671239 0.5758974892007341
23718001 -0.6258428749619683 0.5783585543442956
23722854 -0.6237864464425469 0.5807499762485905
23727707 -0.6214605132745413 0.5831286870404958
23732561 -0.6190369491079957 0.5854244333048998
23737414 -0.6169319056100074 0.5875758105690575
23742267 -0.6146029741817716 0.590151829660947
23747121 -0.6121466061282018 0.5922054673328306
23751974 -0.6101401653434119 0.594749338670312
23756827 -0.6076254917538774 0.5970912401203886
23761681 -0.6055038447170862 0.5993369714941741
23766534 -0.603134429181082 0.6014585885976851
23771387 -0.6007078505563682 0.6038909401061158
23776241 -0.5983682577896676 0.6063788006871341
23781094 -0.5961091636791643 0.6084327969246511
23785947 -0.5938245920641975 0.6106721257468003
23790801 -0.591339573087134 0.6128361060284233
23795654 -0.5890727296977247 0.6153709690233298
23800507 -0.5868367378249738 0.6175700679567465
23805361 -0.5842753855214379 0.6196963485222803
23810214 -0.5818415930568575 0.6221533565073807
23815067 -0.5793667961374591 0.6241603473379328
23819921 -0.5770778728794493 0.6265655926468143
23824774 -0.5743196861703432 0.6287008714762434
23829627 -0.572093356138533 0.6311138820950768
23834481 -0.5696453183364192 0.6329973654252182
23839334 -0.5672623992863155 0.6352059754869028
23844187 -0.5646986273136215 0.6372443490716234
23849041 -0.5622564308605095 0.639424531691149
23853894 -0.559842277901587 0.6414687084262591
23858747 -0.5574097451077972 0.6434531795439911
23863601 -0.5547072146402736 0.6459021045311282
23868454 -0.5523429895061482 0.6477648826896222
23873307 -0.5499069678874285 0.6498047222353001
23878161 -0.547176364457397 0.6520652863153602
23883014 -0.5445970411216028 0.6541537156173262
23887867 -0.5424224812919374 0.6563147195529627
23892721 -0.539733003434618 0.6582432576779782
23897574 -0.5370640028504624 0.6604372178961551
23902427 -0.5347061068886607 0.6625737918408453
23907281 -0.5321983418398024 0.6643643032417288
23912134 -0.5292890179593073 0.6665535293846746
23916987 -0.5268444025260669 0.6685650931870308
23921841 -0.5243541926802937 0.6701844017846633
23926694 -0.5214965594221274 0.6723705526727705
23931547 -0.5189650121094844 0.6743203636007733
23936401 -0.5165718332862053 0.6761617767633564
23941254 -0.5136776503488104 0.6782268872318703
23946107 -0.5099618031179046 0.679630539381496
23950961 -0.5085160215809265 0.6819226728849084
23950961 -0.509176801499897 0.6820386109721598
23955914 -0.5058827534401183 0.6841096444167596
23960868 -0.5031814746598032 0.6861830330069975
23965822 -0.500464345921591 0.688261471711111
23970775 -0.4977276674707377 0.6897934219553575
23975729 -0.4950654015562105 0.6917225115530012
23980683 -0.4921510606129743 0.6935702132220962
23985636 -0.48970338412796593 0.6953937020821446
23990590 -0.48681962821298136 0.6973741777055202
23995544 -0.48394356351483525 0.6992769113558335
24000498 -0.4813741278106509 0.7010997365054632
24005451 -0.47855697165795186 0.7030617521574812
24010405 -0.47586373227515427 0.7048936296894383
24015359 -0.4730635676778324 0.7064539886890447
24020312 -0.47019463875353035 0.7083314181427013
24025266 -0.46743190028448933 0.7101661905344062
24030220 -0.464584472967488 0.7120739961061548
24035173 -0.4615363644303735 0.7140719145249148
24040127 -0.45898722707793 0.7155982375694298
24045081 -0.4563160438912596 0.7176434179242054
24050035 -0.4533005151248348 0.7191814496848479
24054988 -0.4504740765294661 0.7207202246286476
24059942 -0.44762562601805794 0.7226206524480914
24064896 -0.44477292664034546 0.7245791502659151
24069849 -0.44182393209116827 0.7262151253132297
24074803 -0.4389254834118152 0.7279666835131674
24079757 -0.4362987413476273 0.7294615281555391
24084710 -0.43338233582892827 0.7312688566964689
24089664 -0.4303859269205022 0.7327646278911849
24094618 -0.427710513725162 0.7344645172086414
24099572 -0.42436654877553837 0.7361214669612841
24104525 -0.42177387461564114 0.7377298267095427
24109479 -0.4188002696649926 0.7396789537593088
24114433 -0.4155209573571859 0.7410151403821308
24119386 -0.41302295223936036 0.7426540854062739
24124340 -0.41005260732653087 0.7444158935824988
24129294 -0.4072456407827222 0.7457408552332185
24134247 -0.4042651676823601 0.7473178678747536
24139201 -0.4013974303462596 0.7488386081560853
24144155 -0.3984505002956493 0.7505212812928568
24149109 -0.3954014851476478 0.7520808204651326
24154062 -0.39248900778145906 0.7535534960854123
24159016 -0.38935417449455495 0.7550829891245655
24163970 -0.3865188305947706 0.756414667080858
24168923 -0.38373183771000724 0.757778750294853
24173877 -0.3805388861456432 0.7594164519175862
24178831 -0.3774325142527003 0.7611502803425835
24183784 -0.3744744320596628 0.7626028020155833
24188738 -0.3717232021453867 0.7638829896212496
24193692 -0.36838524645845344 0.7655815037987412
24198646 -0.36567305388380666 0.7666209258679383
24203599 -0.3625409724627343 0.7679713309877746
24208553 -0.3594621818818073 0.7695230649893492
24213507 -0.3565035825592318 0.7706345141741862
24218460 -0.35356023070385467 0.7721147357867587
24223414 -0.3505483938459038 0.7736460482062381
24228368 -0.34745044565120625 0.7749500413251389
24233321 -0.3441636487213642 0.7761491292491489
24238275 -0.34114346445554794 0.7774251703076592
24243229 -0.3383924507787516 0.7787219630251065
24248183 -0.3350533976539323 0.7801798356448548
24253136 -0.3319818664015412 0.781501302496703
24258090 -0.3288171230997526 0.7826609140492184
24263044 -0.32582497222438217 0.784156123327287
24267997 -0.3229669097205153 0.7850861418837316
24272951 -0.3197094667139936 0.786520723296556
24277905 -0.3165529545118377 0.7875352815945491
24282858 -0.3133511064655237 0.788711542888955
24287812 -0.31036612888990023 0.7899046809318798
24292766 -0.3073890322061394 0.7914897195300349
24297720 -0.304108538669893 0.7925320139894965
24302673 -0.30081416145142587 0.7935300891205251
24307627 -0.29786266949569135 0.7947327965917033
24312581 -0.29478416548612035 0.7958221364061967
24317534 -0.29149782677112024 0.7968485473644292
24322488 -0.28866690488488556 0.7981709661867021
24327442 -0.2854625297594693 0.7989005289114954
24332395 -0.2822044905289946 0.8000187198602798
24337349 -0.27908970192584986 0.8012782864537977
24342303 -0.2760000094615675 0.8022401353511145
24347257 -0.2728333716773862 0.8034929337260223
24352210 -0.2697104036495758 0.8044198197962894
24357164 -0.26649269282634597 0.8051704015544231
24362118 -0.2630004517851647 0.8064579758183218
24367071 -0.26003048114670557 0.8074461015924408
24372025 -0.25683180056378185 0.8087898316665927
24376979 -0.25357506156617804 0.8095331070767164
24381932 -0.25056358014437113 0.8104070028545105
24386886 -0.2474633452497466 0.8113981205564922
24391840 -0.24389091412162253 0.812225862768002
24396794 -0.24097583202893522 0.813148886559634
24401747 -0.23771287951077402 0.813806593961778
24406701 -0.2344350725823606 0.8149889984091433
24411655 -0.23138187535364244 0.8158491755854098
24416608 -0.22808121070629048 0.8168380592888375
24421562 -0.22477500738963613 0.8175860258584038
24426516 -0.22168313776095105 0.8183802697135192
24431469 -0.21851078638511157 0.8194076718443387
24436423 -0.2152458046853513 0.8198685321824066
24441377 -0.21213674280273453 0.8207899098359378
24446331 -0.20865949201702322 0.8215551648877558
24446331 -0.2089341966142358 0.8220057818909233
24451387 -0.20526079686837617 0.8225645404289342
24456443 -0.20199415822240135 0.8232480728983685
24461499 -0.1990122805484541 0.824160337787389
24466555 -0.19531277340568678 0.8249603785793028
24471611 -0.19222392690376258 0.8260219479578468
24476668 -0.18874159816541286 0.8266795446417362
24481724 -0.18526491357067973 0.8271690329415283
24486780 -0.18213782027068046 0.8279892484912398
24491836 -0.17913799850110637 0.8286003293985347
24496892 -0.17591853555457332 0.8295459680770559
24501948 -0.1723753017296303 0.8302217891827047
24507005 -0.16904079404593036 0.8307838160791221
24512061 -0.1653238123006303 0.8313395979832523
24517117 -0.16207724540433746 0.8317969188635539
24522173 -0.15892242534089351 0.8323144508774838
24527229 -0.15584408580595469 0.8330376155570459
24532285 -0.152227111834456 0.8336273167265286
24537342 -0.14824052800666146 0.8345410801124886
24542398 -0.1453220209106327 0.8350910415674367
24547454 -0.14183209383848436 0.8354263113283562
24552510 -0.1387319630235012 0.8360166886838144
24557566 -0.13548731521002996 0.8363027601402816
24562622 -0.1323843605540437 0.836985989351649
24567679 -0.1288625893405234 0.8378241636418198
24572735 -0.12526409175823544 0.837985965939678
24577791 -0.12174708578832556 0.8385403912960623
24582847 -0.11835044086573586 0.8390072977505447
24587903 -0.11507397085087231 0.8390846967459655
24592959 -0.11208525838384863 0.839532707361305
24598016 -0.10855920935084358 0.8402655731934092
24603072 -0.10498744922467593 0.8409316763966884
24608128 -0.10157048912058485 0.8412211297912122
24613184 -0.09822732284410515 0.841239171654835
24618240 -0.09484514697231401 0.8419389752641803
24623296 -0.09147029122477005 0.8422149822255236
24628353 -0.08835639425640394 0.8427451385360992
24633409 -0.0849008719825034 0.8428755983334515
24638465 -0.08116315272192334 0.8431767765872484
24643521 -0.07792642172757126 0.8435348596410305
24648577 -0.07440399901673886 0.843747162332534
24653633 -0.07127398842824625 0.844073287621657
24658690 -0.06803663218801488 0.8444640242475371
24663746 -0.06456493982090102 0.8445939918995073
24668802 -0.06113469489316815 0.8448264035448129
24673858 -0.057538924962992594 0.8449519937227902
24678914 -0.054302000114459806 0.8453198805539661
24683970 -0.0512059907795852 0.8457635622313432
24689027 -0.04764013209512761 0.8459449028756281
24694083 -0.044089936249730656 0.8457535596598804
24699139 -0.04056680693098327 0.8458709523372563
24704195 -0.0371299301823242 0.8461101418460083
24709251 -0.03407782374387614 0.8463367642234799
24714308 -0.03084101118677594 0.8463881657006982
24719364 -0.027217681382477495 0.8465328394045667
24724420 -0.02369436043407951 0.8465386274621
24729476 -0.020249047811775885 0.8463843666039778
24734532 -0.01705761837182124 0.8468264725662071
24739588 -0.013715856323509043 0.846914914245676
24744645 -0.009994352639458741 0.8467563881071043
24749701 -0.0067776219045581855 0.8466688175359256
24754757 -0.0035222211861191685 0.8467272121941273
24759813 5.9256438466925965e-05 0.8466078976794887
24764869 0.0033473932090893935 0.8467634651768218
24769925 0.006845365782027173 0.8469342480082339
24774982 0.010351235228850213 0.8469775111529971
24780038 0.013713813598315932 0.8467670304220187
24785094 0.017127744380885844 0.8464882294750955
24790150 0.020264691178168245 0.8466404129355974
24795206 0.023632850454918523 0.8464543795655721
24800262 0.027225238582504186 0.8466289433965413
24805319 0.03079062066571185 0.8464349133811029
24810375 0.034232152861502864 0.8459028127631713
24815431 0.03755660199119193 0.845713282590175
24820487 0.04067307815217553 0.8456613482743891
24825543 0.04420891021006244 0.845746343958929
24830599 0.04687051414716432 0.846263502448039
24835656 0.05127132634193607 0.845141473592182
24840712 0.054403235035218295 0.8450480975726087
24845768 0.057718920117301 0.8447470005627556
24850824 0.0609921411453635 0.8444813381048747
24855880 0.0644850571265897 0.8441298310438945
24860936 0.0681012902806592 0.8438759734440273
24865993 0.07139815538746547 0.8435223318835493
24871049 0.07459936768806794 0.8433051603050996
24876105 0.07842453505677865 0.8432509104965358
24881161 0.08154663547540063 0.8427246229134076
24886217 0.08531158716256773 0.8420057585650869
24891273 0.0883116358102354 0.8419582740476187
24896330 0.09154309961673641 0.8416521369816358
24901386 0.09515346283987386 0.8412126347741204
24906442 0.09856041544908649 0.8409249632448486
24911498 0.10189430930251295 0.8403492913354228
24916554 0.1052330539452689 0.8400192464507316
24921610 0.1084961206414817 0.8396449181276433
24926667 0.11192948460385195 0.839024560267264
24931723 0.11520846913184679 0.8387321074588112
24936779 0.1187176759134764 0.8381969964288939
24941835 0.12220556176837537 0.8375958025005869
24946891 0.12553539277244743 0.8371337031505813
24951948 0.1287254272342278 0.83635783872794
24951948 0.12851139447622653 0.8359808017695817
24957108 0.13192165042212567 0.8360000446960204
24962269 0.13548676197883422 0.8357787779738921
24967430 0.13901951577557334 0.8349989521086963
24972590 0.14267749976343072 0.8346952224433474
24977751 0.14609752324772804 0.8342034588742444
24982912 0.14932407098811631 0.8331070380093909
24988073 0.15286560046957545 0.8324211492168425
24993233 0.15631788256499896 0.8319368456252356
24998394 0.15979009843515615 0.8311054849033331
25003555 0.16329866941220353 0.8302940001716099
25008716 0.16644662448277342 0.8298981445589698
25013876 0.17013333655693957 0.8291673292650601
25019037 0.17333807300792273 0.8285499967273297
25024198 0.17663968842016378 0.8276192831330531
25029358 0.1800776684569682 0.8272283683988582
25034519 0.18349564836370505 0.8261892267558221
25039680 0.18687203479634124 0.8255416421484763
25044841 0.19030612085596268 0.8244262544727645
25050001 0.19351424041626705 0.8239643666599094
25055162 0.19720751386881846 0.8226752594816281
25060323 0.20061445108404963 0.8221449033719724
25065484 0.20390466554806835 0.8210860605903675
25070644 0.20740972862364054 0.8205046224017183
25075805 0.2105951203666384 0.8194763482136117
25080966 0.2139337472936961 0.8187627912944305
25086126 0.2176542986632711 0.8177427895348146
25091287 0.22079516308907884 0.8167732822987714
25096448 0.2240524562503743 0.8161732266017276
25101609 0.22755637045693106 0.8150642208182349
25106769 0.23107231184061702 0.813967440627789
25111930 0.23416074207227355 0.8130092108980671
25117091 0.2376154113901681 0.8119199986499448
25122252 0.2407535653251532 0.8108686104169598
25127412 0.2437955396979635 0.8098654260341885
25132573 0.2477541388513348 0.8090017918968923
25137734 0.2508478714154872 0.808123416758898
25142895 0.25416703778798505 0.8070169594481559
25148055 0.25748911791768664 0.8059062641817553
25153216 0.2609198788464066 0.8047534395478237
25158377 0.2642245701074556 0.8040192205284771
25163537 0.26746720542117475 0.8026761493682071
25168698 0.27080355481173857 0.8016018160522521
25173859 0.2739080518772644 0.8002373812038602
25179020 0.2772147979779907 0.7991519142717483
25184180 0.2806275837040737 0.7982100328916768
25189341 0.2841287548278408 0.7968276702034853
25194502 0.2872839306744322 0.7956348529740628
25199663 0.2904457938813211 0.7943760502587236
25204823 0.29377741838773275 0.7931326458088263
25209984 0.29720884969951417 0.7920631918565267
25215145 0.3004189909390378 0.7907637685457781
25220305 0.3036103180233796 0.7893490952773347
25225466 0.30683861775935306 0.7880585737321575
25230627 0.30993557890784296 0.787085415501891
25235788 0.31326897306959434 0.7856490829608853
25240948 0.31668669674626204 0.7839615689536633
25246109 0.319815758856346 0.7829504000943964
25251270 0.3228957297910591 0.781740986495291
25256431 0.32622535784327505 0.7803517734661655
25261591 0.3292785801208243 0.7791623445368155
25266752 0.3327600454947746 0.7775041393260683
25271913 0.33588687860386696 0.77626039285256
25277073 0.3390234823887218 0.7745801686539558
25282234 0.3421523066613637 0.7735462025754947
25287395 0.34550332564522296 0.771811861733213
25292556 0.3487102547241019 0.7704571984234873
25297716 0.35200034770524447 0.768932542126414
25302877 0.3549654779537947 0.7674587819742343
25308038 0.35831501228539214 0.765841046847251
25313199 0.36126311467646294 0.7646615676477008
25318359 0.36449913534419603 0.7634093918877999
25323520 0.3680100834699912 0.7616347934030606
25328681 0.3709450978009515 0.7597782983929469
25333842 0.3740909442759716 0.7580388235578115
25339002 0.37693057196630875 0.7569642961871439
25344163 0.38018666315809435 0.7554233533742146
25349324 0.38334822286549686 0.7537397702177778
25354484 0.3863237955355605 0.7519553991171254
25359645 0.3895793066978894 0.7502820583541482
25364806 0.39259777576101273 0.7487404999021754
25369967 0.3957526693094384 0.7472516095168689
25375127 0.39900625457288574 0.7456874767595222
25380288 0.4022700984109244 0.7440724073773414
25385449 0.4052537173028899 0.7421592381350298
25390610 0.40815587329943653 0.740501511513233
25395770 0.4110185652079503 0.7387616339593441
25400931 0.4142231886063924 0.7370472609157032
25406092 0.4174970018714393 0.7355254354938051
25411252 0.42038537336904014 0.7334391558770831
25416413 0.4231547644921148 0.731655564229527
25421574 0.4263305101775428 0.7295159404652695
25426735 0.42956394687495797 0.7280965905475062
25431895 0.43231133644374514 0.7264659255104784
25437056 0.43553605166564585 0.7245011636644462
25442217 0.4386094748288341 0.7227234655894662
25447378 0.4415669545539288 0.7208353703043356
25452538 0.4441638357530373 0.719047147790323
25457699 0.44757726021620764 0.7174306391939459
25462860 0.450515976161673 0.7154420015804567
25468021 0.45340310254042027 0.7137081250094333
25468021 0.45367111368064916 0.7136770493710677
25473288 0.4564371915645127 0.7114338700961397
25478555 0.4593972638410882 0.70974590887541
25483823 0.46257730613690357 0.7075655722402631
25489090 0.4655358077750848 0.7057085900371622
25494358 0.4683287177565242 0.7036998749149435
25499625 0.4715313285927732 0.701267455206001
25504893 0.47437449804220366 0.6994370604064355
25510160 0.47744121989888766 0.6974493428224937
25515428 0.480180290117763 0.6951900873468323
25520695 0.48318845492040846 0.6932309829634664
25525963 0.486161906279614 0.6910185566180714
25531230 0.48885757258684165 0.689094934047358
25536498 0.4918782707417604 0.6870259205533128
25541765 0.4948743993656465 0.68508468475394
25547033 0.4978461535511982 0.6827781234005873
25552300 0.5004591942478478 0.6807339535784146
25557568 0.5035175994433468 0.6785584963262127
25562835 0.5064567567631124 0.6760423541356699
25568103 0.5090323978319181 0.6739053600990307
25573370 0.5120715853506724 0.6718835438551757
25578638 0.5151218688054819 0.6700312051113574
25583905 0.5179453636805259 0.6676416446895139
25589173 0.5206239109314665 0.6654150457912638
25594440 0.5235119390984772 0.6632588842121585
25599708 0.5264898028164978 0.6610818895142869
25604975 0.52931313954708 0.6587163391545002
25610242 0.5320495479230701 0.6563624030851651
25615510 0.5349167673341613 0.6539394924301483
25620777 0.53754304403206 0.6518549747732295
25626045 0.5403253898696381 0.6493091242409409
25631312 0.5430466226479124 0.6468972972636213
25636580 0.5456897042950904 0.6445799753693905
25641847 0.5484452078876006 0.6424152204636873
25647115 0.5510811296868688 0.6399694986011646
25652382 0.5538723025618502 0.6375821879929987
25657650 0.5567709596818406 0.6354126812173564
25662917 0.559528008029802 0.6328930024819938
25668185 0.5622569519471696 0.630576148335276
25673452 0.5647573677830615 0.6277350497517716
25678720 0.5672575264279357 0.6257289691970761
25683987 0.5700519746576914 0.6232682889252039
25689255 0.5726686209368391 0.6208598250704737
25694522 0.5753583985182151 0.6181842394323833
25699790 0.5779989963511571 0.6154761020662006
25705057 0.5806276391979888 0.6133639978077853
25710325 0.5832141125313915 0.6107967787947417
25715592 0.5849598871576113 0.60763739431175
25720860 0.5884072208177266 0.6054496532977971
25726127 0.5909704208243004 0.6029379070044583
25731395 0.5934299348876351 0.6004892560161625
25736662 0.5961292819291691 0.5980501923487335
25741929 0.5986775144489335 0.5955276192712226
25747197 0.6010552567735924 0.5930429776102722
25752464 0.6036444982278699 0.5902408401626765
25757732 0.6065891665488439 0.5878372413083532
25762999 0.6088057937813192 0.58502395714391
25768267 0.6111973043771051 0.5821402816359592
25773534 0.6137471977967319 0.5796762667220611
25778802 0.6160962504255124 0.5768684250739845
25784069 0.6188496551720342 0.5744595034218263
25789337 0.6210819844560996 0.5715833694888854
25794604 0.6236138225284105 0.5689986775768368
25799872 0.6258332143813633 0.5664195013298079
25805139 0.6284098408768729 0.5635544838061323
25810407 0.6307866724446847 0.5608034613443166
25815674 0.6331854408467348 0.5580955836351451
25820942 0.6356182988182525 0.5552933298586228
25826209 0.6380689090528614 0.5526215178355217
25831477 0.6405416987932544 0.54983534371788
25836744 0.6426570548811511 0.5469160890934867
25842012 0.6451026236937687 0.5441010503021809
25847279 0.6472210698872778 0.5412443204797288
25852547 0.6497264997304595 0.538460650040923
25857814 0.6518948879274404 0.535608577037643
25863082 0.6536459990727461 0.5330629163722787
25868349 0.6563064116921492 0.530109376851288
25873616 0.6586209947893943 0.5273535601765061
25878884 0.6607502946198991 0.5242615905032014
25884151 0.6632311832368684 0.5216327686376183
25889419 0.6655007140942083 0.5187763642212811
25894686 0.6679136657811613 0.5159405498102769
25899954 0.6700250638504234 0.5130602946551561
25905221 0.6721628793172004 0.5098561985132564
25910489 0.6742923734639432 0.5069932449660256
25915756 0.6763912412310857 0.5040757617710911
25921024 0.6786189370582586 0.50124010665674
25926291 0.6804983857908334 0.49830930068099594
25931559 0.682871926847898 0.49517423643044484
25936826 0.6850632856087492 0.4922066182745913
25942094 0.6872621474609216 0.48925361935139794
25947361 0.6892625354264343 0.4862401790413038
25952629 0.6913319085544557 0.48321886086276955
25957896 0.693528254739267 0.48010143772742797
25963164 0.6952958528200618 0.477139103158241
25968431 0.6975468636077822 0.4741322810947479
25973699 0.6993102480779226 0.47124074627185003
25978966 0.7013735698323859 0.46809647374582775
25984234 0.7034751071247182 0.4648480327277592
25989501 0.7055952686875794 0.4620140082834799
25994769 0.7075426069759312 0.4588630908618685
25994769 0.7076585594425886 0.4594863893902178
26000145 0.7096320568954281 0.45589312905291196
26005521 0.711579083219693 0.4526891356968018
26010898 0.7142592980849887 0.44943095848120684
26016274 0.715364641214561 0.44625466078757803
26021651 0.7174450317622669 0.4431405409001915
26027027 0.7192506033534647 0.4397819309935368
26032403 0.7213594941879115 0.43679024297000757
26037780 0.7231078456890176 0.43346891149812156
26043156 0.7249703680479265 0.4300456226216029
26048533 0.7271195572963598 0.4268468685076863
26053909 0.7287370332329643 0.423464343060087
26059286 0.730599640091908 0.4202808472452633
26064662 0.7324941409033385 0.41697319587064974
26070038 0.73434631286261 0.41366201637494615
26075415 0.7361432630328343 0.4103734555629854
26080791 0.7380559919355726 0.4071873843346192
26086168 0.7397350612214725 0.4038368940318176
26091544 0.741764132997754 0.4005787211857959
26096920 0.7433525487031047 0.39719767163359493
26102297 0.7452441740835457 0.3939650387221207
26107673 0.7467542843296706 0.3906121561501601
26113050 0.7485770386054432 0.387308452936016
26118426 0.7502539765988966 0.38390758933301855
26123803 0.7518126581656267 0.3805441662799306
26129179 0.7536515185955582 0.37736950635127253
26134555 0.7551682259270845 0.3738012815741918
26139932 0.7569970384039493 0.37047566215240507
26145308 0.7586832009694129 0.3670454165246415
26150685 0.7600161678518212 0.36372058108038724
26156061 0.7617040916743973 0.36009309062577993
26161438 0.7632777404354408 0.35671706102207273
26166814 0.764807428190948 0.35316729668107566
26172190 0.7663301837470482 0.34974723123044
26177567 0.7679102240266426 0.3461818306733403
26182943 0.7697346802773906 0.34296348552002953
26188320 0.7710249419940879 0.3395274330607455
26193696 0.772625939472243 0.3360538282363002
26199072 0.7740571600869111 0.3324486660949581
26204449 0.7754376206777995 0.32903068435145993
26209825 0.7769899761760112 0.3256569514157118
26215202 0.7783717227655134 0.32185357986804286
26220578 0.7796827425350387 0.31844853322191813
26225955 0.7811343651607418 0.3150089476359299
26231331 0.7823592372534445 0.3115430166628802
26236707 0.7838721420947047 0.30801903546788817
26242084 0.7852295413564984 0.30442669628672137
26247460 0.786452878421818 0.3007618214184723
26252837 0.7878555392250195 0.2973478319431037
26258213 0.7892848444741785 0.2936253835442528
26263590 0.7903800516288952 0.2899680494817462
26268966 0.7917483198867415 0.28635778979529997
26274342 0.7930187777273229 0.28280327827413515
26279719 0.7942235338783246 0.27930105388541127
26285095 0.7955426268712655 0.2758465220505937
26290472 0.7970301749277388 0.2721980573350133
26295848 0.7980182992435129 0.2686227497413711
26301224 0.7992035404973278 0.26495842546308673
26306601 0.8003337724699845 0.2613119993729797
26311977 0.8015317387300186 0.25775849936585693
26317354 0.8025922702778694 0.2541380806941239
26322730 0.80378898574286 0.2503356706006731
26328107 0.8049299085810048 0.24663256348822987
26333483 0.8058275415695056 0.2432627462792992
26338859 0.8069249106807461 0.23947231708456654
26344236 0.8079271882167556 0.23555527324889167
26349612 0.808933266532585 0.23192707503304247
26354989 0.8102982182037617 0.22832018655181255
26360365 0.811069755923891 0.22453728327899408
26365741 0.8120688866494137 0.22076939097249937
26371118 0.8133826686833706 0.21730900282647983
26376494 0.8141242818021242 0.2136278134123785
26381871 0.8148212347578556 0.20986503636551818
26387247 0.8158848926579074 0.20610172760430695
26392624 0.8168553948220217 0.20240321490997382
26398000 0.8176829387949797 0.19856487477818244
26403376 0.8187434802041569 0.1948541197096035
26408753 0.819440345998872 0.19110016106315328
26414129 0.8201187577889957 0.18733870291359286
26419506 0.8209645628969696 0.18355593070161724
26424882 0.8217560982809501 0.17988182497239136
26430259 0.8225783173000365 0.17609234492117096
26435635 0.8232020767865883 0.17233001679868118
26441011 0.8238207366228716 0.16840816048392612
26446388 0.8247944636935082 0.16471453659625254
26451764 0.8254672401831632 0.1606527274814692
26457141 0.8260441593432929 0.15687708751779472
26462517 0.8268032537244834 0.1531607728637418
26467893 0.8276670035965704 0.14950318376529317
26473270 0.8281458478641024 0.14558867602645165
26478646 0.8288815779905164 0.14167171012180743
26484023 0.8293176023690694 0.13804600997476854
26489399 0.8299642170235099 0.1341620382175798
26494776 0.8305730596388392 0.13038342454043872
26500152 0.8311256521546244 0.1264789200909569
26505528 0.8317176300790297 0.12259105031067893
26510905 0.8319380793244348 0.11878058945715984
26516281 0.8323859861706945 0.11483603981739444
26521658 0.8330615177069678 0.11104840572668927
26527034 0.8337404273256823 0.10706138818527719
26532411 0.8340443667047119 0.10331098217639725
26532411 0.8339431169791998 0.10353185630949036
26537898 0.834592924751579 0.09938858861093729
26543386 0.8349620816698522 0.09541993091299128
26548873 0.8352299713771519 0.09148819801204933
26554361 0.835401818855971 0.08751472230449678
26559849 0.835885314283587 0.08340132688049545
26565336 0.8364808916386388 0.07946072265524123
26570824 0.8364511553402398 0.0755429737036488
26576311 0.8368383008351393 0.07146853826787884
26581799 0.8371707857661844 0.06739350551421934
26587287 0.8374798048228045 0.06340920769844648
26592774 0.8377475128785646 0.059326180819042326
26598262 0.8380000092280788 0.05525601449520407
26603750 0.8381993460467377 0.05126804270968095
26609237 0.8384258591564352 0.04736644584076028
26614725 0.8386344962750084 0.04318670263500294
26620212 0.8389440682694963 0.03942419724291528
26625700 0.8388908479939803 0.03538742331254832
26631188 0.8387456261048306 0.031255172433201625
26636675 0.8391207273382707 0.027399350829250862
26642163 0.8389903041173838 0.023324742904415764
26647651 0.8390931805747018 0.01928973161292553
26653138 0.83920036181895 0.015193688186218576
26658626 0.8391146496493953 0.01113149110817323
26664113 0.8391484462103564 0.007174431542199452
26669601 0.8388701501683832 0.0030283380176718017
26675089 0.8388110616134756 -0.0010226245127803316
26680576 0.8386140380406055 -0.004910013711564035
26686064 0.8386857431326121 -0.009062755463345746
26691551 0.8384687051999871 -0.013192594996840175
26697039 0.838226747705612 -0.01727982266024646
26702527 0.8383085337279699 -0.021416963817728774
26708014 0.8379583115825966 -0.025412306699759576
26713502 0.8378835260955849 -0.02955645974754658
26718990 0.8377211953111537 -0.03349322379579586
26724477 0.8375879043893929 -0.03747424283931328
26729965 0.8372460002890385 -0.04155730948591851
26735452 0.837050528618411 -0.0457613787050067
26740940 0.836707883283037 -0.049863400940372504
26746428 0.8362854983730575 -0.05396624929432441
26751915 0.8360133256551203 -0.05797215793633865
26757403 0.83570340144762 -0.062076336327597015
26762891 0.835368939849157 -0.06612421035962673
26768378 0.8347614262684192 -0.07023213809321104
26773866 0.8341461845634457 -0.07430317224174038
26779353 0.8335745683117166 -0.0784006675345616
26784841 0.8332029020894965 -0.08254781551804652
26790329 0.832960537380523 -0.08664365692166726
26795816 0.8320619080883974 -0.09074876368070268
26801304 0.8316687861314551 -0.0948356535650707
26806792 0.8309074832201309 -0.09902850347921181
26812279 0.8303863938052207 -0.10324796302626213
26817767 0.8298903712387767 -0.107150741065111
26823254 0.8292713965737722 -0.11139728920228976
26828742 0.8284503581524572 -0.11546930345191564
26834230 0.8277504419862094 -0.11959154351339935
26839717 0.827113961917266 -0.12364739888243932
26845205 0.8264939668142535 -0.12767234544265785
26850692 0.8257254045566627 -0.13196634401656324
26856180 0.824842364553487 -0.1359768482137104
26861668 0.8241262171630565 -0.14015255293811732
26867155 0.8233299486568603 -0.14416916213606445
26872643 0.8223228491270851 -0.14836449736652996
26878131 0.8215966853638849 -0.15221893910475093
26883618 0.8207062202541398 -0.1563393167137316
26889106 0.8198620026433328 -0.1605184538178332
26894593 0.8188292846558299 -0.1645264957473442
26900081 0.8175544461164126 -0.16889589692631626
26905569 0.8169411038988632 -0.17302232285733232
26911056 0.8158816751713923 -0.17704299511060495
26916544 0.8146748749588291 -0.18098987920453233
26922032 0.8138349344558938 -0.18527854049037026
26927519 0.812787270741032 -0.18942263956811176
26933007 0.8115349539433891 -0.19335490240362407
26938494 0.8106157262270742 -0.197563823064968
26943982 0.8094027017346108 -0.20180907109281584
26949470 0.808216986722579 -0.205710029842951
26954957 0.8071077782829951 -0.20981959994040114
26960445 0.8057464780575055 -0.2139177670198407
26965932 0.8047565777730676 -0.21808599220681985
26971420 0.8033182915307924 -0.22206267840624208
26976908 0.8019194556307485 -0.22621270178849676
26982395 0.8004511391927835 -0.23024675891185617
26987883 0.7992081326664157 -0.23433954920591124
26993371 0.7977340742552408 -0.2384013299112126
26998858 0.7963327540261287 -0.24255139282669655
27004346 0.7950269267540853 -0.24694681559648016
27009833 0.7933849884663832 -0.2508484522984716
27015321 0.7919740958075054 -0.25502790168846023
27020809 0.7906706197102371 -0.2591039359688942
27026296 0.7892893858298691 -0.26328592536356443
27031784 0.7875848989555426 -0.2672426742531625
27037272 0.7861187349509737 -0.27142774257759394
27042759 0.7844681254419406 -0.275136376279284
27048247 0.7830345517652197 -0.2794397838503669
27053734 0.7812613529206531 -0.2833506669273153
27059222 0.7794760390661537 -0.28746943793771523
27064710 0.7777864131083888 -0.29154290807999034
27070197 0.7760105090584651 -0.2957047413819943
27075685 0.7743656975614959 -0.3000110184838466
27081173 0.7727898184927045 -0.30393792200037856
27081173 0.7731095275206595 -0.3037946542687671
27086774 0.7709547584457095 -0.30792229947858213
27092375 0.7691364874798008 -0.3121197593029647
27097976 0.7670904173718717 -0.3161432708391892
27103577 0.7652218461567662 -0.32033298870659144
27109178 0.7632830276202129 -0.32444711148127614
27114779 0.7612229692567651 -0.32857848814655655
27120380 0.7589661327905429 -0.3325399224465327
27125981 0.7568869575746457 -0.3368829661002828
27131583 0.7547777539053935 -0.3409691256350375
27137184 0.7530390408412023 -0.3450803774070889
27142785 0.7508886241352889 -0.34926140824554236
27148386 0.7483702159499129 -0.3530267061011809
27153987 0.7463306638018068 -0.35729571476298916
27159588 0.744148714701308 -0.36139494170250497
27165189 0.7419707623851225 -0.36558172979487463
27170790 0.739693942282444 -0.3695235296389275
27176392 0.7372196655595874 -0.37357514317352497
27181993 0.735029457524835 -0.37766154906846056
27187594 0.7323659098337244 -0.3814635926249201
27193195 0.7301532294235771 -0.38571457828034184
27198796 0.7274650917260463 -0.3898265467142566
27204397 0.7251446996463923 -0.3939298156149878
27209998 0.7227154580010852 -0.3977207319131019
27215599 0.720182739359187 -0.40201927957884437
27221201 0.7177055064864467 -0.4058684427578673
27226802 0.7148573986881271 -0.4096923789184156
27232403 0.712030179205096 -0.41392597807436143
27238004 0.709620912073222 -0.4181208185072776
27243605 0.7068047103270712 -0.4219675722068972
27249206 0.7041910323386583 -0.42576218842786534
27254807 0.7014682392295472 -0.42967586682272957
27260408 0.6986818237345923 -0.4338399004865486
27266009 0.6956532326428957 -0.43772886672259526
27271611 0.6928714291546575 -0.4417307047360279
27277212 0.6898820277341178 -0.4457460153141275
27282813 0.6869470253503858 -0.44967373317157966
27288414 0.6841083535738984 -0.4535259232389614
27294015 0.6809743246834052 -0.4574167992173074
27299616 0.6779404156181833 -0.4613884457263211
27305217 0.6747767011670597 -0.46516657133994394
27310818 0.6715464276179198 -0.46910331347252865
27316420 0.6685244240321866 -0.47307334796081296
27322021 0.6652976741286825 -0.4769618708286131
27327622 0.6620985044684912 -0.48070850546096844
27333223 0.6588273143830107 -0.4843759109310169
27338824 0.6552678758031512 -0.48843342088342295
27344425 0.6519065681530039 -0.49224115137422647
27350026 0.6482918694579569 -0.49593436586889084
27355627 0.6449953142269111 -0.4996444154840106
27361229 0.6416176913747061 -0.5037295635648754
27366830 0.6380717668034599 -0.5074396673972926
27372431 0.6345695202705743 -0.5112696447271126
27378032 0.6307905417141029 -0.5148232800432645
27383633 0.6269135839411476 -0.5185867221843315
27389234 0.6230981862400019 -0.5224243914873444
27394835 0.6195221668223593 -0.5259670613530918
27400436 0.6156147110507131 -0.5295261556070024
27406037 0.6118786860729304 -0.5331463866336119
27411639 0.6078881340830519 -0.5369752176783916
27417240 0.6040911710270823 -0.5404758600369078
27422841 0.600004229254645 -0.5442409690285345
27428442 0.5957229661867733 -0.5476652197540126
27434043 0.5919066047053094 -0.5516172213651296
27439644 0.5877405947177795 -0.5550461319104726
27445245 0.5834964415122024 -0.5584471692375933
27450846 0.5793969883575976 -0.5620867956255425
27456448 0.5750478962386563 -0.5654874972335087
27462049 0.5706420582118759 -0.5690827279606893
27467650 0.56594355991971 -0.5724232570679685
27473251 0.5614029045526481 -0.5759082663698025
27478852 0.5573784141539907 -0.5794046187068861
27484453 0.5528504649284104 -0.5830610917814021
27490054 0.547804270759934 -0.5859331199523309
27495655 0.5431664355834752 -0.5894210787195291
27501257 0.5383411785954952 -0.5926007093504652
27506858 0.5337269163552434 -0.5955789144521966
27512459 0.5287515474600839 -0.5990035526867701
27518060 0.523743990357521 -0.6023264503821115
27523661 0.5187519644004627 -0.6055871383046583
27529262 0.5136780558595987 -0.6086935115510321
27534863 0.5086065389269133 -0.6117200410206471
27540464 0.5033407298584897 -0.6149218179813754
27546065 0.49816587078919594 -0.618059703795256
27551667 0.49274895135088953 -0.6210028361516918
27557268 0.4871101098429932 -0.6240507640329249
27562869 0.4817409281020587 -0.6271420214566201
27568470 0.4761795468982943 -0.6297370384446562
27574071 0.4708515013115925 -0.6326097554571334
27579672 0.46501279866977624 -0.6353853560101589
27585273 0.459310171840358 -0.6383563555171563
27590874 0.45343841890283565 -0.6409281695166739
27596476 0.4475334941259818 -0.6435519699781589
27602077 0.4413071122193603 -0.6464577676560744
27607678 0.4351932237761111 -0.6491863768860588
27613279 0.42907440528556917 -0.6515215066279234
27618880 0.4230391226869965 -0.6538865208989747
27624481 0.4165956541823886 -0.6562167472084122
27630082 0.4099446305564645 -0.6585042122587246
27635683 0.4034913685382007 -0.6608506648093343
27641285 0.39678873191247194 -0.6632822148084356
27641285 0.3971964790587602 -0.6633439092300494
27647001 0.3902144943876084 -0.6652053399740256
27652718 0.38314449743337103 -0.6675725599140875
27658435 0.3762222852953052 -0.6694876229459817
27664152 0.3691137199637973 -0.6715085506598502
27669869 0.36172372037375927 -0.6732010326474248
27675586 0.35450374567574994 -0.6752447216464353
27681303 0.347121364406196 -0.6769254386061095
27687020 0.33948002316256615 -0.6782132595392217
27692737 0.3317446535490639 -0.6795581632161228
27698454 0.3239481966265239 -0.681372037538217
27704171 0.31593241656988374 -0.6825576112298269
27709888 0.3081568434844805 -0.6833553761991936
27715605 0.299943981344404 -0.6848035011903556
27721322 0.29177385257042 -0.6855207008546751
27727039 0.2832667013824967 -0.6861892537534443
27732756 0.27485419363699237 -0.6868733500676825
27738473 0.26621436656022407 -0.6873774263825875
27744190 0.2574470157930749 -0.687809681877673
27749907 0.24889029547739494 -0.6878993295568474
27755624 0.23952581199015868 -0.6878401635091165
27761341 0.23048418377403584 -0.6878731489046556
27767058 0.22127000922490772 -0.6869252362327074
27772775 0.21205353018376438 -0.6866707650883956
27778492 0.20237558257583219 -0.6857555891990693
27784209 0.192803982629959 -0.6843044273313477
27789926 0.18283679179816914 -0.6833822372870236
27795643 0.17303822402603328 -0.682211187803915
27801360 0.16326710168326142 -0.6801039792241491
27807077 0.15311664887132487 -0.6780696187377333
27812794 0.14257755372210468 -0.6759529841566888
27818511 0.13246390604423292 -0.6732961763042115
27824228 0.12211932289709525 -0.6703781440958638
27829945 0.1114752380598713 -0.6669991343871735
27835661 0.10060525943261113 -0.6637605898859648
27841378 0.09009668896829734 -0.6594959566974936
27847095 0.07901981937914314 -0.6550998749412779
27852812 0.06799118127800648 -0.6505135346251668
27858529 0.0571891697273033 -0.6454503236192205
27864246 0.04619853043462713 -0.639899120587182
27869963 0.03482190712548039 -0.6337166121783798
27875680 0.02367637005106824 -0.6272650025525739
27881397 0.012786944808008951 -0.6203301732229954
27887114 0.0013635950682643228 -0.6129497379400259
27892831 -0.009830750935680152 -0.6051251081724905
27898548 -0.02051169659038791 -0.5962677670130827
27904265 -0.03173212841751327 -0.5871322439579445
27909982 -0.04271995230469722 -0.5775076208994255
27915699 -0.053222343189755966 -0.5672002862963282
27921416 -0.06378105572035356 -0.5561278754143414
27927133 -0.07415663269544592 -0.5445924060006334
27932850 -0.08460316772575488 -0.5319409600103622
27938567 -0.0943611909664764 -0.5191366562474118
27944284 -0.10389817676851607 -0.5051602385099697
27950001 -0.11290572690629325 -0.4908928018491413
27955718 -0.12137625635951757 -0.47567380019018507
27961435 -0.12959351423924736 -0.45990563580897836
27967152 -0.13739112149392918 -0.44298541297648925
27972869 -0.1439991453343892 -0.42595464908168684
27978586 -0.15025249825686904 -0.4079105588122897
27984303 -0.15552952025277517 -0.38898489873807635
27990020 -0.1598913094132363 -0.3694327761344441
27995737 -0.1633600583532033 -0.3495368890954928
28001454 -0.16617045695480986 -0.3290544994213703
28007171 -0.16761309229482424 -0.30779999267330027
28012888 -0.16748862783813132 -0.28625972518279513
28018605 -0.16679718632171955 -0.26418827081917207
28024321 -0.1644927358179393 -0.2416703102434918
28030038 -0.1607673227117652 -0.21941006730571033
28035755 -0.15542203701525423 -0.19700914755299864
28041472 -0.14891957299086475 -0.17420774295624947
28047189 -0.14060320835846607 -0.1516668357016156
28052906 -0.13090781421157802 -0.12949466705025978
28058623 -0.11982649509169059 -0.10739725142370209
28064340 -0.10733877481322866 -0.08615424200926532
28070057 -0.0926749458262053 -0.06567441745594525
28075774 -0.07685712192496308 -0.0455065208742203
28081491 -0.05955272451047875 -0.026534362762691676
28087208 -0.0411365779627285 -0.008959085478215984
28092925 -0.021161945744958437 0.007508219832507758
28098642 -0.00014402779933525702 0.022996774256389643
28104359 0.021859454450256877 0.03653107729399559
28110076 0.044767544712106304 0.04875806499634359
28115793 0.06830041392993746 0.05967694678341556
28121510 0.09284262777690437 0.06879549510005956
28127227 0.1175489558379064 0.07587783893541585
28132944 0.14263032167321293 0.08151412585415496
28138661 0.1679984711936797 0.08564643142624088
28144378 0.19324786732002944 0.08787582532628488
28150095 0.2182023625967229 0.0881709552635833
28155812 0.243005260888833 0.08746505960452537
28161529 0.2676160652768434 0.08454278243517943
28167246 0.2913173356616898 0.08014766756054874
28172963 0.3147582210092189 0.0750401991028229
28178680 0.33729820543352684 0.0680670415646597
28184397 0.35885616109081886 0.060158639512799865
28190114 0.3798527014599385 0.05106575282030136
28195831 0.3998804345748385 0.04082806530822643
28201548 0.41877088634060844 0.02983162140791549
28207265 0.4367218634721937 0.01775532715322559
28212982 0.45396887298009947 0.005328824893598282
28212982 0.45367657252955573 0.005769189626638749
28218817 0.4703196749607412 -0.008265019500503222
28224652 0.485710248962122 -0.022335189283036044
28230487 0.5000305243338087 -0.03691160284956275
28236322 0.5132409751799504 -0.05158295324229516
28242158 0.5253460892168452 -0.06688644630591116
28247993 0.5362076242513636 -0.08236429010486905
28253828 0.5467102687394126 -0.09783298471100896
28259663 0.5561000640289945 -0.11367166965175331
28265498 0.5641985816868242 -0.12913668800834438
28271334 0.5719071694611827 -0.14481666905797438
28277169 0.5786453150253756 -0.1606143411043284
28283004 0.5844576551334557 -0.17619987989801766
28288839 0.5896331187381142 -0.19152548504798622
28294674 0.5943115113413363 -0.20695371126509268
28300510 0.5980418646060645 -0.2221377092087712
28306345 0.6009416100225382 -0.2368477456155584
28312180 0.6038246267920669 -0.2518657851169428
28318015 0.605840492191848 -0.2661579385666605
28323850 0.6072862381930197 -0.2801018183048311
28329686 0.6082314497958403 -0.29423376168333387
28335521 0.6089916260029994 -0.3081669047772226
28341356 0.6089189788597987 -0.32143070039196014
28347191 0.6085578661125458 -0.3345671614157354
28353026 0.6080499746157253 -0.34745881819398633
28358862 0.6071138453703953 -0.360284744990746
28364697 0.6054887082132079 -0.3724349850639441
28370532 0.6040366069976818 -0.38450567671227914
28376367 0.6019153512996561 -0.39645181211090474
28382202 0.5994993310785705 -0.4078309965784448
28388038 0.5973073160792888 -0.4192730757008822
28393873 0.5946590015130592 -0.43006729464507165
28399708 0.5915669820578205 -0.4408841880993352
28405543 0.5884000462988371 -0.45142812288703965
28411378 0.585152120745741 -0.46175677339123516
28417214 0.581534756284854 -0.4716524353712944
28423049 0.5780381930320425 -0.48144697163266614
28428884 0.5741014309604832 -0.49098206901841446
28434719 0.5700411586305583 -0.5003665264972283
28440554 0.566076043562915 -0.5093636336794631
28446390 0.5620281505836928 -0.5182251704434124
28452225 0.5576827251573059 -0.526753778281873
28458060 0.553116350179488 -0.5352910748742938
28463895 0.5487657290552962 -0.5434799271906148
28469730 0.5441351953359089 -0.5516687926049935
28475566 0.5394352068152295 -0.5593339666599371
28481401 0.5343861851618739 -0.5670338366347177
28487236 0.5300363657185431 -0.5744167229280344
28493071 0.5251273835083227 -0.5817843045466197
28498906 0.5200059709180194 -0.5888493348682361
28504742 0.5152035592616758 -0.5959493160786613
28510577 0.510048045558929 -0.6026188247072012
28516412 0.5047755628974602 -0.6091810927291677
28522247 0.4997179071709148 -0.6157471347678819
28528082 0.4946829977395393 -0.622100809502839
28533918 0.48932694221331946 -0.6281647868503475
28539753 0.4841734712598478 -0.6341741782293232
28545588 0.47884067857034673 -0.6400061326708545
28551423 0.4733254219396548 -0.645708442643955
28557258 0.46788663460047464 -0.6513248469448322
28563094 0.4628004778060933 -0.6567765166265981
28568929 0.4571011507305743 -0.6620748178601423
28574764 0.45188808557554594 -0.6672188517779537
28580599 0.4466083354198077 -0.67227985853381
28586434 0.4408830076068605 -0.6773373433907519
28592270 0.4354783565993086 -0.6820816565020599
28598105 0.43011306093806 -0.6868856630871909
28603940 0.42482272272152577 -0.6916748358950776
28609775 0.4191647484465725 -0.6961126334069003
28615610 0.41375323620229293 -0.7002930460660249
28621446 0.40806762342361447 -0.704744914931254
28627281 0.40270118514574094 -0.7089117089999436
28633116 0.39727701449557945 -0.713082413626212
28638951 0.39178551040422466 -0.7172824692468857
28644786 0.3862269976476825 -0.7209876248277093
28650622 0.38060665083591894 -0.7250141818143006
28656457 0.3752017279199564 -0.728669716727958
28662292 0.36974568076744724 -0.7326249165023327
28668127 0.36412707183199544 -0.736270679246413
28673962 0.35861926621371315 -0.7395556752192395
28679798 0.3531151601442279 -0.7430316955538414
28685633 0.3478014914373388 -0.7465580815524538
28691468 0.3422522050939913 -0.7494212441192218
28697303 0.3367276412075432 -0.7528237192757016
28703138 0.33116602586462207 -0.7558945351410077
28708974 0.3257786618051209 -0.7590428844077549
28714809 0.32018060538387877 -0.7620518249490768
28720644 0.3148884441174879 -0.7649064189066344
28726479 0.30948976687499286 -0.7676271374023693
28732314 0.3037065674253782 -0.7704856541322894
28738150 0.2984891279317678 -0.7730998084722278
28743985 0.29293819159897055 -0.7758378657616884
28749820 0.2872977302125013 -0.7784979928022938
28755655 0.28202599368806097 -0.7809526687050877
28761490 0.2764830213791053 -0.7833705578751428
28767326 0.27110971302527537 -0.785630876380797
28773161 0.26596183632437614 -0.7879979848026439
28778996 0.26048622289645545 -0.7903682767065424
28784831 0.2549255391906087 -0.7924840122645006
28790666 0.2495834969951912 -0.7947070438640816
28796502 0.24414736680642082 -0.7968738764277888
28796502 0.24410397140931642 -0.7966877644248637
28802457 0.23873064132601507 -0.7990949533861283
28808413 0.23348725598404083 -0.800661532980646
28814369 0.2278527400886874 -0.8029134498118536
28820325 0.22240540968673633 -0.8047700093869796
28826281 0.21691845793494122 -0.8064295713482931
28832237 0.2114119626640522 -0.8084546645804753
28838193 0.20603749021730008 -0.8099035289679751
28844149 0.20065698261650972 -0.8118286653073133
28850105 0.19508427393854894 -0.8133590096422159
28856061 0.1894328616398887 -0.8154068030375982
28862016 0.1844435219371834 -0.8168583454491776
28867972 0.1789763746143797 -0.8182383622446524
28873928 0.17372947851727333 -0.8198437201218881
28879884 0.16810413273129007 -0.8208047159980907
28885840 0.16280020353157693 -0.8225878956508266
28891796 0.15737540969842687 -0.8238558098546431
28897752 0.1523564285911277 -0.825147345985279
28903708 0.14663383933055094 -0.8264555811746471
28909664 0.14147545573774828 -0.8275973365359093
28915620 0.1361181035278577 -0.8285967853762076
28921575 0.13078220172188698 -0.8298678931552191
28927531 0.12543545423243824 -0.8308901866886295
28933487 0.12024891642880402 -0.8318697272217448
28939443 0.11508371606919122 -0.8325467417775159
28945399 0.1097756681907907 -0.8337180113892022
28951355 0.1045982296783828 -0.8349518813852423
28957311 0.09901786162497636 -0.8355632689409307
28963267 0.0940145478962733 -0.8364473024756397
28969223 0.08873741406964497 -0.8371952682942605
28975179 0.08336278883028081 -0.8382068321109346
28981134 0.07845883444608864 -0.8386585438025536
28987090 0.07296383865144704 -0.8391026722107419
28993046 0.06789235499801656 -0.840035376965144
28999002 0.06255813563719012 -0.8404139439974158
29004958 0.057479182880388426 -0.8411688562199789
29010914 0.052435427591212426 -0.841444235107086
29016870 0.04716491946108949 -0.8420709524780641
29022826 0.041774493366249055 -0.8426229984274028
29028782 0.03694522261049329 -0.8432001632707508
29034738 0.03171057043358948 -0.8436072100363115
29040693 0.026722252690239038 -0.8438513829465725
29046649 0.021682422749548565 -0.8442116036705479
29052605 0.016263002178786103 -0.8445583674943087
29058561 0.01142649506994796 -0.844404540618325
29064517 0.006276641635424962 -0.8447608872640071
29070473 0.0011284011317448648 -0.8448851974988233
29076429 -0.004046947439604958 -0.8450991390889735
29082385 -0.009091291222007724 -0.8450520802451796
29088341 -0.014047594821976515 -0.8454166191799489
29094297 -0.018954117367407916 -0.8451197361187661
29100252 -0.023977556900479122 -0.8452522210733574
29106208 -0.029155972686634495 -0.8451201647845127
29112164 -0.034151710885594794 -0.8451526069031206
29118120 -0.03901651394851985 -0.845038074737021
29124076 -0.04388284854260751 -0.8448653866704132
29130032 -0.0488279007796774 -0.8447681843931133
29135988 -0.053942650951069294 -0.8446296269818868
29141944 -0.058949985507195615 -0.8442698701941475
29147900 -0.06363719321645438 -0.8441133432580615
29153856 -0.06891622712249595 -0.843625253746809
29159811 -0.07382670992189631 -0.8433184202384147
29165767 -0.07856063441956146 -0.8432359232506466
29171723 -0.08346932429188768 -0.8428609697479614
29177679 -0.08823657194099285 -0.8424097275915563
29183635 -0.0931339667192442 -0.8416989757053785
29189591 -0.09799669360260224 -0.8412244770651671
29195547 -0.10296240188185592 -0.8408781771667226
29201503 -0.10787460723863353 -0.8403281109417087
29207459 -0.11255324786372688 -0.8397704916360722
29213415 -0.11735968938085177 -0.8392192965750848
29219370 -0.12214058389163648 -0.83868832794087
29225326 -0.1268057311928201 -0.8377638755109685
29231282 -0.1316187923890729 -0.8373716698815125
29237238 -0.13631827114515718 -0.8365255692922123
29243194 -0.14106212226603876 -0.8360356906200572
29249150 -0.14607585966202993 -0.8351708371364496
29255106 -0.1510290373919122 -0.834068009495496
29261062 -0.15531103586094056 -0.8334675004297879
29267018 -0.15985280159796628 -0.8328165267593032
29272974 -0.164631537053686 -0.8317580317661561
29278929 -0.16961183316331313 -0.8310665906925933
29284885 -0.17409866144679526 -0.8301808055513893
29290841 -0.1787789475154744 -0.829351804529032
29296797 -0.18333183907691994 -0.8279639228212504
29302753 -0.18799362079064294 -0.82711699487617
29308709 -0.19271649257415782 -0.8261637825966902
29314665 -0.19730249216173723 -0.8248734552979095
29320621 -0.2018296080688519 -0.8241038483081201
29326577 -0.20626575218062707 -0.8230190223072771
29332533 -0.2109202143778747 -0.8216663386465629
29338488 -0.21533605051796956 -0.8205111645554182
29344444 -0.22001507102282367 -0.8194570506011766
29350400 -0.22436285589185373 -0.8182827799595427
29356356 -0.22912031023916496 -0.8170265551213891
29362312 -0.23359846971331608 -0.8160711828692716
29368268 -0.23822612725102865 -0.814878227075126
29374224 -0.2423777404048393 -0.8132934748940932
29380180 -0.24701150367660193 -0.811891315395646
29386136 -0.2513623612352378 -0.8107161936586803
29392092 -0.2559682399274359 -0.809364296184262
29392092 -0.25610951133463583 -0.8097598952446441
29398171 -0.26032548970223823 -0.8080911674987109
29404250 -0.2650127257625711 -0.8062831834311415
29410329 -0.2695301105922641 -0.8048254513286793
29416408 -0.27386610731802574 -0.8036816850782214
29422487 -0.2782349247979296 -0.8020274462085004
29428566 -0.28288634960729614 -0.8005292107345231
29434645 -0.28731373060819415 -0.7988793223738341
29440724 -0.29156640042915566 -0.7974145994691619
29446803 -0.2961251091290157 -0.79580064899794
29452882 -0.3003455901112804 -0.794011453066277
29458961 -0.3049052761967128 -0.7926556667530316
29465040 -0.30917363482797394 -0.7907833297273223
29471120 -0.3134601909632882 -0.7891691844434782
29477199 -0.3178800919644696 -0.78739199915575
29483278 -0.32213566818934136 -0.7855424327773085
29489357 -0.3264857466797059 -0.7836970202082084
29495436 -0.3307246940722064 -0.782139215662064
29501515 -0.3351037837711308 -0.7803775297036692
29507594 -0.3392166979898052 -0.7784643863600268
29513673 -0.34366575398293825 -0.7765963012302157
29519752 -0.3478510472387475 -0.7745959338763829
29525831 -0.35216548546275483 -0.7726899386315049
29531910 -0.3562320010513486 -0.77101985170405
29537989 -0.36059740086006375 -0.7690328978738944
29544069 -0.36449445218688076 -0.7670260885681801
29550148 -0.3685767660407925 -0.7643669713985429
29556227 -0.3729169074571908 -0.7628760773037722
29562306 -0.37715643399360754 -0.7609190188433563
29568385 -0.3811041199989296 -0.7590019935725257
29574464 -0.3852851365859078 -0.7565373170447628
29580543 -0.38923693035465506 -0.7548747535075334
29586622 -0.39349957477838027 -0.7528603067350594
29592701 -0.3973643831369644 -0.7506036908204768
29598780 -0.40152698088020555 -0.7482725392995668
29604859 -0.4056794004439313 -0.7461457622195485
29610938 -0.4096027356591904 -0.7436551421933593
29617017 -0.41353882353233046 -0.7418244790463523
29623097 -0.41756838679835234 -0.7395740590451217
29629176 -0.42135034059540954 -0.7370538023972019
29635255 -0.42545153637122973 -0.7350808259877976
29641334 -0.42941168595353907 -0.7330359205868608
29647413 -0.43347015774855796 -0.7304802608601114
29653492 -0.43716032586432674 -0.7278620475564092
29659571 -0.44114181246258505 -0.725650187444488
29665650 -0.44487428138262447 -0.7232916855553717
29671729 -0.44873024502293757 -0.7209288307113919
29677808 -0.4526924564707228 -0.7184530596517539
29683887 -0.45656585454826554 -0.7161507903188339
29689966 -0.4601917312763634 -0.7135414524582838
29696046 -0.46406475849563794 -0.7111950365313748
29702125 -0.4679995065273223 -0.708728455868584
29708204 -0.47157145198731504 -0.7062185140357584
29714283 -0.47539019160901436 -0.7035252997314936
29720362 -0.4789438435950116 -0.7011452602776891
29726441 -0.4829514190349055 -0.6985372446012355
29732520 -0.48643738081263777 -0.6958856864300581
29738599 -0.49014341718627574 -0.6934695750055857
29744678 -0.493961877999415 -0.6909412559709256
29750757 -0.49759686343376397 -0.6881849129696965
29756836 -0.501298330687852 -0.685693361519317
29762915 -0.5047526114524263 -0.6829054522103518
29768994 -0.5082418279874436 -0.6802345375287415
29775074 -0.5119279410732899 -0.6775184083134274
29781153 -0.5153126270209009 -0.6748055064876384
29787232 -0.5189401491193146 -0.6719769000925347
29793311 -0.522652120907436 -0.669421674781657
29799390 -0.5259356813668529 -0.6663836319208911
29805469 -0.5293863973032046 -0.6636829733979769
29811548 -0.5329700574751882 -0.6606854743384812
29817627 -0.5362423207693182 -0.6581756903481881
29823706 -0.5398316223935508 -0.6550854491580393
29829785 -0.5433361953896475 -0.6521541583732352
29835864 -0.5467386608869359 -0.649348767643591
29841943 -0.550139123454502 -0.6466637171985548
29848023 -0.5535595753250495 -0.6438748456616495
29854102 -0.556787165205013 -0.6408899428731096
29860181 -0.560174068193743 -0.6375751593847379
29866260 -0.56329079115642 -0.6349394635539258
29872339 -0.566478879460992 -0.6320724702672763
29878418 -0.5701093150865589 -0.6290052865824818
29884497 -0.57318041189394 -0.6260065635370271
29890576 -0.5763878911946736 -0.6228098324457905
29896655 -0.5798331921995118 -0.6201674929226499
29902734 -0.5830259647094955 -0.6169799262920753
29908813 -0.5861706497642258 -0.6138453138023986
29914892 -0.5893712941474158 -0.6107604051998634
29920971 -0.5924424756861378 -0.6077220464711928
29927051 -0.5955164770549901 -0.6046461321060659
29933130 -0.5987174615949922 -0.6013318652367067
29939209 -0.6019946737836769 -0.5983585814859373
29945288 -0.604900835002415 -0.5950580701909928
29951367 -0.60800734263141 -0.5920615226574594
29957446 -0.610977463755093 -0.5890788809018476
29963525 -0.6139997939123886 -0.5857914548293073
29969604 -0.6172545878502045 -0.5825522921790015
29975683 -0.620122784304878 -0.5792152837026027
29981762 -0.6229742505779088 -0.5759649187938495
29987841 -0.6260472795891296 -0.5728061204583899
29993920 -0.6288444901560367 -0.5695398288763065
30000000 -0.6316870768335144 -0.5662170024357961
