# HZ S RI R 50
500000 -0.9449098607165114 -0.36508113694913963
500103 -0.9510032008456325 -0.3669379214890937
500206 -0.9480755038486073 -0.3659966861976952
500310 -0.9496044142345264 -0.36548410602250686
500413 -0.9521785500820146 -0.3666800656404784
500517 -0.949950175634835 -0.3664683783621735
500620 -0.9480741328570873 -0.36573724616083925
500723 -0.9490491391685306 -0.36562527889542845
500827 -0.9506110450114781 -0.36606283615763524
500930 -0.9507504975044317 -0.3663813578319593
501034 -0.950272192139998 -0.36539920364583717
501137 -0.9508568189882427 -0.3666566636441105
501240 -0.9492637426179211 -0.364996306582192
501344 -0.9487059445839234 -0.36546614393483356
501447 -0.949031365492941 -0.3655632614515655
501551 -0.9489671712586861 -0.36527152179090233
501654 -0.9498470424758728 -0.36538740249182766
501757 -0.9507494197553144 -0.36529023411776007
501861 -0.9508816830400897 -0.3652757085787524
501964 -0.9513474440450156 -0.3649203544459695
502068 -0.950020687372224 -0.36547793097705233
502171 -0.9504497654248376 -0.36535456172085046
502275 -0.9497139658936162 -0.36536915196579745
502378 -0.9489680293857453 -0.36506926402517403
502481 -0.9498489249140879 -0.36496025720106134
502585 -0.950240351780279 -0.3645449911010523
502688 -0.9513835870908615 -0.36415292754011175
502792 -0.9507509670410339 -0.3648910266470437
502895 -0.9513093039036224 -0.3645647712629974
502998 -0.9520970641070574 -0.3642546048206987
503102 -0.9489006099304915 -0.3643274782738807
503205 -0.948685963016565 -0.363988081057232
503309 -0.9503847050785791 -0.36408057072127414
503412 -0.9512753631410111 -0.3639138626645066
503515 -0.9518948197149139 -0.3640556304263448
503619 -0.9503088076637423 -0.3641221421367695
503722 -0.9495050921549862 -0.36339330915775414
503826 -0.9496653892510777 -0.3636344681840558
503929 -0.9495949210855003 -0.3633907562348542
504032 -0.9505215364139101 -0.3627303640928887
504136 -0.9509314065507609 -0.36239605142852255
504239 -0.9512308761837444 -0.36304310350456803
504343 -0.9516370160662924 -0.3629267491411826
504446 -0.9513848162857221 -0.36267423003756444
504550 -0.950014900745231 -0.36264590084596743
504653 -0.9502964484288984 -0.3624712887264818
504756 -0.9500666032287259 -0.3625636878943648
504860 -0.950511562948573 -0.36243350421383647
504963 -0.9509698909625253 -0.3622107758462548
505067 -0.9514221843040751 -0.3622010702157089
505170 -0.9510168450277438 -0.3621713162145879
505273 -0.9513178889948802 -0.362412107314489
505377 -0.9513673823143719 -0.36199971977318335
505480 -0.9505410889454055 -0.36222715983201254
505584 -0.9507826231699333 -0.36207238539359
505687 -0.9500596673553166 -0.36269174464385434
505790 -0.9505379526374245 -0.36125459400672166
505894 -0.9514543081752594 -0.3610553280475276
505997 -0.9508136813880746 -0.36147908890228503
506101 -0.9519936384424778 -0.3619016852809192
506204 -0.9501090964493931 -0.36164203163099085
506308 -0.9503252370492352 -0.3618565833342878
506411 -0.9505865010522021 -0.3611491425946873
506514 -0.9500501946394674 -0.36158816730864707
506618 -0.9505519524421682 -0.3610334131809519
506721 -0.951283067874401 -0.3606937539912349
506825 -0.9506108470882503 -0.3604938539478149
506928 -0.9521664634066592 -0.360522425159055
507031 -0.9523968394780474 -0.36053726087427884
507135 -0.9522709611017108 -0.3602850010550537
507238 -0.9539304363799692 -0.3606346678187743
507342 -0.9521742079798816 -0.36022717783684327
507445 -0.9524621011402232 -0.3605370565536004
507548 -0.9516431839976263 -0.3606675881647595
507652 -0.9514116543812033 -0.35997282673703657
507755 -0.951111044877672 -0.3596126662648294
507859 -0.9517181254630026 -0.3595119202387943
507962 -0.9525017533238438 -0.3594059314764729
508065 -0.9527140557922931 -0.3591287341128483
508169 -0.952464642773037 -0.35903682288810523
508272 -0.9523952491903173 -0.3593560875345224
508376 -0.952039635480074 -0.3593020541292406
508479 -0.9511980858630936 -0.35929898757379886
508583 -0.951862829913251 -0.3590989429280825
508686 -0.9520211228836204 -0.3590467402765345
508789 -0.9524368841382879 -0.3586033851598836
508893 -0.9524932040469132 -0.35910148555412474
508996 -0.9533920906870967 -0.35851829960765563
509100 -0.9527895466990967 -0.35899541477411584
509203 -0.9526265232944042 -0.35891882980234124
509306 -0.9514918721811789 -0.358893764603492
509410 -0.95194940613052 -0.3584780091455453
509513 -0.9502869699520899 -0.3591714592320197
509617 -0.9530700915194478 -0.3577913217125761
509720 -0.9523301349521747 -0.35811776332761924
509823 -0.9547813251022368 -0.3587594301570234
509927 -0.9527963241209281 -0.3586094041781303
510030 -0.9532524417896882 -0.3572761846843261
510134 -0.9526439038401551 -0.3577860207373071
510237 -0.9519098691546561 -0.35794096981405005
510341 -0.9505968188357287 -0.35797023643581216
510341 -0.9524766809620236 -0.35786361461417254
510446 -0.9561213446227167 -0.35760673814072813
510552 -0.9515194177524476 -0.35762452982426784
510657 -0.9519657675335751 -0.3572579377333822
510763 -0.9517432113121834 -0.3574922493962328
510868 -0.9518781614445446 -0.35696584491894184
510974 -0.953711646201401 -0.35648608470479287
511079 -0.9532659772686299 -0.35659099208219747
511185 -0.9532037041096667 -0.357081804746149
511291 -0.9530513054395144 -0.35652211026300445
511396 -0.9536570450372828 -0.35700260904279907
511502 -0.9537018252362873 -0.3569394251693784
511607 -0.9514477266827414 -0.3563687040139907
511713 -0.9515740694795266 -0.3559748185023593
511818 -0.9524196204918514 -0.35615103013564725
511924 -0.9529445719077773 -0.3562036359206653
512029 -0.953038069188959 -0.3553229894202993
512135 -0.9541160653162694 -0.3558476970410432
512241 -0.953846165517074 -0.35547502092270755
512346 -0.9534494534959396 -0.35593033291169307
512452 -0.9533369705447046 -0.3555871136444008
512557 -0.9524822181402108 -0.3556884205500813
512663 -0.9523432226379068 -0.35567940160527606
512768 -0.9531464568252576 -0.35545184678028885
512874 -0.95360353861509 -0.3554013513094856
512980 -0.953517470621846 -0.3551911006167262
513085 -0.9538264252379105 -0.35545514252687105
513191 -0.9539272965510707 -0.3547915741145433
513296 -0.9535825412174146 -0.3550847293217901
513402 -0.9525920542734703 -0.35559650024878753
513507 -0.9538604666602667 -0.35399026466092265
513613 -0.954378429672166 -0.3548328682385957
513718 -0.9531437852639065 -0.3545138912862283
513824 -0.9536961061548761 -0.35393455417166103
513930 -0.9538120119248389 -0.3541536703000557
514035 -0.9542481760885683 -0.354046386714713
514141 -0.9529322857416846 -0.3538604621020514
514246 -0.9534851040312857 -0.35393833874903635
514352 -0.9528690791071907 -0.3540870782599109
514457 -0.9526010793914476 -0.3538953987152406
514563 -0.9530016734512944 -0.3540644558267465
514668 -0.9535480167363373 -0.35378434950744875
514774 -0.9537124535432865 -0.3533922068033851
514880 -0.9539652554361593 -0.3532141175123273
514985 -0.9545129174959319 -0.3533518214790111
515091 -0.9533934221398187 -0.35287990234417943
515196 -0.9538691549698849 -0.35274462404220563
515302 -0.9536356976671283 -0.35294218952531414
515407 -0.9536959761081015 -0.35319224513419395
515513 -0.954045422624629 -0.3524151223212832
515619 -0.9518869587090476 -0.35199290850039555
515724 -0.9523406733520199 -0.35211109591204354
515830 -0.9553361956425279 -0.3526971485710114
515935 -0.9550669604462593 -0.35276826088336105
516041 -0.9547018136961141 -0.3524206895805103
516146 -0.9545400440658004 -0.3526543300559193
516252 -0.9543047066755738 -0.3521373761686474
516357 -0.9537893703016195 -0.35241521658490405
516463 -0.9533265032532885 -0.3518657819343669
516569 -0.9539409202002251 -0.35149969057151503
516674 -0.9547965121731601 -0.3514098445370464
516780 -0.954781752965046 -0.3516671377654811
516885 -0.9551223568269734 -0.35188487960853937
516991 -0.954929622796254 -0.35171446185292266
517096 -0.955187880250356 -0.35146447759738964
517202 -0.9551991509095968 -0.35094800427854184
517307 -0.9537410980173767 -0.3513361618123295
517413 -0.9541845627761268 -0.3514063652477318
517519 -0.9548534514813383 -0.3508876158983428
517624 -0.9548282281456559 -0.35100511118103567
517730 -0.9556802418329474 -0.35075409089044846
517835 -0.954704095315181 -0.3509158707972838
517941 -0.9557367511591923 -0.3506060182138259
518046 -0.95506246189789 -0.350607002806033
518152 -0.955015769410013 -0.35082098837275044
518258 -0.9547607759417208 -0.3507796567208333
518363 -0.9543727683100998 -0.350140433929532
518469 -0.9548629303740842 -0.3502896556082243
518574 -0.95401364508806 -0.34995337826838535
518680 -0.9542143208737944 -0.3505610816780275
518785 -0.9564667856148935 -0.3496664722195365
518891 -0.9553286941284514 -0.34927846529458123
518996 -0.9567062813079505 -0.34992396166571593
519102 -0.9553706810286529 -0.3496070032040836
519208 -0.954170951505317 -0.34956162224027326
519313 -0.9541078743146991 -0.349232165914269
519419 -0.9554876881541716 -0.3491943785504257
519524 -0.9551276769172312 -0.3489420322541347
519630 -0.955675141875741 -0.3490599184748
519735 -0.9541069690421058 -0.3484521150380969
519841 -0.9579062884829793 -0.35042764829967904
519946 -0.9562132852415086 -0.34912100290388365
520052 -0.9560065584124391 -0.3490360268325203
520158 -0.9544166159999364 -0.34858740778376107
520263 -0.955219357677752 -0.3488456344005278
520369 -0.9542327690714553 -0.3478723133888459
520474 -0.9560954735684691 -0.3485789587462047
520580 -0.9562060988746518 -0.3483876233011109
520685 -0.9561274675977349 -0.34844995595901934
520791 -0.9567681284325243 -0.34808400200237116
520897 -0.9561310251024207 -0.34826385871633575
520897 -0.9555628643472556 -0.34832005812929795
521004 -0.9547301021219724 -0.34848551596257826
521112 -0.9542589223947539 -0.3476387516743729
521220 -0.956063407940897 -0.34782870857294945
521327 -0.9579150633262291 -0.34785301132720536
521435 -0.9584108598812124 -0.3480297141532814
521543 -0.956340311621906 -0.34736236431682244
521651 -0.9561078098971811 -0.34765940943598744
521758 -0.9561188254929375 -0.3470674484038752
521866 -0.9525256974150808 -0.346731112081983
521974 -0.954622382297544 -0.34717281168520203
522082 -0.9540889119756566 -0.3469311470114291
522189 -0.9553377677651773 -0.3465380138980047
522297 -0.9557616082302817 -0.34623534752406604
522405 -0.9571917662958925 -0.34677351326864236
522512 -0.9555065844327453 -0.3461720537059355
522620 -0.9564298683740533 -0.3463962940542256
522728 -0.9569047548490267 -0.3465941629530468
522836 -0.9566629753582061 -0.34620954504641777
522943 -0.9550580096015667 -0.34682342863307136
523051 -0.9576493585672451 -0.3458408107463178
523159 -0.956501498133707 -0.3454253230391881
523267 -0.9565044844588803 -0.3453092022272018
523374 -0.9561997015801073 -0.34460645079360247
523482 -0.9583003247882742 -0.3464855622224382
523590 -0.9557347457071503 -0.344364444718735
523697 -0.9555445020070805 -0.34508994688867195
523805 -0.9562842780775686 -0.3457512703754599
523913 -0.9552246782234716 -0.3445235557306672
524021 -0.9556938710376442 -0.34441229310151256
524128 -0.9571244483685923 -0.3449462752414191
524236 -0.9541007137029254 -0.3442774426586275
524344 -0.9568575220742613 -0.3451996118044475
524452 -0.9470600201135696 -0.34285132820033004
524559 -0.949379305340309 -0.34174067795392954
524667 -0.9564855992363827 -0.34501863602779137
524775 -0.9496631583248183 -0.34367370881676396
524883 -0.9586857034310211 -0.3453860853951822
524990 -0.9704783398344417 -0.34844413377220257
525098 -0.9655832197753013 -0.3463592536038079
525206 -0.9585450499014938 -0.34447504564702774
525313 -0.9578097303764738 -0.34413724693938774
525421 -0.9582607365426308 -0.34485977361311554
525529 -0.9570537775666302 -0.3441582172072972
525637 -0.953846437550383 -0.34353757293728643
525744 -0.9564195147372242 -0.34371549465806017
525852 -0.9544593673259703 -0.3427609048801494
525960 -0.9598249539415168 -0.3444244869268016
526068 -0.9644635585643877 -0.3432742301594602
526175 -0.951953523804641 -0.34212991705327933
526283 -0.9593968120318151 -0.3430917187932053
526391 -0.9557870449268339 -0.3422971468822882
526498 -0.9561559863683204 -0.3422560873118992
526606 -0.9542048469244613 -0.34279475118737524
526714 -0.958073914357611 -0.3429130343499387
526822 -0.9572038919617836 -0.3426080452868948
526929 -0.9569756208930889 -0.3421714771766157
527037 -0.9570002263178926 -0.3427175358806123
527145 -0.956819370615055 -0.34201358735947496
527253 -0.9579451760648389 -0.34192642975398263
527360 -0.9577997962254222 -0.34271988732355163
527468 -0.9580183009124075 -0.3421499977480444
527576 -0.9573323088888609 -0.341695360568363
527683 -0.9580362271559187 -0.3422250891046791
527791 -0.9568859694988476 -0.34146785894794135
527899 -0.9569435157435043 -0.34120716137171836
528007 -0.958475032496914 -0.34083280695278245
528114 -0.9554753739005779 -0.34121883279801496
528222 -0.9589094775843194 -0.34196902383468264
528330 -0.9578377670863396 -0.34203300306129797
528438 -0.956759280061804 -0.34164242628779223
528545 -0.956694190799977 -0.34107793034355943
528653 -0.9564920314011093 -0.3411769113631154
528761 -0.9580856024309252 -0.3406754545986446
528869 -0.9585077623834252 -0.34075326240067366
528976 -0.9587108653531988 -0.3409521281755452
529084 -0.9587789957693089 -0.34050612559042037
529192 -0.9582782674388945 -0.3409571398695173
529299 -0.9578283027409381 -0.34041195295318305
529407 -0.957688948771224 -0.3403769332083332
529515 -0.956887962057968 -0.3405635882102808
529623 -0.9571617893771514 -0.34016940833276804
529730 -0.9566528602799179 -0.33941158814902017
529838 -0.9579959646826829 -0.3391063183818231
529946 -0.9583860165186762 -0.340300150297565
530054 -0.9582835354813634 -0.33971948673710844
530161 -0.9581802894497603 -0.3395374902880272
530269 -0.9574917341015424 -0.33975382160788464
530377 -0.9567998189463022 -0.3395333633347298
530484 -0.9576628486362899 -0.33942538157950175
530592 -0.9582434050448023 -0.33894214394671424
530700 -0.9580296922937435 -0.33841655371218254
530808 -0.959157462498037 -0.3390076369439042
530915 -0.959092614375739 -0.33867534634594415
531023 -0.9592487659722269 -0.3389548262735759
531131 -0.9592038855637084 -0.3387202849097366
531239 -0.9584036970903549 -0.33936100532111413
531346 -0.9586814201544348 -0.3395636411720743
531454 -0.9576538119939616 -0.33870946904990434
531562 -0.9589797273697576 -0.3390658065991719
531670 -0.9591982107207851 -0.33800451174522633
531670 -0.9590661092002479 -0.337917532394359
531779 -0.9595744357543431 -0.3372279411047315
531889 -0.9591283545768418 -0.33803653501129227
531999 -0.9590074507356433 -0.3381559278043076
532109 -0.9589914212748911 -0.3373651605628577
532219 -0.9584864118973697 -0.3381262302588204
532329 -0.9578868682444815 -0.33710547212425407
532439 -0.9581642097163156 -0.3379441451319882
532549 -0.9590652314774142 -0.33733320322659216
532659 -0.9592396543607762 -0.33727541666766836
532769 -0.9590388107981292 -0.33707739539422094
532879 -0.9593342355983832 -0.33723189396305553
532989 -0.9589599300474224 -0.33711317657788803
533099 -0.9584814492032308 -0.33716971574784926
533209 -0.9578647934902532 -0.336708206013174
533319 -0.9587737215556605 -0.33642514573181537
533429 -0.9594442813353166 -0.3363352853901145
533539 -0.959682238544206 -0.3361575379664705
533649 -0.9597107699423039 -0.33646900550653736
533759 -0.9595659150117007 -0.3362784887200863
533869 -0.959874215998574 -0.3364417474040683
533979 -0.959555428858603 -0.33617675136235403
534089 -0.958810023933607 -0.3360731540847432
534199 -0.9585266179993368 -0.33582119082274176
534309 -0.9606243844674262 -0.33594577610313436
534419 -0.9586729282898796 -0.33511609616316335
534529 -0.9608177102139572 -0.33599792414595436
534639 -0.9602992882795733 -0.3353810568686955
534749 -0.9603031858519676 -0.3352873996190209
534859 -0.9593156077103832 -0.33510669211325655
534969 -0.9595662637166571 -0.3356131803095949
535079 -0.9587992989932427 -0.33501119830656456
535189 -0.9585504474799057 -0.33424039871669964
535299 -0.9600013574711719 -0.33380178910959496
535408 -0.9594962641039853 -0.3350240894036235
535518 -0.9596824462709583 -0.3352093933181905
535628 -0.9609277092363647 -0.334502931714748
535738 -0.9607463884547733 -0.33484623783823075
535848 -0.9598712641959708 -0.3347337435699601
535958 -0.9595958638938679 -0.33463181277873627
536068 -0.9587435502090295 -0.33483502813342564
536178 -0.9594668288011441 -0.33398349053313475
536288 -0.9600561045860687 -0.3339755082702966
536398 -0.9605162240741784 -0.33381891203909264
536508 -0.9603435513840478 -0.33401783175637817
536618 -0.9609910431817643 -0.3337788529978007
536728 -0.9601256713262604 -0.3335326185676004
536838 -0.9597069808928289 -0.33378304410733584
536948 -0.9584847094158434 -0.3333899270367246
537058 -0.9596601536409911 -0.3336934579876646
537168 -0.9601166206291134 -0.3330282648148076
537278 -0.9600228066634583 -0.3327564698804071
537388 -0.960441856881538 -0.33284434250376005
537498 -0.96072794607071 -0.33281276141586935
537608 -0.96102370658993 -0.332987461916996
537718 -0.960041612908568 -0.33243935216443793
537828 -0.9599855597715192 -0.3329292666115343
537938 -0.9589431603614763 -0.3328088134775825
538048 -0.9600472812768551 -0.3323843406175961
538158 -0.9602484147150004 -0.33190904679131744
538268 -0.9605005613424578 -0.3318959469388184
538378 -0.9613495674802848 -0.3326651525130751
538488 -0.9620366095885088 -0.3324718109410171
538598 -0.9606685021350477 -0.3315199281246313
538708 -0.9598339570920766 -0.3320616141743323
538818 -0.9601888798286702 -0.33157936224713
538928 -0.959806579239028 -0.3314965063730312
539037 -0.9603255757958506 -0.33138616423657413
539147 -0.9613209164996341 -0.33163255872654773
539257 -0.9606238183359725 -0.33102282484202133
539367 -0.9612057089780304 -0.33102994081238435
539477 -0.9625365776488887 -0.3305510165004726
539587 -0.9603861861765411 -0.33136102440478216
539697 -0.96026642526399 -0.3307421963550967
539807 -0.9601039439708652 -0.3313531778873003
539917 -0.9594377877916086 -0.3301447708272748
540027 -0.9600136392985124 -0.3301929723255642
540137 -0.9612125117150012 -0.3299634131759278
540247 -0.9617189570228707 -0.3308250743078834
540357 -0.9616498597493257 -0.33039140482869533
540467 -0.9611898391723386 -0.33004448922049107
540577 -0.9609319943278153 -0.3303434774259553
540687 -0.9596918078244666 -0.33011702740467896
540797 -0.9604564191893505 -0.33020819379292443
540907 -0.9603751785108522 -0.3296795044755475
541017 -0.9611653126121145 -0.3294023020715047
541127 -0.9614853985059 -0.3295958756044626
541237 -0.9624205939787422 -0.32960750259066385
541347 -0.9620679418191653 -0.3296998702230519
541457 -0.9613348108191542 -0.32918390942943804
541567 -0.961416797486837 -0.3293418204210131
541677 -0.9606811100515603 -0.3289887034544846
541787 -0.9611001008343814 -0.3286193038261474
541897 -0.9612691690076586 -0.32862249105046776
542007 -0.9616918094310655 -0.3283763942434087
542117 -0.9622886769183513 -0.3288622798972437
542227 -0.9621095769968145 -0.32837286304714913
542337 -0.9617763825348681 -0.3285371157927515
542447 -0.9618540428624279 -0.3285579705450331
542557 -0.9611625018733684 -0.3287266561042836
542667 -0.9602532147367694 -0.32861177583525697
542667 -0.9612189095501105 -0.3282117396248279
542779 -0.9617512039732786 -0.3278301837880577
542891 -0.962547394934726 -0.3277099848573982
543003 -0.9627449757441034 -0.32815263497593805
543115 -0.9624244052933093 -0.3277017539503262
543228 -0.9624565124690688 -0.3277964748114248
543340 -0.9621565875121026 -0.32795645495556114
543452 -0.9608266405620145 -0.32783629191851305
543564 -0.9605368205542766 -0.3276719751318976
543677 -0.9616116058828769 -0.3276500193618053
543789 -0.9612068245304284 -0.3278748193999403
543901 -0.9627876468423344 -0.32753061776394143
544013 -0.9624492078972547 -0.3271873921375379
544125 -0.9618589481598969 -0.32701812351511955
544238 -0.9613549188007179 -0.3273966306694069
544350 -0.9616475818069088 -0.3264039015262264
544462 -0.961092547136013 -0.3266984284340526
544574 -0.9625698983205564 -0.3261585935758608
544687 -0.9625200634765098 -0.3256496008296766
544799 -0.9649690864894735 -0.32639226807271304
544911 -0.963809991940179 -0.32603746611632267
545023 -0.9628078880749628 -0.3263875274887047
545136 -0.9627283512569692 -0.32591016074156104
545248 -0.9619562417190932 -0.325961982103798
545360 -0.9612185791521829 -0.3257269250787372
545472 -0.962472683505801 -0.32536590579418434
545584 -0.9624716659997844 -0.3249398465361121
545697 -0.9626178087232582 -0.32491812057067726
545809 -0.9630113607969177 -0.3251931090708263
545921 -0.9627983268159278 -0.32480571738178277
546033 -0.9627551140195723 -0.32481538943736843
546146 -0.9623278045967147 -0.3248820701249957
546258 -0.9616055304904181 -0.3249520218376313
546370 -0.9622785527069886 -0.32421065632922386
546482 -0.9626744961277987 -0.3244880859991637
546595 -0.9627558440758559 -0.32425048263380835
546707 -0.9630312377766131 -0.3248779578604106
546819 -0.9637570030394487 -0.3238461567082756
546931 -0.9630999501007104 -0.32442521713886924
547043 -0.9630701924598796 -0.32369214179993844
547156 -0.9625887861678453 -0.3241049514492108
547268 -0.9622811312737913 -0.324025953445483
547380 -0.9629442362942422 -0.3232624541825724
547492 -0.9627466333048454 -0.32398265068571647
547605 -0.9627346421452304 -0.3235154192639667
547717 -0.9643725756468419 -0.32361499955795575
547829 -0.9654688015928828 -0.3232081746914772
547941 -0.9622433001212549 -0.32495643311546557
548054 -0.9638283729983644 -0.3237815007287932
548166 -0.9614494547825535 -0.32365394818202764
548278 -0.9621226533245661 -0.3232634891248496
548390 -0.9633556707760882 -0.3227813998663572
548502 -0.9634835784772023 -0.32259414168402556
548615 -0.9637015478298486 -0.3225559287971782
548727 -0.9634352454984951 -0.32229373483520907
548839 -0.9628274084996796 -0.3222202541437301
548951 -0.9629351481672193 -0.32262722693123386
549064 -0.962638735991583 -0.3226010506212513
549176 -0.9627886143081918 -0.3222030251700075
549288 -0.9620502991680064 -0.3215338874530102
549400 -0.9621948074224971 -0.3212694877712642
549513 -0.9627740121475274 -0.3213464358968982
549625 -0.9642698013176142 -0.32155420301602206
549737 -0.96595315816495 -0.3219345013431047
549849 -0.9635335655145698 -0.3214507569934385
549961 -0.9634348511568972 -0.321887581428706
550074 -0.9618719934162078 -0.3209191938978379
550186 -0.9634166944385897 -0.3215011821575473
550298 -0.9645132494385954 -0.3207205470393319
550410 -0.9647438265329983 -0.32136725222754947
550523 -0.9631984086272425 -0.3209388546006407
550635 -0.9634605183412907 -0.32068968202438214
550747 -0.9677270604875123 -0.3213411027396413
550859 -0.9633809940662115 -0.321324439955773
550972 -0.9636591280472595 -0.3209098763760852
551084 -0.9631354281606178 -0.32172819389272406
551196 -0.9647038339015983 -0.3202539270585311
551308 -0.9641401616715084 -0.32010709537070936
551420 -0.9646440744361953 -0.3209246765852065
551533 -0.9640986686237845 -0.3199657505967931
551645 -0.964700991678321 -0.3204100160754661
551757 -0.9652105857440119 -0.32025359452396207
551869 -0.9634769352253668 -0.3203828081650546
551982 -0.9633559674262262 -0.31981492387186816
552094 -0.9627297424532132 -0.31966788522201045
552206 -0.9636656565844225 -0.3191106993007177
552318 -0.9643898985256957 -0.3194181730700246
552431 -0.9650164051253215 -0.31926883437199843
552543 -0.9650827472448716 -0.31895358398606516
552655 -0.9638825361054151 -0.31857799082092964
552767 -0.9638440512979364 -0.3190881161225782
552879 -0.9632475912558707 -0.31937549461816295
552992 -0.9647237974775655 -0.31891829282867545
553104 -0.963144460053726 -0.3176882094926429
553216 -0.9638439906704995 -0.31746622222324844
553328 -0.9653633795738213 -0.31858598105911456
553441 -0.9649340681442923 -0.3185790792568732
553553 -0.9643937630085193 -0.3179330461769873
553665 -0.9644526775597491 -0.3182162507783522
553777 -0.9633104529710467 -0.31816030267850187
553890 -0.9638926001117794 -0.3178370919591278
553890 -0.9642831643958469 -0.3176168732560696
554004 -0.9652939512545456 -0.31723019107968614
554119 -0.9654127102781577 -0.31762160968547604
554233 -0.9652142776497479 -0.31758816859131916
554348 -0.9653352480616693 -0.31741410823903876
554462 -0.9646759977171725 -0.31722977381837547
554577 -0.9637240745226048 -0.3174701103303712
554691 -0.9641599013530289 -0.31719631220901734
554806 -0.9643832774755396 -0.3169452663688274
554921 -0.9644473108639273 -0.31644405268981196
555035 -0.9660333795715546 -0.3168055494610511
555150 -0.9646923912446262 -0.31665780342363714
555264 -0.9647864904026866 -0.3164620708419471
555379 -0.9657767914937307 -0.3166595987071265
555493 -0.9649284833098493 -0.3165027913514975
555608 -0.964433850434066 -0.316854006827171
555722 -0.9644318422592985 -0.31591978065231874
555837 -0.9652118092670682 -0.31578875458274497
555952 -0.965691827787068 -0.3157869949603818
556066 -0.9660660117237585 -0.31592273295695944
556181 -0.9662990567196957 -0.3157342183589644
556295 -0.9673542933572962 -0.31556544522242935
556410 -0.9642255824971043 -0.3155479562437545
556524 -0.9647866946314411 -0.3155450469622363
556639 -0.9648979654775567 -0.3152904542192773
556754 -0.9658815426849827 -0.31499572896892186
556868 -0.9659892363091038 -0.31495204968078383
556983 -0.9660805124211833 -0.31517668240434277
557097 -0.9658735980183909 -0.31497709017336345
557212 -0.967042504905105 -0.3157299693163978
557326 -0.9645702058725617 -0.31474803574198956
557441 -0.9653806800686712 -0.3159602812481964
557555 -0.9646794195592967 -0.3146227617850742
557670 -0.9652979063664678 -0.3140063596891035
557785 -0.9659955110263305 -0.3142544074630357
557899 -0.9663748225968515 -0.31480975407115175
558014 -0.966421188686863 -0.3141151427878821
558128 -0.9663893198742832 -0.3141890040218527
558243 -0.9654205222973493 -0.3142506829254335
558357 -0.9651687919151678 -0.31413673476085946
558472 -0.9652854038418337 -0.3139382546848965
558586 -0.9656367908629387 -0.31387084329016485
558701 -0.9660575446991696 -0.31320004770363363
558816 -0.9663804078972145 -0.3134264271588012
558930 -0.9663390510821782 -0.31371447126577184
559045 -0.9661585315510927 -0.313324660799662
559159 -0.9667220001669712 -0.31300662631593046
559274 -0.9670039581700224 -0.3133072600400379
559388 -0.9640626070839963 -0.313240209796769
559503 -0.9635275470095408 -0.3131342197673402
559618 -0.966600868551945 -0.31221158898973195
559732 -0.9664700492284461 -0.31213820270768794
559847 -0.966694842985272 -0.3128329763794509
559961 -0.9673208999765462 -0.3122741464370098
560076 -0.9664629082621048 -0.31246682407014603
560190 -0.9655406586791024 -0.3127221266438465
560305 -0.9646275317304692 -0.31273761113519827
560419 -0.9670906058450782 -0.311847186969972
560534 -0.9680230013673057 -0.31148489296468873
560649 -0.9659542114357621 -0.3116771367550978
560763 -0.9670868590369894 -0.31197641607730825
560878 -0.9669651383874218 -0.31171339127167635
560992 -0.9670259224582929 -0.3110843244817762
561107 -0.9663424995833532 -0.31134805274825256
561221 -0.9662987743782238 -0.31157194109827624
561336 -0.9650489718942094 -0.31116640331454143
561450 -0.9669209864856569 -0.3105980963986157
561565 -0.9677168424332182 -0.3102690113266278
561680 -0.9671632593365952 -0.3109051833567815
561794 -0.9672503775208862 -0.310947854440154
561909 -0.9669899646745095 -0.31084547541695884
562023 -0.9687494330122945 -0.31084183151771116
562138 -0.9660616252598583 -0.3106196511859615
562252 -0.966657461728261 -0.3103709984361397
562367 -0.9664504769692697 -0.3100961985050257
562482 -0.9669195409016079 -0.3099870731849285
562596 -0.9677600650805155 -0.3099115298437875
562711 -0.9670091153832762 -0.30989101817180953
562825 -0.9676761184091612 -0.31029659954137284
562940 -0.9662091818326466 -0.30911392968823675
563054 -0.9670658627912407 -0.3096395546507358
563169 -0.9660833536092672 -0.30964279675473527
563283 -0.9662458006224673 -0.309500792446842
563398 -0.966420023115891 -0.30875507662862084
563513 -0.966850386000826 -0.3093071889772162
563627 -0.965406815245004 -0.30879415653619524
563742 -0.9688437187767566 -0.3089719080778925
563856 -0.9671707302160516 -0.30897602735936036
563971 -0.9667046713007932 -0.3089873356630924
564085 -0.9663142268476078 -0.3088810996443913
564200 -0.9666611848814038 -0.30805616043046713
564314 -0.9673805155467334 -0.30813300968624546
564429 -0.9667593971183535 -0.3076581224341858
564544 -0.9667492052999297 -0.3084149265627314
564658 -0.9672269681255413 -0.30753533625230417
564773 -0.9676739403790745 -0.30816206388507206
564887 -0.96752616129444 -0.30808005277962947
565002 -0.9670982267919673 -0.3078925815013055
565116 -0.9669894259230194 -0.3076492189131978
565231 -0.9672052474456361 -0.30773909877691824
565346 -0.968019277015197 -0.307430860029234
565346 -0.9684356093048921 -0.30762871795149754
565462 -0.9677785065981338 -0.30741502488167366
565579 -0.9688337496138196 -0.3070321849839769
565696 -0.9682980603618844 -0.3076820226382272
565813 -0.9664216066635163 -0.30729890042513186
565930 -0.9669441854949868 -0.3072239709882319
566047 -0.967554521708979 -0.3065421159887311
566164 -0.9679602268365582 -0.3064357365177132
566281 -0.9683402214805722 -0.30666065344229676
566398 -0.9687801300364329 -0.30642806891982427
566515 -0.9683155162150813 -0.30642083679171556
566632 -0.9675693036720389 -0.3065425841491813
566749 -0.9671220966904255 -0.3067558589000343
566866 -0.967050746611636 -0.3063210981186351
566983 -0.9675732739074154 -0.3058754978657294
567099 -0.968548773938119 -0.3055538070121671
567216 -0.9681801969895703 -0.30605230756659363
567333 -0.9684241856028223 -0.3055321075229371
567450 -0.9680018865597718 -0.30516095046552455
567567 -0.9675332814478059 -0.30518690832861967
567684 -0.9672367960106811 -0.3061938019392042
567801 -0.9669966163363112 -0.3055753843490883
567918 -0.9680303481834536 -0.30471791879665855
568035 -0.9684183489077502 -0.30424252324576373
568152 -0.9684071403636576 -0.3048796986986006
568269 -0.9685944804644584 -0.3049565055486774
568386 -0.968653504657147 -0.3039875683819751
568503 -0.9683352249432914 -0.30435523997735603
568620 -0.9670810904000936 -0.3039971537801361
568736 -0.9683494773925347 -0.30538908100065343
568853 -0.9680389645546835 -0.30515369272486753
568970 -0.9690816987870619 -0.30306506121603594
569087 -0.9687938388410502 -0.30357821802232277
569204 -0.968570124378438 -0.30354459897521496
569321 -0.9683828229984103 -0.3039533500878428
569438 -0.9681972734243377 -0.30369407968305395
569555 -0.9684723702786945 -0.3031750231334139
569672 -0.9695466626255557 -0.30322280461031187
569789 -0.9664739089375336 -0.30310964280852876
569906 -0.9673751383778706 -0.30292900268047995
570023 -0.969617274855142 -0.3024548847417581
570140 -0.9690781090842995 -0.3030207218752017
570257 -0.9690166039163278 -0.3027406216276433
570373 -0.9690137342043885 -0.30258980821860404
570490 -0.9687332543504144 -0.30287206048278026
570607 -0.96859483558012 -0.30272484338147093
570724 -0.9684620602117529 -0.3027085429944746
570841 -0.9694451546985781 -0.30227660472426415
570958 -0.9698896512181656 -0.3021937935365585
571075 -0.9691776335297392 -0.3021440239841069
571192 -0.9694943705799094 -0.3021331282722659
571309 -0.968899256330939 -0.30186540619929425
571426 -0.9687038923070364 -0.30220564907045416
571543 -0.9680708813087888 -0.3021787875779631
571660 -0.9683136501962365 -0.3013267442247091
571777 -0.9688817890664999 -0.3007185443852271
571894 -0.9703204442528797 -0.3020949447213024
572011 -0.9704043824975085 -0.3021764275720632
572127 -0.9696099808619311 -0.3006323707961054
572244 -0.9691020509486481 -0.3009569041761926
572361 -0.9684883934017529 -0.3012709377160515
572478 -0.9692594818084468 -0.30160924707632863
572595 -0.9688475691388801 -0.3010590630573127
572712 -0.968618501031936 -0.30000290755681014
572829 -0.9686011261315793 -0.29883369417931066
572946 -0.971925918619229 -0.3028944322588997
573063 -0.9713715129241255 -0.3021198298181284
573180 -0.9682423779082678 -0.29955284072440413
573297 -0.9692517099624677 -0.30034033864706483
573414 -0.9682383229578275 -0.3009945083862544
573531 -0.9697562668152252 -0.29988248686347335
573648 -0.9696951829677903 -0.29990488162579265
573764 -0.9692990313046118 -0.2996458656311453
573881 -0.9688147087468886 -0.29982225706240406
573998 -0.9714371199042032 -0.2990344866723994
574115 -0.9700195886368786 -0.29924791367394005
574232 -0.9692336704472942 -0.3000790769327815
574349 -0.9685825667254235 -0.2996115593309472
574466 -0.9687914270340718 -0.29913979018563874
574583 -0.9697202527724752 -0.2984480991618372
574700 -0.9695741500534164 -0.298551126715856
574817 -0.9702490992885654 -0.29947078660048476
574934 -0.970007851444979 -0.2986244042731074
575051 -0.969171072084836 -0.29830441384750417
575168 -0.9697817234252702 -0.2984587863608745
575285 -0.9688683325405066 -0.29864318942958157
575401 -0.9688926637912971 -0.29777454670613557
575518 -0.9698114753662178 -0.29761581425701256
575635 -0.9694060979956098 -0.2974586328900856
575752 -0.9704314610978755 -0.2979708691849556
575869 -0.9704568698592598 -0.297417391272174
575986 -0.9709567284654566 -0.29711264193264125
576103 -0.9686167150550344 -0.29830822216738884
576220 -0.9682604940071025 -0.2989005967432955
576337 -0.9694460370144353 -0.2965666827621847
576454 -0.9697255147831892 -0.296375471272054
576571 -0.9700432770027078 -0.29699454730672814
576688 -0.9713063603277973 -0.29780589650850803
576805 -0.970817734823056 -0.29727431794406545
576922 -0.9703964928221929 -0.29710326663744596
577039 -0.9694113651685047 -0.296909322297886
577039 -0.9684508515650355 -0.29603228002069126
577158 -0.9693730513739868 -0.2956930038407326
577277 -0.9703022333915806 -0.29698572915059884
577397 -0.9697903721843388 -0.29655095492820027
577516 -0.9705339055009038 -0.29606542211053233
577635 -0.9706868237558505 -0.2958802206053341
577755 -0.9712886006934496 -0.29630892404670045
577874 -0.9709544819266759 -0.29573786197954244
577993 -0.9700642405632213 -0.2957816299011858
578113 -0.972496802075133 -0.2959864268010789
578232 -0.9719915847826321 -0.29560716459117536
578351 -0.9700009730429233 -0.2958073887456763
578471 -0.9702553924566952 -0.2950928500205129
578590 -0.9714817200373592 -0.294943321731054
578709 -0.9711756546511817 -0.2947648455187865
578829 -0.9712957511212533 -0.29466607735433414
578948 -0.9708662345584369 -0.29507610648318705
579067 -0.9704564552951909 -0.2949622777592708
579187 -0.9703594322536552 -0.295070048913009
579306 -0.9708748615999776 -0.293785035537617
579426 -0.9709384381182663 -0.29447352870188653
579545 -0.9713698237066328 -0.29400303656655813
579664 -0.9716539566235054 -0.2939207664821379
579784 -0.9716155168622047 -0.29393760819473225
579903 -0.9717197923153331 -0.29435194408219206
580022 -0.9705349941103834 -0.29372181223228755
580142 -0.9693974266299838 -0.29451519216162203
580261 -0.969442993156569 -0.29376154603382765
580380 -0.9718441691755871 -0.2935761999286509
580500 -0.9724389760851089 -0.2930712260458736
580619 -0.972037715294044 -0.29379985408417536
580738 -0.972195137485286 -0.29341180534175837
580858 -0.9715690480736263 -0.2935560266458527
580977 -0.9713471802696917 -0.29344137132759773
581096 -0.9699196604077619 -0.29344730333685365
581216 -0.97254019846478 -0.29349619094991974
581335 -0.9724651632167792 -0.29358951644865855
581454 -0.9713249570536729 -0.2919077419770369
581574 -0.9714005804562105 -0.2929240606382477
581693 -0.971393000342327 -0.29267626053032025
581813 -0.9720862375248984 -0.2927868292656648
581932 -0.9710208521353878 -0.29281828112282327
582051 -0.9689253004104565 -0.29232921348144647
582171 -0.9687124048165177 -0.2911468081001662
582290 -0.9757304816276483 -0.29258007240513567
582409 -0.9737778741986234 -0.2919465513948961
582529 -0.9710144926171429 -0.2920732183290111
582648 -0.9707172538551547 -0.2919141876584368
582767 -0.9711055883311035 -0.29128180987656577
582887 -0.9710155495996003 -0.2908343895191012
583006 -0.9724993871738614 -0.2909719517190354
583125 -0.9721866686213749 -0.2912788312424965
583245 -0.9724072461832849 -0.2904330843515591
583364 -0.9720676545723383 -0.2906692085965814
583483 -0.9719982974408656 -0.2910038430525515
583603 -0.9711655572127352 -0.2909667397124776
583722 -0.9714223720170179 -0.29027570590774665
583841 -0.9721381236866581 -0.29009996676138344
583961 -0.9724299211998363 -0.2902122081794615
584080 -0.9729507497821297 -0.2903844851832098
584200 -0.9723636023492271 -0.2902406185351858
584319 -0.973453085674016 -0.2902640757512089
584438 -0.9720828105229349 -0.291895010053367
584558 -0.9726132320868096 -0.28958119058942056
584677 -0.972865731374131 -0.2895985632945524
584796 -0.9729224599580932 -0.28947720856906567
584916 -0.9732544763354547 -0.28895009892372836
585035 -0.9727267385701337 -0.289616547010227
585154 -0.9713056740316593 -0.28915578889758686
585274 -0.9714912192618659 -0.28739836696278703
585393 -0.9690139359584384 -0.2915424792618868
585512 -0.9666672543682412 -0.2900044671855238
585632 -0.9760448411082574 -0.28840220800983585
585751 -0.9727356785713824 -0.28814458692589107
585870 -0.9727053576407065 -0.28817746774227343
585990 -0.9713091999793912 -0.2878521269441135
586109 -0.9727877129729455 -0.28809871748161553
586228 -0.9731879572432063 -0.2878605381981313
586348 -0.9739267853803683 -0.2875721111149515
586467 -0.9691126222691304 -0.2884556980304727
586587 -0.9715203624346652 -0.2888542577110838
586706 -0.9723669234989545 -0.28730237393834474
586825 -0.9733165347468037 -0.287546652368749
586945 -0.9733302241967714 -0.2875146392000019
587064 -0.9733571068192379 -0.2871705750966881
587183 -0.9729387737249134 -0.2871686868269709
587303 -0.9716421662351388 -0.287376039619879
587422 -0.9728983611189309 -0.28689120455185324
587541 -0.9735322971406164 -0.2866868176896976
587661 -0.9738129994231411 -0.28671499937366673
587780 -0.9731077188386661 -0.28704250039565926
587899 -0.9736883803806683 -0.2864229126228615
588019 -0.9726190425961546 -0.2867655513312731
588138 -0.973153790450016 -0.28662403221309196
588257 -0.9720016193077685 -0.2871959893576377
588377 -0.973155517957714 -0.28511139627643695
588496 -0.968662555325445 -0.28489687281447523
588615 -0.9741842621652562 -0.28381193460841897
588735 -0.9704151645594181 -0.28689645850619583
588854 -0.9721530135051479 -0.2858864965872502
588974 -0.9728156603810582 -0.28593095061378276
588974 -0.9747669608111128 -0.28682007940282883
589095 -0.9753708923278483 -0.28492438563500105
589217 -0.9737088414732843 -0.2856379489034278
589339 -0.9741216470768744 -0.28635535200966167
589461 -0.9722612187402156 -0.28720207536400727
589583 -0.970582671000978 -0.2838128034486177
589704 -0.9688025078425991 -0.2841419867050728
589826 -0.9729516989065916 -0.2847397276249143
589948 -0.9737351219059991 -0.2845703263995547
590070 -0.9731699224808136 -0.28450920124788937
590192 -0.9735405052161877 -0.28442280473638626
590313 -0.9726157387289629 -0.28445996927255607
590435 -0.9727812252905248 -0.2846883411309212
590557 -0.9712671851234709 -0.2828801013514654
590679 -0.9766114467030504 -0.2839645856159846
590801 -0.9718749413337068 -0.2832635236380505
590922 -0.9734271189674074 -0.28341751738230836
591044 -0.9730343568353473 -0.28343520020113644
591166 -0.9730057340210649 -0.28406089711460253
591288 -0.9727862735976275 -0.2838044008764573
591410 -0.9735351317852327 -0.28346880864364665
591532 -0.9742626683119019 -0.28332738297885424
591653 -0.9737448397897361 -0.28263644293040546
591775 -0.9745910455752022 -0.28305597449638664
591897 -0.9736023263308597 -0.2828904223419408
592019 -0.9741814599977688 -0.28282112833950246
592141 -0.9739129283126531 -0.28348794681447365
592262 -0.9732637045496568 -0.2820053424784803
592384 -0.9733698182049714 -0.2827849165416128
592506 -0.9746940283929308 -0.28182512694378004
592628 -0.9718054070222417 -0.2805393834661845
592750 -0.9789978841556141 -0.283693484959009
592871 -0.9736361145418084 -0.2807323606107199
592993 -0.9743286053345395 -0.28157058871509594
593115 -0.9738387686035656 -0.28231660823159943
593237 -0.9731707876119714 -0.2821348717399769
593359 -0.9734571280221335 -0.2817806031792737
593480 -0.9744289757281248 -0.2815854606791102
593602 -0.9747424638320848 -0.2802828095123284
593724 -0.9712493671191981 -0.28208113627696196
593846 -0.9677874862307023 -0.2809276337982044
593968 -0.979551353326161 -0.28186731554846406
594090 -0.9742399825435695 -0.28108150453663605
594211 -0.9739893249186413 -0.28018156626903
594333 -0.9707202472933231 -0.2796881137273229
594455 -0.974714353821967 -0.2797116871292451
594577 -0.9778419279763627 -0.28066036817993084
594699 -0.9821935833046394 -0.2809304950485482
594820 -0.9703347322580157 -0.281448920304114
594942 -0.975729940955788 -0.28347692240593825
595064 -0.9702958893324523 -0.2796237206732185
595186 -0.9739511765654119 -0.2799521393324197
595308 -0.9750297923884446 -0.2794191021328803
595429 -0.9722148265865073 -0.27886640409845764
595551 -0.9745795923559167 -0.27981063202373296
595673 -0.974741504783164 -0.280492605746272
595795 -0.9751191953584184 -0.27955354945303756
595917 -0.9753000973320731 -0.27922452795145364
596038 -0.9731678295797395 -0.27913125955619156
596160 -0.9747883956228524 -0.279636282417135
596282 -0.9736846114998216 -0.2792791345319447
596404 -0.9738744380730252 -0.2791861945609534
596526 -0.9748066530818584 -0.27886303781598815
596648 -0.9752601484053753 -0.2782318023082204
596769 -0.9788455513741204 -0.2784510016069812
596891 -0.965953927400775 -0.2761471119559324
597013 -0.9642093802477036 -0.2765985503915286
597135 -0.9789256092098673 -0.2780894985229168
597257 -0.9743868938491519 -0.2776236222634632
597378 -0.9684795777302113 -0.27657041345512356
597500 -0.9822168144704287 -0.28080296654940584
597622 -0.9759536042144424 -0.2772490565581084
597744 -0.971871995266829 -0.280721645744074
597866 -0.9802832753075399 -0.28659739390556954
597987 -0.9492572880024148 -0.26799898288370266
598109 -0.9475925264306101 -0.27834714020973966
598231 -0.9612701672254657 -0.2716317914286368
598353 -0.9758876951755239 -0.27558792392302334
598475 -0.9733311395043379 -0.27385223549253074
598596 -0.9841667840102628 -0.28077932825561897
598718 -0.9708914383031454 -0.2757934495140324
598840 -0.9871767219331185 -0.2711044783422197
598962 -0.9519538033423404 -0.27147359081606864
599084 -0.9739328362099999 -0.2703384778013841
599206 -0.9745933776749749 -0.2792975244553936
599327 -0.979017097917278 -0.27733036575545544
599449 -0.9805411896093649 -0.2770736985156806
599571 -0.9738377744018086 -0.275496289353861
599693 -0.9764960871254584 -0.2759252802943858
599815 -0.9761148286653939 -0.2758129440908548
599936 -0.9744925080246877 -0.27631480658320956
600058 -0.9731565930738227 -0.2773756790055898
600180 -0.9710880556383273 -0.279936355629534
600302 -0.9650851532250385 -0.2712796888423213
600424 -0.9709497999428266 -0.27462543057652955
600545 -0.9910310962311821 -0.2798176463751721
600667 -0.9583641948940835 -0.27103815525912467
600789 -0.9781549089672 -0.2765171073500653
600911 -0.9482931419387751 -0.27028289084626383
601033 -0.9525836204622908 -0.2805194891377607
601155 -0.9283062853886018 -0.26164490822151276
601155 -0.9806036472492463 -0.2656104216746525
601279 -0.9932036043247394 -0.2808398822766039
601403 -0.9750555847148494 -0.2742334892907454
601528 -0.9619279230553865 -0.274529439880699
601652 -0.982857989491266 -0.27276830103995797
601776 -0.9768775579800352 -0.27421435843539815
601901 -0.9564909020607428 -0.2683071800740261
602025 -0.9760498729558098 -0.27689036418068097
602149 -0.9684668848780352 -0.2726061475217407
602274 -0.9810996502355945 -0.2730018781088846
602398 -0.9758273120663948 -0.2736806218336062
602522 -0.9755787297028216 -0.2738085418225711
602647 -0.9742091412258729 -0.27321907646552146
602771 -0.9768594168333096 -0.27281069682390663
602895 -0.9751242585292834 -0.27280919793360303
603020 -0.9795278691272298 -0.2742041708771609
603144 -0.9680714446430656 -0.2706930544802566
603268 -0.9756720455075519 -0.2732108895817008
603393 -0.9740480361492173 -0.272718611322304
603517 -0.9744484311820459 -0.27236216083545917
603641 -0.972507399043085 -0.27142914117048894
603766 -0.9765616228494727 -0.2718274625700855
603890 -0.9755721541415061 -0.27251760146866133
604014 -0.9770117397401006 -0.27237690790678937
604139 -0.9756929033469316 -0.2725632111470318
604263 -0.9745176231989668 -0.27240785727141115
604387 -0.9779528897746078 -0.2723787523207526
604512 -0.9752222976248803 -0.27149194944025384
604636 -0.9741320343985574 -0.2710561552062923
604760 -0.9786724568131225 -0.27131754810592684
604885 -0.9770866584755156 -0.27120668150143007
605009 -0.9793205102893694 -0.27140242261235437
605133 -0.9773701101674679 -0.2697281449056604
605258 -0.9805112497869144 -0.27243272276000996
605382 -0.9768774881558248 -0.2698051652928714
605506 -0.9766307144060797 -0.2700536496565669
605631 -0.9764920767647673 -0.2696238421750641
605755 -0.9763271192038956 -0.27002770116341823
605879 -0.9770725721869096 -0.2701566011577644
606004 -0.9765070113748768 -0.26979314644168284
606128 -0.9726932166900357 -0.2692744120274572
606252 -0.9814881357140942 -0.27110418660005303
606377 -0.9807100900318309 -0.2702767550137015
606501 -0.9763278273128401 -0.2699418314429141
606625 -0.9772191302599998 -0.26908253238756585
606750 -0.9754631611911828 -0.2687031930510847
606874 -0.9796737938712409 -0.269611045081754
606998 -0.9764254664064898 -0.2689440891256376
607123 -0.978815724837918 -0.26899659761170414
607247 -0.9690391328795376 -0.26790576503942654
607372 -0.9734611708670846 -0.2672270432925641
607496 -0.9796422881775655 -0.26859634621406403
607620 -0.9784570900879683 -0.26885557639610863
607745 -0.9786947097817105 -0.26851765638064823
607869 -0.9771876145310043 -0.2680710033289659
607993 -0.9774245234646907 -0.26806452040626094
608118 -0.9769237392436669 -0.26840070032783214
608242 -0.9767849191739068 -0.267923620542169
608366 -0.9772587743143683 -0.2679975957599125
608491 -0.9771035465555705 -0.26760435355476897
608615 -0.9773963825005261 -0.26785196492199187
608739 -0.9781662206703213 -0.2676729908226607
608864 -0.9773745837119114 -0.26701456051206035
608988 -0.9774179313293503 -0.267660726843314
609112 -0.9762230888312428 -0.26756102525124115
609237 -0.9775869796611606 -0.26722697598314116
609361 -0.97722266927722 -0.2661629037065603
609485 -0.978027553306233 -0.26624359693368527
609610 -0.9793015908704312 -0.26693564190456304
609734 -0.9783531160132108 -0.2665026073041268
609858 -0.9766519285548616 -0.26619476120035857
609983 -0.9772430726299914 -0.26665679367667555
610107 -0.9780953799965214 -0.26645783941615386
610231 -0.9768649282492433 -0.2659783432220323
610356 -0.983693721811294 -0.2663266705100227
610480 -0.9754509312278413 -0.2654120837809817
610604 -0.9834315071687586 -0.2666019219829208
610729 -0.978977631707429 -0.2663376578028634
610853 -0.9784478778166086 -0.26602785236665494
610977 -0.9792681677488033 -0.26604667583609026
611102 -0.9779177303470551 -0.2654974836901242
611226 -0.977640422437408 -0.264884309808024
611350 -0.9764562537429335 -0.2653313375020253
611475 -0.9804643338195287 -0.26514808981111027
611599 -0.9783083429928496 -0.2645552337183919
611723 -0.9785618570047815 -0.2647615565905704
611848 -0.977525438500312 -0.26510113721955353
611972 -0.9776112365449973 -0.26468646661148115
612096 -0.9774420594186273 -0.26407188418418864
612221 -0.9782187201525828 -0.2640705531875234
612345 -0.979201406577503 -0.2647359485654667
612469 -0.9785675510670325 -0.263981676845666
612594 -0.9777686219063085 -0.26414232385338976
612718 -0.9786271978595541 -0.2641747248797233
612842 -0.977386995715098 -0.26390809218886857
612967 -0.9777092688358536 -0.2629940728281608
613091 -0.977961472555197 -0.2629898922450273
613215 -0.9785723814677146 -0.26307661098700896
613340 -0.9786990439542261 -0.263285791912768
613464 -0.9779847306233946 -0.26229709391582634
613589 -0.9817035476071463 -0.26312465452198697
613589 -0.9761026913774219 -0.262372138028889
613715 -0.9777061414237327 -0.2635364701195654
613842 -0.9782308268121517 -0.2623140121136326
613969 -0.9794287990261652 -0.2627285774672549
614096 -0.9797225158213144 -0.26277449113899864
614223 -0.9794006970503684 -0.2628659685513816
614350 -0.9797653741107311 -0.2624318885341827
614477 -0.979436547521437 -0.2624794926322089
614604 -0.9760357284452547 -0.2622618206934619
614731 -0.977099813456611 -0.2620518642202841
614858 -0.9777462941149475 -0.2617246482780902
614985 -0.9787093216183226 -0.26148846712786705
615111 -0.9790960262314786 -0.261344338387116
615238 -0.9791628999741213 -0.26105817123851954
615365 -0.9788555905913202 -0.26151105927742135
615492 -0.9780712746260861 -0.26153400688504574
615619 -0.9789459216939193 -0.26138449597176105
615746 -0.9788893415172342 -0.2611763596597674
615873 -0.978497735250755 -0.2604385479301456
616000 -0.9798091731514942 -0.2605147053320318
616127 -0.9793965384832889 -0.2606985163543735
616254 -0.9791665399108056 -0.26044215857247055
616381 -0.9789250250837745 -0.26044354536351105
616507 -0.9792417299863553 -0.26069477169401284
616634 -0.9786660883083169 -0.26029601931390994
616761 -0.9793277169011834 -0.2596675937687744
616888 -0.9798711141862307 -0.25953416141561986
617015 -0.9799213341121947 -0.25959663451276843
617142 -0.9796310312891389 -0.25952663109964824
617269 -0.9797332831892368 -0.2594525558878434
617396 -0.9788311926901627 -0.25971213393785403
617523 -0.9788961208291139 -0.25950089484356453
617650 -0.9810927091498036 -0.2597666827798353
617777 -0.9798712280793194 -0.258112454738345
617903 -0.9807766863104075 -0.25924790479827364
618030 -0.9805313589297089 -0.25906822481706143
618157 -0.9798549047355773 -0.2590652156816104
618284 -0.9794858749441915 -0.25884649027302936
618411 -0.9794471213115076 -0.2590814472639815
618538 -0.9794394217671145 -0.25859123221168373
618665 -0.9792735974434843 -0.2576507571737883
618792 -0.9806714191433269 -0.25845836250517595
618919 -0.9816023572556617 -0.25885813484301157
619046 -0.9811063303579446 -0.2581799075144767
619173 -0.9797387905970185 -0.25832701816503983
619299 -0.9785599337294132 -0.2577476760543652
619426 -0.9795019464902791 -0.2580379722095137
619553 -0.979104497331264 -0.2572028794811476
619680 -0.9782130786230367 -0.25670790065254967
619807 -0.9828437135442092 -0.2576050963530614
619934 -0.9817908226335842 -0.2576264082768321
620061 -0.9794004961968867 -0.25697718180950546
620188 -0.9798312348966846 -0.25691303627857776
620315 -0.9787967030279128 -0.2571158902359898
620442 -0.9795678213397153 -0.2569552525954258
620569 -0.9796250028665148 -0.25650412282410845
620695 -0.9805434543276503 -0.2564458364182307
620822 -0.9808447561302471 -0.2560212958277734
620949 -0.9805869577660588 -0.25635676362742776
621076 -0.980228664783539 -0.25576743766851656
621203 -0.9799674438523294 -0.25605605802952336
621330 -0.979950853885524 -0.2564012245782284
621457 -0.9800022749421037 -0.2554628950296626
621584 -0.9804515325347422 -0.25525409614017625
621711 -0.98112609458803 -0.25569175703796393
621838 -0.9814840722579264 -0.2558927339606465
621965 -0.9809817137083587 -0.2552638283220051
622091 -0.9807266170701973 -0.25592288936617197
622218 -0.9797186906599016 -0.25598986951080543
622345 -0.9800172726943862 -0.25519844262701724
622472 -0.9802545769065568 -0.25512980896470094
622599 -0.9815620054813309 -0.25447101104351144
622726 -0.9815619484317448 -0.2546077695781927
622853 -0.9812347459516407 -0.2545655480884505
622980 -0.9787206705791406 -0.2541409669179545
623107 -0.9776364139064315 -0.25450725502329413
623234 -0.9796727638771863 -0.2543338137765521
623361 -0.9806296793116802 -0.2542257043090977
623487 -0.9810958378819468 -0.2540101564842158
623614 -0.9812356403029873 -0.25365682413532886
623741 -0.980961025039062 -0.2535162164470405
623868 -0.9813011468074624 -0.25361231072125145
623995 -0.9791968113623555 -0.25347564886758794
624122 -0.9787441620375992 -0.253440388721552
624249 -0.9806516196913873 -0.25275136983144775
624376 -0.9809174356772469 -0.25267484533684453
624503 -0.9815220573599953 -0.25244570905061875
624630 -0.9811041291244634 -0.2528967764104467
624757 -0.9810870945811877 -0.25279225172977293
624883 -0.9811081973441689 -0.25249532802436364
625010 -0.9806571891661622 -0.25286356997909376
625137 -0.9802721691330859 -0.2523696978229016
625264 -0.9811260824387255 -0.2519629507038763
625391 -0.9809267243618521 -0.2516864542444999
625518 -0.9814922500349005 -0.2523289112935147
625645 -0.9822319661780949 -0.25164259434222663
625772 -0.9808263154299495 -0.2513916402583709
625899 -0.9813172611779682 -0.2516821152300701
626026 -0.981717048688291 -0.2518524353651035
626153 -0.9796635440723723 -0.25099201469689625
626280 -0.9827347791184503 -0.251206379091594
626280 -0.9805846263842029 -0.2513456976902634
626409 -0.9816459812866271 -0.2514167695777691
626539 -0.9813351260499267 -0.2510636867941451
626668 -0.9805264494595252 -0.25134014638181107
626798 -0.9795984334460056 -0.2514370813504005
626927 -0.9812456048747867 -0.2504929626872965
627057 -0.9791989171980227 -0.25023446340824085
627186 -0.9807418856103403 -0.25064370928177415
627316 -0.9814611291801183 -0.2502547378610095
627445 -0.9814762071036285 -0.24996552648707332
627575 -0.9809254151760687 -0.2501535783880503
627704 -0.9802360173830418 -0.2505307621669401
627834 -0.9803593574291635 -0.25000607016816895
627963 -0.981424491629196 -0.24925499678109875
628093 -0.9814942980211554 -0.2493798109849062
628222 -0.9812199071071045 -0.24936307270466318
628352 -0.9818796135845699 -0.24924646234535774
628482 -0.9816159493133679 -0.2488294245557493
628611 -0.9814555129296246 -0.24927779216664
628741 -0.9806628210743777 -0.2491430076774074
628870 -0.9815861374462821 -0.24864721988642657
629000 -0.981834900609851 -0.24818102886596127
629129 -0.9825238764651446 -0.2485012831191764
629259 -0.9821439683249189 -0.24833801933133923
629388 -0.9813935121285153 -0.2480113695056989
629518 -0.9817132786737517 -0.24827035248985693
629647 -0.9806765119643438 -0.24869352465096212
629777 -0.9824413652167517 -0.24768738852618938
629906 -0.9814987384998857 -0.24752865027877474
630036 -0.9806844449146997 -0.24757217322992023
630165 -0.9819241420521573 -0.24773237174358967
630295 -0.9818142287176647 -0.2477541213723021
630424 -0.9811344300580894 -0.24777885913231393
630554 -0.9806754599539494 -0.24805094307703343
630684 -0.9809480090263132 -0.24691900133035763
630813 -0.981806841003842 -0.24665743548423588
630943 -0.9821488597292262 -0.24657393183779353
631072 -0.9823994485456036 -0.24680665364317814
631202 -0.9819379952384922 -0.24632042681841268
631331 -0.9819862415594177 -0.24684671182689716
631461 -0.9815763571857385 -0.24676948921733574
631590 -0.9815607485566926 -0.24645338330355623
631720 -0.9822082042888927 -0.24594216703717078
631849 -0.9825660899083682 -0.24644614933776626
631979 -0.9829344698312048 -0.24590343152756922
632108 -0.9820294982973381 -0.24579018922492293
632238 -0.9810138413416276 -0.24542523649001147
632367 -0.9813262054574496 -0.24620181591068133
632497 -0.9813464515298593 -0.2454414023345023
632626 -0.9824782225285164 -0.24517537824817812
632756 -0.9828283836646422 -0.2450915952598449
632886 -0.983201231190854 -0.24551023890892695
633015 -0.9831804715839743 -0.24518444369457973
633145 -0.9824743897352559 -0.24452761591954356
633274 -0.982404048942313 -0.24494365943264373
633404 -0.9820846719914059 -0.2452075402683117
633533 -0.9814735381357959 -0.2446572800322181
633663 -0.9827245221510467 -0.24446469456600167
633792 -0.982860403092249 -0.24442506313741683
633922 -0.9830761577462456 -0.24466187742540166
634051 -0.9828607130526369 -0.2436256059866827
634181 -0.9825459454072508 -0.24414566284324615
634310 -0.9821495242440321 -0.24423622357547148
634440 -0.9813370250941352 -0.24415420563181586
634569 -0.9819185458557805 -0.24335934519692118
634699 -0.9825820443668195 -0.24324380965133138
634828 -0.9830599195281231 -0.24351137940590417
634958 -0.982973405268249 -0.2430018117904438
635088 -0.9826068870832972 -0.24254577118751577
635217 -0.9814333415454534 -0.2431859671881338
635347 -0.980068983691339 -0.24335576052081112
635476 -0.9828182475713372 -0.24246354639949239
635606 -0.981067178096465 -0.2417394603774537
635735 -0.9827154754319655 -0.242582163776671
635865 -0.983041417489365 -0.24234818162027105
635994 -0.9825622017674387 -0.24149517405812487
636124 -0.9827075870572561 -0.2421268845799182
636253 -0.982904880391425 -0.2429614422010399
636383 -0.9828390859693931 -0.24251495226560982
636512 -0.9835960082942964 -0.24123099288872207
636642 -0.9837942341397441 -0.24185777326491673
636771 -0.9836783530863893 -0.24158055775245452
636901 -0.9839773310026476 -0.24112823396390445
637030 -0.983786674551499 -0.24118050703129096
637160 -0.9828543622608533 -0.24227006013924368
637290 -0.9821664770958357 -0.24133407779291036
637419 -0.9835151296467903 -0.24103614264254544
637549 -0.9802785581262002 -0.2400320396789863
637678 -0.9834148608942708 -0.24095088905078363
637808 -0.981923656579433 -0.24055043586522773
637937 -0.983310914091731 -0.24067707828952936
638067 -0.9831887532043212 -0.24079337611317891
638196 -0.9828816071133167 -0.2405974064605178
638326 -0.9816445021516483 -0.24006167404861553
638455 -0.9822652241120216 -0.2400056773996332
638585 -0.9847200698021065 -0.23980225530277852
638714 -0.984707074768328 -0.239836384782653
638844 -0.9838128188159863 -0.23946973852116848
638973 -0.9833356518728366 -0.23987105241665135
639103 -0.9826566302335707 -0.23971102095141894
639233 -0.9828181441165501 -0.23903966866785403
639233 -0.982844746671555 -0.2394041201639441
639365 -0.9828867858680159 -0.23883258700676713
639497 -0.9839604387114463 -0.23887905120542094
639629 -0.9832259274216593 -0.2385522848168565
639761 -0.9843400252507015 -0.2386094703128672
639894 -0.9840659955179047 -0.23878741127666722
640026 -0.98342241188854 -0.23868272081233732
640158 -0.9829719930760532 -0.2385105522025383
640290 -0.9836849658720785 -0.23833872675499504
640422 -0.984355092684984 -0.23800223010611468
640555 -0.9850722164024311 -0.2384781875852775
640687 -0.9849383438123537 -0.2376788344113834
640819 -0.9837228232064955 -0.23767926917368903
640951 -0.9834501165953279 -0.23828570636362364
641083 -0.9835670385923815 -0.23747181007486579
641216 -0.9837883282244229 -0.2374525846420687
641348 -0.9841865465099816 -0.23688568307392158
641480 -0.984584388432961 -0.237312113170609
641612 -0.9846207519151414 -0.23699796614018606
641744 -0.9843650479927232 -0.2366663904783117
641877 -0.9836522785371035 -0.23753860548055797
642009 -0.9835449714532903 -0.23661908912514404
642141 -0.9840195393814786 -0.23651658379749077
642273 -0.9841020369225961 -0.2364329159878606
642406 -0.9845418403110499 -0.2363023904436287
642538 -0.9838954748850985 -0.23651539291713525
642670 -0.9848349060230079 -0.235942328009193
642802 -0.9846174986192118 -0.23629255231078453
642934 -0.9826795273767583 -0.23597894412234138
643067 -0.9840455710109094 -0.2354290711949525
643199 -0.98427627205185 -0.23518515554059718
643331 -0.9844979906420456 -0.2352833555445174
643463 -0.9850611324640282 -0.2352214061860403
643595 -0.9841072662939815 -0.23542128483568228
643728 -0.9842028710523385 -0.23537138496674162
643860 -0.9838994085853013 -0.2354783018148071
643992 -0.9840613125902334 -0.23484646227069356
644124 -0.9844107887809885 -0.23467814511111054
644256 -0.985041629749825 -0.23485374924517602
644389 -0.9851972055285254 -0.23467616025606453
644521 -0.9847683613242177 -0.233846948329316
644653 -0.9837009945892176 -0.23458803249032972
644785 -0.9841015545692261 -0.23476656931185608
644918 -0.984793805171739 -0.23418491785320739
645050 -0.9853242022039457 -0.23333410459586748
645182 -0.9854516784713163 -0.23351700590207017
645314 -0.985238981867967 -0.23342956012345586
645446 -0.9846779813931414 -0.23369033390550348
645579 -0.984489272986597 -0.23388643573882328
645711 -0.9841879576707842 -0.23401210546535817
645843 -0.9848659103829444 -0.23300537618351172
645975 -0.9855194467190307 -0.23331558683299794
646107 -0.9853149005957283 -0.23304318235433247
646240 -0.9849315626862155 -0.232714675348275
646372 -0.9843986411403748 -0.23270753185278778
646504 -0.9835934083640482 -0.2328659756884294
646636 -0.9844029399318055 -0.23213662590602288
646768 -0.9852994555075496 -0.23198099371093203
646901 -0.9852149379670737 -0.23194053959383418
647033 -0.9860418100912306 -0.23191310747764868
647165 -0.9854218449337765 -0.2314203165938806
647297 -0.9849922638635903 -0.23197985619175585
647430 -0.9846133482775914 -0.2321466727091287
647562 -0.9843204738491728 -0.23170945649333016
647694 -0.9853748733393424 -0.23113675653026958
647826 -0.9860911420296731 -0.23071736112995597
647958 -0.9843363044125186 -0.2309373921761155
648091 -0.9853865712594851 -0.23041465188199914
648223 -0.9852335895604273 -0.2310827592393806
648355 -0.9849751078451842 -0.23072465564097863
648487 -0.9852413020194438 -0.2305473476876346
648619 -0.9853870269752809 -0.23005595867896408
648752 -0.9860818615916633 -0.23029374399062424
648884 -0.9864353313969647 -0.23001465629413254
649016 -0.9859501380515677 -0.22994732106741533
649148 -0.9843834800746543 -0.2302748430794091
649280 -0.9867597354897606 -0.23051744822450074
649413 -0.9858688515817867 -0.23007587436144694
649545 -0.9856765643513792 -0.22919722822517202
649677 -0.9832694717920768 -0.22922582965450664
649809 -0.9854901570623994 -0.2294379844024089
649942 -0.9853623840203015 -0.2293439757772269
650074 -0.9834706523619086 -0.229028257739098
650206 -0.9831521944098768 -0.22909577464820902
650338 -0.989360800742258 -0.2290876889518892
650470 -0.986187640889315 -0.22802630775814972
650603 -0.9861486531311725 -0.22872308587132734
650735 -0.9874149325669174 -0.22864536694276208
650867 -0.9857386539711781 -0.22758093310283506
650999 -0.9866141649946565 -0.22840012751412006
651131 -0.9853500428792261 -0.2279549345264321
651264 -0.9851907439890171 -0.22847998296460514
651396 -0.9858736687870012 -0.22788993385877865
651528 -0.9865227743330827 -0.2278066567084858
651660 -0.986205470559779 -0.22777606603826284
651792 -0.9864534554657518 -0.22744342568166837
651925 -0.9854689842357034 -0.22803589274372674
652057 -0.9855499953244212 -0.2273443873524921
652189 -0.9858554057433554 -0.22688471496937088
652321 -0.9854336635173555 -0.22707909719218897
652454 -0.9857556627316634 -0.22705163521969746
652454 -0.9862713087798721 -0.2270736640510891
652588 -0.9864964937373205 -0.22677190234890326
652723 -0.9864224798281513 -0.2268634462244761
652858 -0.9867118205925293 -0.22629376245810456
652993 -0.9860033110729473 -0.22684320243165132
653128 -0.9854553256503655 -0.22671802806698982
653263 -0.9855857001560989 -0.22657314860499478
653398 -0.9861008823140109 -0.22594193515522137
653533 -0.9867256093730156 -0.22623423939980028
653668 -0.9868554763962696 -0.22587206184046188
653803 -0.9861491238326346 -0.2255237619601366
653938 -0.9860843944889263 -0.22548967193867792
654073 -0.9853186848140347 -0.22583730555172815
654208 -0.9851038402634177 -0.22525092555949913
654343 -0.9861950626494822 -0.22494991595761976
654478 -0.9866641256980258 -0.2247968059303162
654613 -0.986872809260822 -0.22512449368577347
654747 -0.9863463334746021 -0.2248115582098422
654882 -0.9867423680912883 -0.22488585083052573
655017 -0.9856329017070059 -0.22495721007511266
655152 -0.9855063869976802 -0.22413666948287841
655287 -0.9862170159631889 -0.22409852747401565
655422 -0.9868956885647739 -0.22397784970539103
655557 -0.986933430171598 -0.22426612135846016
655692 -0.9867719317173254 -0.22413665239130498
655827 -0.9866698058905665 -0.2242365672593969
655962 -0.9857041153098114 -0.22441035846133772
656097 -0.9858759881796944 -0.22370573955495004
656232 -0.9865835352119714 -0.22328708504766662
656367 -0.9869632489820176 -0.22330941499655957
656502 -0.9872729775159942 -0.22346262518912405
656637 -0.9864725477073969 -0.22308211063250735
656772 -0.9862067955002984 -0.22367391844846374
656907 -0.985976854951445 -0.22345072209776692
657041 -0.9863217319517029 -0.22301316754123163
657176 -0.9867938736548634 -0.22248727054216494
657311 -0.9862704977881521 -0.2225638962635021
657446 -0.9871786541237326 -0.22245690161737988
657581 -0.9865975718438884 -0.22183875993777008
657716 -0.9864357593685829 -0.22243247215645157
657851 -0.986180814569488 -0.2222383509965089
657986 -0.9862249517691926 -0.22164417218057783
658121 -0.9870407668493187 -0.22145901890172792
658256 -0.987472268448647 -0.2216718993008153
658391 -0.9871871659350339 -0.22158003597121995
658526 -0.9871222771469692 -0.22119119634172668
658661 -0.9872412962330986 -0.22119562860555053
658796 -0.9869368148291318 -0.22147706321681396
658931 -0.9864444940702469 -0.2207000351532292
659066 -0.987045509333582 -0.22014570904386882
659201 -0.9876449041490971 -0.22092391423570718
659335 -0.9877700704325985 -0.22066916764301628
659470 -0.9873835497479899 -0.22025386671814112
659605 -0.9869787352549566 -0.22044817786052812
659740 -0.9867105460209712 -0.22050417527513627
659875 -0.986333467056617 -0.22053689426319956
660010 -0.9868830467252816 -0.2197404686146969
660145 -0.9874717482909565 -0.21990749947883714
660280 -0.9871724438804095 -0.21974875612758063
660415 -0.9874247217973495 -0.21906756254393117
660550 -0.987753617455969 -0.2195357508395926
660685 -0.9861000488769925 -0.22005123218052616
660820 -0.9865555651376945 -0.21935197291790476
660955 -0.9874873778411565 -0.21880128317465003
661090 -0.9871553252051948 -0.21889512802932098
661225 -0.9879091090914109 -0.21914240116867822
661360 -0.9882810114255677 -0.21860768342074988
661494 -0.9861022813484255 -0.2187989866856956
661629 -0.9865556273940043 -0.21896866237620258
661764 -0.9869295123764589 -0.2181455741490961
661899 -0.9877008549794803 -0.2177477723535132
662034 -0.9882468907787623 -0.21824525127889496
662169 -0.9880269376034456 -0.21794034197779782
662304 -0.9875864929168882 -0.21748872533778674
662439 -0.9874905700154923 -0.21780580332196875
662574 -0.9871701661697961 -0.21813194474598593
662709 -0.9874923449827507 -0.2177128083893071
662844 -0.9879172973931994 -0.2171432000014052
662979 -0.9878232155726369 -0.2173233873260679
663114 -0.9878881893236993 -0.21735418988722863
663249 -0.9883702338375334 -0.21700544962783766
663384 -0.9878740505725967 -0.21674981762975815
663519 -0.9880223811302427 -0.2168952571301877
663654 -0.9868922630596993 -0.2165725350670144
663788 -0.988219822165655 -0.2165057759227895
663923 -0.9880529550479576 -0.21609636090041753
664058 -0.9876985969370665 -0.21640379738035442
664193 -0.9874288775453707 -0.21620386279599244
664328 -0.9875038395428384 -0.21656063028860678
664463 -0.9866367369150101 -0.21686709265639328
664598 -0.9869643341627039 -0.216124858855421
664733 -0.9865232784150171 -0.2156570193076032
664868 -0.989035673716941 -0.2153282719874487
665003 -0.9884149259141012 -0.21534793324899826
665138 -0.9874095055061042 -0.21487493843821537
665273 -0.9872657234561975 -0.2155293662714251
665408 -0.9874652371535844 -0.21529372093017055
665543 -0.9879654631557458 -0.21461118885907393
665678 -0.9875992017972599 -0.21452870010796546
665813 -0.988843459028911 -0.21447190446483416
665948 -0.9882880627979485 -0.21440380060810219
665948 -0.9888714678002652 -0.21418598654311932
666085 -0.9888863461303857 -0.21390080188759966
666223 -0.9881272783396138 -0.21455099003321335
666361 -0.9875850075679435 -0.21454815458679785
666498 -0.9875307502389367 -0.21353056854085295
666636 -0.989128968135268 -0.21348222915611284
666774 -0.9890949922466529 -0.21357540423813237
666912 -0.9888803489335101 -0.21351004919160332
667049 -0.9884125769883824 -0.21310140147178974
667187 -0.98823914216591 -0.21382170570571163
667325 -0.987837379060766 -0.21340595457025693
667463 -0.9879472227986751 -0.21302758608572916
667600 -0.9883962441951918 -0.21285751261810226
667738 -0.9893241678446683 -0.21295397020889356
667876 -0.9884020358656672 -0.21268698698990243
668014 -0.9884347213829541 -0.2128610069048269
668151 -0.9874741790506328 -0.2128087325729028
668289 -0.9882696942069616 -0.21256305587344637
668427 -0.9886692872873842 -0.21213583528626007
668565 -0.9891963960510646 -0.21192380915213319
668702 -0.9889256757735544 -0.21235791910058466
668840 -0.9887068026920509 -0.21206664963734628
668978 -0.988703231658752 -0.21160841790285298
669116 -0.9881962341162414 -0.21175151418189164
669253 -0.9879632637371756 -0.21139495723334278
669391 -0.9891397255231944 -0.21109216396326116
669529 -0.9894058177502167 -0.21113347401686686
669666 -0.9887678292712015 -0.21103714541262095
669804 -0.9909454010676617 -0.21069425644188255
669942 -0.9885527705515413 -0.21111385180243375
670080 -0.9886182640780773 -0.2109063125535667
670217 -0.9888630753080644 -0.21047312757501482
670355 -0.9891723459858571 -0.2102432154316516
670493 -0.9894881785045664 -0.21014089975320122
670631 -0.9894551781816212 -0.21003004784692253
670768 -0.9892417563654909 -0.20986644797134077
670906 -0.9888855363810166 -0.21024605083957587
671044 -0.9881742256181888 -0.21056604255056502
671182 -0.9883404132889606 -0.2093924568071615
671319 -0.9886278292541123 -0.20935162641969704
671457 -0.9902220161716949 -0.20948551406385157
671595 -0.9895523733721404 -0.20899880335078802
671733 -0.98897509318271 -0.20922426699024627
671870 -0.9891501545684083 -0.20906182235492066
672008 -0.9886912511926846 -0.20914122408325936
672146 -0.9885362719837043 -0.20862037042652196
672284 -0.9890916432681771 -0.20841815475739497
672421 -0.9886972901396258 -0.20848789894567132
672559 -0.9899227210391821 -0.20832495359360687
672697 -0.9893971159229554 -0.2079570098539882
672835 -0.9884527376797417 -0.20841913171497
672972 -0.9895897515195151 -0.2079553403002432
673110 -0.9891753010282104 -0.20754350830095242
673248 -0.9895651438000415 -0.20732434673307373
673385 -0.9901738618015202 -0.20731532584285092
673523 -0.98952395078475 -0.20703464562820661
673661 -0.9889796842852009 -0.20735547078088878
673799 -0.9891670838131912 -0.20799111875106843
673936 -0.9911464377402026 -0.20726871679847841
674074 -0.9931050596320514 -0.20755265894132244
674212 -0.9886127605762017 -0.20648618356201184
674350 -0.9901306262598676 -0.20658407333566384
674487 -0.9976238357129862 -0.20774251475133007
674625 -0.9943166841750992 -0.20736133215054356
674763 -0.9874671077367853 -0.20688694051852316
674901 -0.9899806960310644 -0.20634343687422868
675038 -0.9881559912107861 -0.20613554001031908
675176 -0.989241388626453 -0.20640035916145
675314 -0.9903291248886393 -0.20617129077697746
675452 -0.9919099858297018 -0.2055979040173617
675589 -0.9945578106577494 -0.2063299963836168
675727 -0.9875270080947834 -0.2060402245183122
675865 -0.9917159791226312 -0.20523420245554502
676003 -0.9866886139514645 -0.20474948353305228
676140 -0.9957175335620713 -0.2054802347371892
676278 -0.9899269528201611 -0.2045305966721028
676416 -0.9892662337765652 -0.20484693213267963
676553 -0.9893799385557223 -0.20496919655120582
676691 -0.9892340386058904 -0.20472729187823738
676829 -0.9902487583733256 -0.20430839533705672
676967 -0.9897069935919993 -0.2045245580417016
677104 -0.9911758681984845 -0.20459197584189134
677242 -0.9911343842229674 -0.203864150376343
677380 -0.9896620603485111 -0.2041625217397412
677518 -0.9899592798026375 -0.20428708641708535
677655 -0.9898323352307874 -0.2038149053371199
677793 -0.9905656290371226 -0.20352201177612025
677931 -0.9906559966682817 -0.20366874517626532
678069 -0.9899866779777226 -0.2034437097420403
678206 -0.9901428419397142 -0.2029187429350818
678344 -0.9898910177597819 -0.20338353256825617
678482 -0.9899406679241141 -0.2034110453610763
678620 -0.9888927790089183 -0.20260563185710434
678757 -0.9909457912477514 -0.2023522628337136
678895 -0.9907583116503492 -0.20248338572206806
679033 -0.9907035655036162 -0.2021223093695704
679171 -0.9905146980459242 -0.2019588022917629
679308 -0.9901013831781219 -0.2024192592407374
679446 -0.9895213163801402 -0.20235162879279955
679584 -0.9893191065174726 -0.20166993413679762
679722 -0.9899836543134267 -0.20152349770493497
679722 -0.9903439362596989 -0.20175520245884992
679862 -0.9908567005906903 -0.2013103492727864
680003 -0.990492442679864 -0.20101578765006173
680143 -0.9901548414179401 -0.2011556240480838
680284 -0.9899183532252459 -0.20201001534445473
680424 -0.9900626684750574 -0.20108090004318924
680565 -0.9903948188536759 -0.20056496231332013
680706 -0.9899317216583365 -0.2006826635298283
680846 -0.9904077611629072 -0.20045528850290673
680987 -0.9907522680597997 -0.20010761880784017
681127 -0.9908120321936184 -0.200640489829451
681268 -0.9896324657841391 -0.20056108534817488
681409 -0.9903172868844105 -0.19990978576652393
681549 -0.9908491586366364 -0.19959084141867503
681690 -0.9909233608447806 -0.19965837071778936
681830 -0.9919827543987819 -0.19973336013156254
681971 -0.9906075417030077 -0.1996787767221359
682112 -0.9903744904556315 -0.19945029918665355
682252 -0.989239143312943 -0.19996550092086693
682393 -0.9897804332933896 -0.1992144759469279
682533 -0.9914440147753699 -0.1986478165318933
682674 -0.991429728487651 -0.1989428186455548
682814 -0.9911352398327246 -0.1988866732770729
682955 -0.9906901086840889 -0.19841383862648296
683096 -0.990404771388329 -0.19911347384626987
683236 -0.990596712092694 -0.19882730622793163
683377 -0.9906217674837792 -0.1982081190955991
683517 -0.990894786336692 -0.19777899827243248
683658 -0.9912548862590984 -0.19814931652290538
683799 -0.9908164511259556 -0.19800322468359874
683939 -0.9913272377988477 -0.19774309513861785
684080 -0.9904580050653148 -0.19787441446185328
684220 -0.9902917014532115 -0.1971602439463255
684361 -0.991125141620973 -0.1970522843924936
684502 -0.9913235105044211 -0.19747440691077725
684642 -0.9913520415790777 -0.1969936657423036
684783 -0.9912144130419298 -0.19665624934273834
684923 -0.9913119611206719 -0.19676328634415607
685064 -0.9907846616273248 -0.19686108969891233
685205 -0.9904847362592096 -0.1958251519731613
685345 -0.9916109860652229 -0.19561335543234973
685486 -0.9918135070121074 -0.19661434769372113
685626 -0.9912982115847043 -0.19589387297421088
685767 -0.99151718440938 -0.1961767002564979
685907 -0.9907064308441852 -0.19678011527373263
686048 -0.9906588995735126 -0.19587573072977255
686189 -0.9911017382029781 -0.1958018581358117
686329 -0.9915443030906987 -0.195230587061469
686470 -0.9907512296802579 -0.19580676059913305
686610 -0.9912130683561184 -0.19538424850310393
686751 -0.9910891367641191 -0.19508952914684147
686892 -0.9907110533480987 -0.19559915754604268
687032 -0.9899292724247559 -0.19473457751117115
687173 -0.9913147507587203 -0.1943754297017663
687313 -0.9914202225104212 -0.19464776809254802
687454 -0.9914778541849638 -0.19436017943756922
687595 -0.9913636601461961 -0.19392314323084714
687735 -0.991528764208552 -0.19468290039078856
687876 -0.9907229402268627 -0.19429611773269853
688016 -0.9912954994542386 -0.1935774732901571
688157 -0.9916061574702046 -0.1933910396851033
688297 -0.9923392046156989 -0.19362862792997937
688438 -0.9922433451577984 -0.1929681458929099
688579 -0.9921489607868965 -0.19274865829176924
688719 -0.991111965930337 -0.19337457745150674
688860 -0.9908649946322099 -0.19329351114112792
689000 -0.9911783117453817 -0.19271764523776008
689141 -0.9919505133576768 -0.19264124290909254
689282 -0.9924403268024581 -0.19261373271997353
689422 -0.9922478692704731 -0.19198738796103945
689563 -0.9913477368940228 -0.19295831427154575
689703 -0.9909222460537082 -0.19303743770178486
689844 -0.9924429035462268 -0.1924583107636901
689985 -0.9923864938262815 -0.19205924323577764
690125 -0.9920936264550065 -0.19209645785252843
690266 -0.9931328159944124 -0.19181485980881133
690406 -0.9918729955011805 -0.19171165104726523
690547 -0.9916143727021093 -0.1921112596413597
690688 -0.9917858087344906 -0.19126992280925367
690828 -0.9915479131556846 -0.19135860225802132
690969 -0.9922959429289455 -0.1912763046793691
691109 -0.9928598760595312 -0.19126805020878848
691250 -0.9921721213476558 -0.19067312924642735
691390 -0.9919676057739691 -0.19044673666054762
691531 -0.9918121001890544 -0.1909832162132859
691672 -0.9914073291470661 -0.1908031542331011
691812 -0.9917546008937862 -0.19013274423153226
691953 -0.9923864584420425 -0.19027318794543974
692093 -0.9926855207723322 -0.19011015056893493
692234 -0.9927819135374131 -0.1898056703934685
692375 -0.9923702187075099 -0.18975848518165944
692515 -0.9921167627028709 -0.1901219771878676
692656 -0.9913671013583302 -0.18955315056805008
692796 -0.9923347582208929 -0.1899393040417015
692937 -0.9929635963251187 -0.18908053930700716
693078 -0.9927563801955149 -0.18933856096102447
693218 -0.9929277305979933 -0.18864134309921837
693359 -0.9921062912091813 -0.1893495465429901
693499 -0.9919639647369841 -0.18944582469609259
693640 -0.9923014310432829 -0.18883569501389494
693781 -0.9929117027544215 -0.18842100808043005
693781 -0.9929299332757487 -0.18847463826685962
693924 -0.9925175948722029 -0.1882639816380454
694067 -0.9924524537131147 -0.1880794468118895
694211 -0.9919510132585089 -0.1887281822749578
694354 -0.9915329530181134 -0.1882951326551699
694498 -0.9920922094465918 -0.18778994573679647
694641 -0.9925374818383766 -0.18781148008928283
694785 -0.9928726061761337 -0.18748123332688008
694928 -0.9916083992745949 -0.18710364661108236
695072 -0.992585720616589 -0.18740930580641602
695215 -0.9921896939894467 -0.18737001359475697
695359 -0.9919862825293618 -0.1869944669218209
695502 -0.9926471764233393 -0.1865319565997035
695646 -0.9929688813021224 -0.18633461327953424
695789 -0.9928839327538255 -0.18650669357879976
695933 -0.9927154484896329 -0.18638035866268654
696076 -0.9922350345691286 -0.18660137926161766
696220 -0.9924165767595545 -0.18651513407914608
696363 -0.9923116057998104 -0.18536258468485936
696507 -0.9935076732048124 -0.1859167905185742
696650 -0.9930678161891715 -0.18590675495707526
696794 -0.9934557814396954 -0.18549811856101553
696937 -0.9924812639680025 -0.18556142917219381
697081 -0.9928407506267958 -0.18599398986868038
697224 -0.9925857311059025 -0.18550149683702202
697368 -0.9929327891509705 -0.18477038714312347
697511 -0.993590501976056 -0.1851157970527353
697655 -0.993339537553207 -0.1847696581877776
697798 -0.9928851307113256 -0.18432153332370416
697942 -0.9919211566842911 -0.18514524939043234
698085 -0.9915871908020338 -0.18540282339453504
698229 -0.9923915032657445 -0.18427841210152382
698372 -0.9930008233749988 -0.18443220850192882
698516 -0.9935540901615332 -0.18414238832313712
698659 -0.9932550279072818 -0.18413065923796923
698803 -0.9939663863053166 -0.1835574508651055
698946 -0.9915296123150208 -0.1839947804291976
699090 -0.9918920843040182 -0.18377367089199947
699233 -0.9933358602702757 -0.1835075870931666
699377 -0.9926332499147078 -0.1831262354380737
699520 -0.9928500912656617 -0.1831018164053171
699664 -0.9944553801382983 -0.18265046206721655
699807 -0.9936623220811895 -0.18322972559519057
699951 -0.9949711274351807 -0.18337038177935105
700094 -0.9919447428522467 -0.1823178850177775
700238 -0.9934891631142935 -0.18195692275430111
700381 -0.9931877102566808 -0.18244843212069314
700525 -0.9930210627359315 -0.18213487636572664
700668 -0.9935686841019741 -0.18222223854954947
700812 -0.9921193201720995 -0.18245117794899277
700955 -0.9929664766290349 -0.18211882503281637
701098 -0.9916722399232915 -0.18197761737019277
701242 -0.9940318104382548 -0.18126942935298465
701385 -0.9938551681922385 -0.18155444245644975
701529 -0.9938986142258905 -0.1810731074238632
701672 -0.99300608209675 -0.1820824209065527
701816 -0.9935046920393708 -0.18144204150216234
701959 -0.9933835569909604 -0.18093952165290828
702103 -0.9938625153160825 -0.18063628624387554
702246 -0.9931239488314436 -0.18051985062048867
702390 -0.9938696282492695 -0.18028186040425292
702533 -0.9936756436200496 -0.1804113654121703
702677 -0.9930947668251745 -0.18098320918631766
702820 -0.9930543726622765 -0.18018709732657928
702964 -0.9932618652294033 -0.17964852921409172
703107 -0.9930182238631293 -0.17971265217853477
703251 -0.9939727307272154 -0.1799850991373437
703394 -0.9943602573222857 -0.179272049517586
703538 -0.9934646001994931 -0.1796529986514696
703681 -0.9932831938032752 -0.17948409508092525
703825 -0.9930279471978651 -0.17890691266257686
703968 -0.9940502546724865 -0.1790504993439109
704112 -0.9942101172847964 -0.17856513940048077
704255 -0.9940260144740387 -0.17800737572820977
704399 -0.9937011368676353 -0.17864888540982468
704542 -0.9935451438689373 -0.1788381125323948
704686 -0.9933820544001946 -0.17853507714537875
704829 -0.993461450372879 -0.17766384065732554
704973 -0.9947436222067635 -0.1780564087412464
705116 -0.9949113141990957 -0.17825395383601875
705260 -0.9930927247246196 -0.1773778135131879
705403 -0.9934329447727533 -0.1786100317575242
705547 -0.993128489916475 -0.1782454641968314
705690 -0.9931197971809621 -0.17733138512627344
705834 -0.9943445494901162 -0.17720197029061652
705977 -0.9942801550889755 -0.17697161687176607
706121 -0.994724073869903 -0.17701182625538125
706264 -0.9931189453348411 -0.17646131452530736
706408 -0.9935288296997797 -0.17716101602100487
706551 -0.9935930584862196 -0.17692160615504032
706695 -0.9938474273547994 -0.17604724814379694
706838 -0.9946136537095829 -0.17633375967018683
706982 -0.9947438494170991 -0.17634477933242576
707125 -0.9942468165136645 -0.1755273152259261
707269 -0.9941613786423834 -0.17588454513593108
707412 -0.9938624786339914 -0.17558588905844247
707556 -0.9938776241290294 -0.17610349221932478
707699 -0.9943039380613845 -0.17527829477346676
707843 -0.9948570569268744 -0.17575563849880396
707986 -0.9946011430159113 -0.17487983972905588
708130 -0.9946656123224318 -0.1752161096803079
708130 -0.9945789962081738 -0.17476421583636792
708276 -0.9945547955384051 -0.17498521861992727
708422 -0.9944398378753526 -0.1750025297857878
708569 -0.9942695563770849 -0.1752568367044393
708715 -0.9939420646310272 -0.17538945275813025
708862 -0.9944342969935948 -0.17431144690258255
709008 -0.9946035769093805 -0.17434698183854633
709155 -0.9951679343138424 -0.17435695459780087
709301 -0.9949492594295584 -0.17368296327602595
709448 -0.9946430593545089 -0.1743653624669698
709594 -0.9935118216831217 -0.17397936599252486
709741 -0.9938875836034882 -0.17368173786213173
709887 -0.9945465984186151 -0.1733828771581555
710033 -0.9946965768467306 -0.17332588178337885
710180 -0.9948313102451335 -0.1729913696028487
710326 -0.9944730236263877 -0.17270662257269317
710473 -0.9930522520464242 -0.17347699542609077
710619 -0.9942837606154227 -0.1728854152388312
710766 -0.9945903106707048 -0.1723880255213371
710912 -0.9945562977451641 -0.17238628385144608
711059 -0.9954112073374315 -0.17240456290090853
711205 -0.9946345811875187 -0.17180594559658033
711352 -0.9937464727812249 -0.17214659873438107
711498 -0.9949005319364043 -0.17220041994719543
711645 -0.994046363732426 -0.1715402842061663
711791 -0.9950194313205811 -0.17160331656080444
711937 -0.9950991276907106 -0.17148884898392286
712084 -0.9951247840927937 -0.17111924284521737
712230 -0.9949569089245172 -0.17139012290510294
712377 -0.9951415613523886 -0.17223157344892198
712523 -0.9914612110157853 -0.17082628343944622
712670 -0.9951020379648214 -0.1709611334520073
712816 -0.9953096873500542 -0.1702563668244073
712963 -0.9954408066310313 -0.17083279510813015
713109 -0.994785473176839 -0.17027239054311602
713256 -0.9939278306122231 -0.17086306281478045
713402 -0.9939958134875737 -0.17048494820752166
713549 -0.9953374731021671 -0.16963326627032999
713695 -0.9950290171834683 -0.16967591970564327
713841 -0.99591987978043 -0.1700894507490103
713988 -0.9950521091280802 -0.16924937019623507
714134 -0.9951081846190586 -0.16954337610921244
714281 -0.9945316975050242 -0.16980720213941708
714427 -0.9937029190576456 -0.16893445443680769
714574 -0.9947616299866661 -0.16906773819637858
714720 -0.9952651012666857 -0.16921787315198364
714867 -0.9949279991089547 -0.16845195420709821
715013 -0.9943334126888014 -0.1685360582705123
715160 -0.9946469111557719 -0.16810886812001194
715306 -0.9959056012928973 -0.16838497519596282
715453 -0.995753651464541 -0.16787037813593222
715599 -0.9949053652142706 -0.16740916247014997
715745 -0.9951119454829315 -0.1683051459731035
715892 -0.9945046372941413 -0.16845581592799
716038 -0.995286486780124 -0.16765154221571438
716185 -0.9954531152630481 -0.16795080240025256
716331 -0.9961540566810995 -0.167585716588819
716478 -0.9954414714966985 -0.1671919280648158
716624 -0.9951292947194904 -0.16760215075933724
716771 -0.9945184926737654 -0.16760305268869607
716917 -0.9949963207377394 -0.16688085139398143
717064 -0.9956566621809555 -0.16662330468369155
717210 -0.9956205528477626 -0.1668623810913341
717356 -0.9951938330668826 -0.1664545240271352
717503 -0.99560362279643 -0.16613199765063164
717649 -0.995114015773978 -0.16670973279849266
717796 -0.9960827998822497 -0.16615722557157186
717942 -0.9944443424100373 -0.1654622431109116
718089 -0.9958139479691722 -0.1657726574999339
718235 -0.99617190822544 -0.16582539874730623
718382 -0.9955374722857172 -0.16491612828434318
718528 -0.9952638073813915 -0.16528770366031312
718675 -0.9958979944397364 -0.16489733642259585
718821 -0.9955909591396291 -0.16555869636672632
718968 -0.9958301952622672 -0.1650528408404341
719114 -0.996203204692127 -0.16456580444395635
719260 -0.9957756696659604 -0.16457388107641552
719407 -0.9963032281206938 -0.16474765886876305
719553 -0.9955116881944794 -0.16507144698371948
719700 -0.9949345214757671 -0.1647876224561975
719846 -0.9957474373621872 -0.16389691569000925
719993 -0.9955683681400693 -0.16429549155933013
720139 -0.9966890466024545 -0.16400545241746606
720286 -0.9956257634806696 -0.1641189599303699
720432 -0.9956850332362644 -0.16414393597932883
720579 -0.9955054479077283 -0.16407347439449207
720725 -0.9955249316800191 -0.16307386970227616
720872 -0.996000572104662 -0.1630863401429122
721018 -0.9962632884075048 -0.1631498995940879
721164 -0.995719099266746 -0.1624969693281561
721311 -0.9957068031211546 -0.1628318758119381
721457 -0.995577755506131 -0.1630744588526441
721604 -0.9954072658395398 -0.16231551754815782
721750 -0.996476733713047 -0.16249492573145952
721897 -0.9966051667621896 -0.16195084546797753
722043 -0.9958855044446764 -0.16179487228325853
722190 -0.9960572551645098 -0.16202598259762846
722336 -0.9958513281144667 -0.1622849941554416
722483 -0.9957405038212281 -0.1619889556015163
722629 -0.9958861472033601 -0.16165905442145836
722776 -0.9965617811128977 -0.1614452776972729
722776 -0.996118816247714 -0.16220877018513924
722925 -0.9953646998723038 -0.16060749862121046
723074 -0.9962719192268793 -0.16151336952102688
723224 -0.9963648498400711 -0.16108038610178047
723373 -0.9959922043839033 -0.1609726483763521
723523 -0.9961412269471124 -0.16117577779498649
723672 -0.9954497572486233 -0.1616514103200089
723822 -0.9943500180640151 -0.16053500767352805
723971 -0.9975107768906513 -0.16035695998434468
724121 -0.9974690890772001 -0.15993497853527752
724270 -0.9968800966427838 -0.1599358537856297
724420 -0.9961158320206622 -0.15986653357313865
724569 -0.9959924071361015 -0.16061717925471014
724719 -0.9956519288812471 -0.15964838322257874
724868 -0.9960542818883769 -0.15905571548083305
725018 -0.9955576859999381 -0.15888412872785265
725167 -0.9970792555233581 -0.15909012590062213
725317 -0.9961754237541695 -0.15876909576362003
725466 -0.9959632914329931 -0.15920552453757658
725616 -0.9957434632740843 -0.1590429891848021
725765 -0.9958257183331524 -0.15817925812055003
725915 -0.9960529558084886 -0.15819309796685993
726064 -0.997421768174781 -0.15820087176505332
726214 -0.9963016520319051 -0.15755527812456682
726363 -0.9963826708000061 -0.15852062473583428
726513 -0.9958024321779209 -0.1582494485656218
726662 -0.9964321060556482 -0.15763930584557104
726812 -0.9963541217436407 -0.1574108988756179
726961 -0.9977034649311725 -0.15669829050003176
727111 -0.9955576196548422 -0.15815320496692145
727260 -0.9976613533226457 -0.1580676712139456
727410 -0.9964429238122132 -0.15797012388293885
727559 -0.996987897505588 -0.1568937339271308
727709 -0.9963659536200268 -0.1568299491935765
727858 -0.997528993660565 -0.15672790519263943
728008 -0.9973833844129004 -0.1569085222448474
728157 -0.9964383942545334 -0.15600683367401438
728307 -0.996294347647342 -0.15686347728658787
728456 -0.9960052711847116 -0.15643184244029337
728606 -0.9963309725019569 -0.15601360120986582
728755 -0.9968649115211405 -0.15524884532614738
728905 -0.9973680667416962 -0.15563395844791986
729054 -0.9968096134385601 -0.15526240873097769
729204 -0.9964306465637529 -0.155633269217751
729353 -0.996097693059104 -0.15522131889615123
729503 -0.9964219994664882 -0.15467805311128505
729652 -0.9967743026122428 -0.1547259901637624
729802 -0.9975977717311951 -0.15468702273759277
729951 -0.9966647870706781 -0.15431433520923127
730101 -0.9967412612612564 -0.15410151965201402
730250 -0.99724609562757 -0.15570809871586275
730399 -0.9973415798741836 -0.15421333243779187
730549 -0.9976899813618979 -0.15403510215331795
730698 -0.9970844166318473 -0.1534859618339256
730848 -0.996740956673307 -0.15391671339199425
730997 -0.9967326367728728 -0.15400524598043422
731147 -0.9974413439328598 -0.1536716619267219
731296 -0.9963742111873396 -0.15419752906087755
731446 -0.9985092037919489 -0.15369567413560453
731595 -0.9973943679723949 -0.15342376521698123
731745 -0.9970479792634963 -0.15291248954055903
731894 -0.9967685991201939 -0.15331430817977845
732044 -0.9963089208664467 -0.15324817622575124
732193 -0.9958602391321046 -0.1530240485289309
732343 -0.9980233748501192 -0.1523299341350992
732492 -0.9971924329123276 -0.15276156666871513
732642 -0.9968529755829099 -0.152244843910586
732791 -0.996917183451317 -0.15228171614521513
732941 -0.9969208386384378 -0.15253900898434594
733090 -0.9962588040230995 -0.1523023009271906
733240 -0.99685038378472 -0.15125952599004416
733389 -0.9972251772287276 -0.1518241983477862
733539 -0.9973038945850851 -0.15138817374790386
733688 -0.9975287125024036 -0.15079836043941516
733838 -0.9971462775129598 -0.15163606991609238
733987 -0.9969979682179925 -0.15113272146928677
734137 -0.9975306346267208 -0.1499543257019253
734286 -0.9981192763291823 -0.15104037206450346
734436 -0.9965267377839513 -0.150004876975499
734585 -0.9970139633716869 -0.1502231183827344
734735 -0.9971998814804488 -0.1507170980129981
734884 -0.9972554950712077 -0.1505853795151342
735034 -0.9967105577192099 -0.1494615815390374
735183 -0.9977095942743779 -0.14989112443527794
735333 -0.9981750563772172 -0.1493380743565153
735482 -0.9974500299931448 -0.14922245908825948
735632 -0.99807830628488 -0.14950312278646052
735781 -0.9971645585808695 -0.1496998310573904
735931 -0.995605860205277 -0.1494201155481118
736080 -0.997250480105551 -0.14907483284080467
736230 -0.9973999089546415 -0.14846840773957068
736379 -0.9974963776622068 -0.1483646630946036
736529 -0.9992143195336484 -0.14909578996048636
736678 -0.9986472049968534 -0.14858588415052518
736828 -0.9970558372168117 -0.14832622176405583
736977 -0.9972093357174838 -0.14837340260313975
737127 -0.9984440052388739 -0.14786645195260012
737276 -0.9978688084109228 -0.14767455788657463
737426 -0.9978028792685347 -0.14736975890198403
737575 -0.9974031278403793 -0.14806265537365054
737725 -0.9972754543102389 -0.14785889180735642
737725 -0.9976139823429486 -0.14788732177986078
737877 -0.9971694029896024 -0.147208903048083
738030 -0.9981930080052626 -0.14710663508531066
738182 -0.9982428190520971 -0.1469268611163244
738335 -0.9981741697059856 -0.14665718100772895
738487 -0.9974707700690758 -0.147402769481157
738640 -0.9975575743369587 -0.14677375256275058
738793 -0.9976209584476285 -0.14654885499026576
738945 -0.9978020877847639 -0.1464682347075216
739098 -0.9987643465658005 -0.14663049118786836
739250 -0.9979530934548212 -0.14566598707738232
739403 -0.9967809636158457 -0.14696186013800083
739555 -1.001969047563514 -0.14609894926339237
739708 -1.0011540209689833 -0.1455502404658659
739861 -0.9977353220516926 -0.1454675425292516
740013 -0.997705404293435 -0.14498788981175814
740166 -0.9989312170565352 -0.14526105664990965
740318 -0.9978331048896978 -0.1448661298901188
740471 -0.9998459695716415 -0.14548794598829642
740624 -0.9962796172611309 -0.14436557010726686
740776 -0.9963624945502061 -0.144300284500253
740929 -0.9982203648471653 -0.14361894512270562
741081 -0.9983827805691351 -0.1437205743041014
741234 -0.9978793114957474 -0.14416319048425316
741386 -0.9978780208978898 -0.14460213416515463
741539 -0.9974755159984762 -0.1438685655060249
741692 -0.9974715280275053 -0.14318027075064899
741844 -0.9983717376109937 -0.14335452829549772
741997 -0.9978956632751467 -0.14340293929314676
742149 -0.9985528297456185 -0.1433948594412966
742302 -0.9975613456254969 -0.14409262950737414
742454 -0.9979417252588874 -0.14364454639874683
742607 -0.9962344807696581 -0.1434655418273979
742760 -0.9983245889715054 -0.14150673548325615
742912 -0.9958598698084162 -0.14275921874780306
743065 -0.9978539675637796 -0.14209488873624065
743217 -1.0001297584080089 -0.142738008651936
743370 -0.9965528173031697 -0.14298437394288377
743523 -0.9983285773212252 -0.14173958810744308
743675 -0.9998705864179519 -0.14139763121586416
743828 -1.003116126983148 -0.1432136470096468
743980 -0.9965129199179775 -0.1403068672114587
744133 -0.9980819994861287 -0.14161496516288102
744285 -0.9985483683884671 -0.14164072353815715
744438 -0.9980623732950591 -0.1405951416205522
744591 -0.9985306533518035 -0.1408158412523489
744743 -0.9994729048315693 -0.1405847556079704
744896 -0.9983908926157828 -0.14049472270725424
745048 -0.9979652809942626 -0.14031153582512673
745201 -0.998392942247738 -0.14080357345307615
745354 -0.9998337877950914 -0.14019411696818593
745506 -0.998808301815331 -0.13993291504031602
745659 -0.9988084224013731 -0.14000176331034475
745811 -0.9994642716117433 -0.14000455466676057
745964 -0.9983050265910467 -0.13941555191483315
746116 -0.999581183646304 -0.14033220812822542
746269 -0.9981348985325716 -0.13924959958769348
746422 -0.9966565960977866 -0.13902290064896028
746574 -0.9982270526237113 -0.13963227348320442
746727 -0.9985810558365064 -0.13837902248269202
746879 -0.9929032183707018 -0.1388308088062565
747032 -0.993475402996886 -0.14046675400258274
747184 -0.9977646468937239 -0.1383930970210171
747337 -0.9967194448297778 -0.13807879079595367
747490 -0.997673536808507 -0.13766288041738522
747642 -0.9989093230063403 -0.13850971598628214
747795 -1.0000740284779657 -0.13759178287894402
747947 -0.9912715998749577 -0.1385000983642404
748100 -0.9926276982584761 -0.1391071351212455
748253 -0.9947876290581888 -0.13739718404763882
748405 -0.996693333519707 -0.13796124504469226
748558 -1.003711067548893 -0.13766657002588578
748710 -0.9937355746861855 -0.13616311599243394
748863 -0.9974784010954005 -0.1326757842252436
749015 -1.0023535888752029 -0.14177677541173098
749168 -1.022402175038501 -0.1357583347177971
749321 -1.0053535164001282 -0.13677747294179715
749473 -1.0011522768729373 -0.1359820846759736
749626 -0.9889656127241008 -0.13560866977045344
749778 -0.9960583081283458 -0.13316926483280886
749931 -1.0078569187510031 -0.13169301223086785
750083 -1.009931595078585 -0.13871925554678635
750236 -1.0089253288633473 -0.13690449235530042
750389 -1.0016176169338122 -0.13561864822480219
750541 -0.9949236861142163 -0.13370832542139902
750694 -0.9986891421329065 -0.1350500329406227
750846 -0.998543888257222 -0.13619601499697173
750999 -0.9986472898784966 -0.13434452444088837
751152 -1.0074786150517938 -0.13377055495955512
751304 -0.9923922233470915 -0.13518401921445508
751457 -0.9997005717173872 -0.13480853266249637
751609 -1.0075818891195207 -0.13435997122812723
751762 -0.9980184401597462 -0.13514791039919366
751914 -0.9876179974866259 -0.13521181459237272
752067 -0.9872792060014963 -0.13505895733918655
752220 -0.9783056191873307 -0.13256556115963977
752372 -1.0087869364613467 -0.134043120245713
752525 -1.0000205481123874 -0.13336735372266958
752677 -1.0016185618920357 -0.13432674145131257
752830 -0.9986004536572614 -0.13367446914783704
752983 -0.9938367444010004 -0.13287032643441957
752983 -0.9914418177831652 -0.1317365794044515
753138 -1.0072834512996518 -0.13482719342316468
753294 -0.9995438246720552 -0.1317174168248308
753450 -0.9992893769559745 -0.1330659599714452
753605 -0.9976535022141874 -0.13310822634921776
753761 -0.9985832900783105 -0.1321780653219971
753917 -0.9995930193577277 -0.13229813670231239
754073 -0.9991902773963578 -0.13215281624129327
754228 -0.9993900284244425 -0.13185537467787573
754384 -0.9989086906824871 -0.13212164751717947
754540 -0.998484352170141 -0.1322167157372649
754696 -0.9985154337986276 -0.1312749767049088
754851 -0.9997443398077172 -0.1314802558300139
755007 -1.0011018882320735 -0.13173643802375676
755163 -1.0050452583959901 -0.13090646160482713
755319 -1.003728973829996 -0.13167200950999583
755474 -0.9961479951223947 -0.13112003008284312
755630 -0.9977419695719087 -0.1301032740433869
755786 -0.996889694002684 -0.12977170027604207
755942 -0.9999119535666013 -0.13034122820675487
756097 -0.9951502808934046 -0.12966192600029558
756253 -1.005052701534981 -0.1308427055946463
756409 -1.0023131840036235 -0.13021092983224777
756565 -0.9997884452796949 -0.1296007133693793
756720 -1.0004345923896865 -0.12961864989121072
756876 -0.9994769807722474 -0.12944381378134864
757032 -0.9994962372781241 -0.12943159731809117
757187 -0.9997195002146214 -0.1298140000322044
757343 -0.9999532201462276 -0.129599419207658
757499 -0.9996029956021638 -0.1287322661036161
757655 -1.0001317002671692 -0.1283137930928851
757810 -0.999224602382397 -0.12866801922866333
757966 -0.9996657368088688 -0.1282529396593298
758122 -0.9993559166376863 -0.12894871566631308
758278 -0.9993037311339376 -0.12897105962793362
758433 -0.999465525804136 -0.12804817903025878
758589 -0.999726992641261 -0.12751200364977225
758745 -0.9997000937124474 -0.1276452289910502
758901 -0.9987856956744934 -0.12745828697880443
759056 -0.9995075689148194 -0.1278769223788141
759212 -0.9992925682509723 -0.12796142431068525
759368 -0.9963527195985767 -0.12665038994609412
759524 -0.9977770196497339 -0.1262580618563584
759679 -1.0005027146695118 -0.12681652843008323
759835 -0.9999452069166048 -0.12672020394056413
759991 -0.9993839066432999 -0.1270758717271936
760147 -0.999650691470531 -0.12689262258314685
760302 -0.9999749570591192 -0.12556601004642237
760458 -0.9986517438765993 -0.12639191011270368
760614 -1.0000563574387984 -0.1259365547821786
760770 -0.9995255976055369 -0.12577546858073613
760925 -1.0004201952387421 -0.1258150394830486
761081 -0.9996534873317394 -0.12620378633169183
761237 -1.0000721761221687 -0.12544813964861168
761392 -1.0020766717675413 -0.12525394029206463
761548 -0.997501072534685 -0.12495338541016658
761704 -0.9992909734496218 -0.12507827205516672
761860 -0.9996019573731911 -0.12454174010360616
762015 -1.0000822560311757 -0.12525700121449543
762171 -0.9993790307528655 -0.1248586285779495
762327 -0.9991410290310986 -0.12438583966188928
762483 -0.999830333005888 -0.12428696369315552
762638 -1.0004897076885384 -0.12414304894897991
762794 -0.9997973297592105 -0.12352124162544527
762950 -0.9995191513182123 -0.1243194235052476
763106 -0.9993284856954108 -0.12362963217242898
763261 -0.9996923978677723 -0.12315093569350595
763417 -0.9997883824266468 -0.12295569235271968
763573 -0.9999732983724281 -0.12307481255509231
763729 -0.9995704246310396 -0.12312944545896763
763884 -1.0002632445747566 -0.12351793310453237
764040 -0.9991962745963525 -0.12302800539622567
764196 -0.9994049946590253 -0.12277393748033347
764352 -1.000822825307259 -0.12239672639881644
764507 -1.0029865607346748 -0.12263033850839422
764663 -0.9972230045999191 -0.12172487262168354
764819 -1.0009309118654903 -0.12256478055516788
764974 -1.0000486854883475 -0.12192435494786094
765130 -1.000467406201423 -0.12126214897811041
765286 -1.0000358274629224 -0.12225869104250792
765442 -0.9992270366532255 -0.1218834223659588
765597 -0.9983289388050133 -0.12105751799538408
765753 -1.0004386351644494 -0.12152781208788126
765909 -0.9997689057200028 -0.12130714058848968
766065 -0.9994846489140012 -0.12081830619311565
766220 -0.999923796229859 -0.12058169803585018
766376 -1.000713901615988 -0.12091702310587724
766532 -1.000476289309201 -0.12037542429539197
766688 -0.9999104899259456 -0.12061157020071876
766843 -1.0004284504847754 -0.12051505942995724
766999 -0.9997833406542256 -0.11942842656531175
767155 -1.0009130291655886 -0.11979475570911914
767311 -1.0011299530798234 -0.11963426042692316
767466 -1.0003445468458505 -0.11900610925632991
767622 -1.000450448472943 -0.12006960373731676
767778 -0.9997005181783748 -0.11953843575371118
767934 -1.00088528385343 -0.11872740792370234
768089 -1.0004761445980495 -0.11876679371955814
768245 -1.0014879786699313 -0.11901539496693457
768401 -1.0001137881034292 -0.1184234674676092
768557 -1.001117715685534 -0.11906187230794335
768557 -1.0000125060561695 -0.11864311532186736
768715 -1.002098804571961 -0.11798471184574123
768874 -1.0021486236850805 -0.11790588249651164
769033 -1.0006162985889193 -0.11807047056304519
769192 -1.000559657124335 -0.11782429634771395
769351 -1.000542316802576 -0.118319394860018
769510 -0.9997248438854494 -0.11790696006896986
769669 -0.9998506346651431 -0.11746568841435083
769828 -1.0007928141187836 -0.11721872747828752
769987 -1.0005015508899526 -0.11718922570524576
770146 -1.0002561917611243 -0.11687827374533374
770305 -1.0000608854475044 -0.11747341209073625
770464 -1.0001610389625468 -0.11699264277800907
770623 -1.0002972259989844 -0.1162331019660878
770782 -1.000636050337653 -0.11602577991310295
770941 -1.0007783162590909 -0.11605870035390292
771100 -1.00044777586034 -0.11615008527103589
771259 -1.0003209555190489 -0.11636754858739534
771418 -1.0001782879831411 -0.11569318212065009
771577 -1.0008794011814253 -0.11556225563696018
771736 -1.0015260103218218 -0.11487925489980086
771894 -1.0006543619730466 -0.11556352403288879
772053 -1.000065344602855 -0.1156280797407559
772212 -1.000845824826375 -0.1155083944211989
772371 -0.9999719564120164 -0.11506500751958113
772530 -1.000602901496702 -0.11471130753359807
772689 -1.0010408906286625 -0.11443078799235101
772848 -1.0010543983493603 -0.11444143475079409
773007 -1.0007603963620002 -0.11472540851414785
773166 -1.0007623754830404 -0.11455757760157918
773325 -1.000286323822144 -0.1142263619860303
773484 -1.001138144291288 -0.1140942303060133
773643 -1.001046788701816 -0.1137444437416243
773802 -1.0014949146361252 -0.11360023916382825
773961 -1.0010047192366407 -0.11341599344598247
774120 -1.0007626347728173 -0.11388700295064179
774279 -1.000622679773236 -0.11308402691721595
774438 -1.0012498007132704 -0.11260889125749868
774597 -1.0008988675481159 -0.11286222539819524
774756 -1.000898854825447 -0.11227442596106069
774915 -1.0009823723951383 -0.11278021538594449
775073 -1.001358229310012 -0.11298230620705078
775232 -1.0005427092999117 -0.11258700349884258
775391 -1.0012016718924646 -0.11219851545337779
775550 -1.0011655653470959 -0.11195673481661751
775709 -1.0011436652912764 -0.11108654525198267
775868 -1.0007330628444917 -0.11216033412383825
776027 -1.0010204208212545 -0.11216192184023317
776186 -0.9999949800832779 -0.11194893623023602
776345 -1.0010653344777387 -0.11133579231599496
776504 -1.0013770056317686 -0.1114080527014073
776663 -1.000699842363502 -0.11098344287157003
776822 -1.0011973363254623 -0.1112862533548226
776981 -1.0001955770275925 -0.11125446320394342
777140 -1.001383856384604 -0.10991051606823407
777299 -1.0011078288075155 -0.11024735314090556
777458 -1.0013877544734529 -0.11041426396372567
777617 -1.0004262526978382 -0.10981823707648725
777776 -1.0011209626512858 -0.11032840360305746
777935 -1.0002488429219092 -0.1098224267618306
778094 -0.999991546030099 -0.10968997287217373
778252 -1.0003108988447313 -0.10946227907874528
778411 -1.001904172364058 -0.1092553081632396
778570 -1.0012081372846076 -0.10873655215560443
778729 -1.0007056592519754 -0.1095561009915066
778888 -1.00063585074803 -0.10925393158834741
779047 -1.00069698869431 -0.10870949056802638
779206 -1.0012590784918936 -0.10831660920963584
779365 -1.001661367788159 -0.10839531107320301
779524 -1.0009834154367456 -0.10771629221773346
779683 -1.0009018846570576 -0.10843609999971562
779842 -1.0006130187994824 -0.10849272485299902
780001 -1.0009519178064732 -0.10760059636272942
780160 -1.0015690674586946 -0.1074862468518131
780319 -1.0003628229277342 -0.10787062165770017
780478 -1.0008635356003877 -0.10726308361400566
780637 -1.0011182450939236 -0.10785358009603152
780796 -1.0007420152986652 -0.10716119825925924
780955 -1.00078692982917 -0.10696074050688285
781114 -1.0017628181994265 -0.10689882028455977
781273 -1.0022419761228982 -0.10679774434525896
781431 -1.001584332635644 -0.10664862303873
781590 -1.0007494628439528 -0.10679917396159416
781749 -1.0006138075926683 -0.10647375952191114
781908 -1.0012401245415663 -0.10612909853922553
782067 -1.0018321951308302 -0.10562975268836407
782226 -1.0018596172013998 -0.10593220041560589
782385 -1.0014133846365254 -0.10516370448813595
782544 -1.0015367891096225 -0.10573007478899471
782703 -1.0009979426073585 -0.1055719008319996
782862 -1.001381459141529 -0.10504009599955821
783021 -1.0019130959196967 -0.1050346809960946
783180 -1.0021020263945724 -0.1054135057547717
783339 -1.001297231962115 -0.10504035544233334
783498 -1.00105790816051 -0.10475035378567263
783657 -1.0012570074488423 -0.10489219049386987
783816 -1.0016581635741963 -0.10431239536333518
783975 -1.0015224851272941 -0.10431722273285816
784134 -1.0011894246904636 -0.10395838527882946
784293 -1.0014631236064016 -0.10421581953162379
784452 -1.000728195270797 -0.10500574660933144
784452 -1.0014584317680428 -0.10365304587519168
784614 -1.0020868743006295 -0.10349269390224648
784776 -1.0012518368877141 -0.10328161107573383
784938 -1.001239217445261 -0.10384823340332142
785101 -1.0013333857985212 -0.10349780954262175
785263 -1.0007681036377138 -0.10269193313533298
785425 -1.0013714420783209 -0.10260451901991641
785587 -1.0015143978080805 -0.10254561530882032
785750 -1.0016462978742537 -0.1021692385274114
785912 -1.0016319893296703 -0.10265788320908358
786074 -1.001125840970753 -0.10248379934059862
786236 -1.0007339694957662 -0.1017535029028254
786399 -1.0013286949328373 -0.10153440504867077
786561 -1.0007226819740935 -0.1010810983082338
786723 -1.00182963386665 -0.10117615385013635
786885 -1.0011726047595484 -0.10171210084346524
787048 -1.0014812405170117 -0.10124608034683717
787210 -1.0021235650534803 -0.10062082355489316
787372 -1.0015544717357723 -0.10027572122459368
787534 -1.001425455072237 -0.1006124499629239
787697 -1.001718269130117 -0.10083021987766862
787859 -1.0019130983355689 -0.10058759021238549
788021 -1.0021702614783947 -0.10049804485423727
788183 -1.0022062621413423 -0.10024057021982125
788346 -1.0021988542452673 -0.10031851974513066
788508 -1.0014592209493305 -0.09960138386530608
788670 -1.002071016924331 -0.09983352336064037
788832 -1.0014685701668238 -0.10031321746489097
788995 -1.001751800711305 -0.09973304847060836
789157 -1.0020499028458532 -0.09929206781351295
789319 -1.001884975813516 -0.09859798019154366
789481 -1.0007857795071329 -0.09899111258041669
789644 -1.0023253920734012 -0.09913951404864872
789806 -1.0009876890899965 -0.09928351135427134
789968 -1.001353918051541 -0.09818057872223573
790130 -1.001894208610948 -0.09784322156606938
790293 -1.0020568996211954 -0.0977926503627669
790455 -1.0019097939199513 -0.09803781127240725
790617 -1.0011674341066181 -0.09775372588737137
790779 -1.001276035950909 -0.09780840099430083
790942 -1.001293462712099 -0.09753493445330583
791104 -1.0020878057252751 -0.09723950860528884
791266 -1.0021691123138798 -0.09737815407876967
791428 -1.0017849614123175 -0.09728323351910012
791591 -1.0020072036075978 -0.09718771277034137
791753 -1.0011403931824163 -0.09702774127441346
791915 -1.0015955117712245 -0.0964778765630089
792077 -1.0020571042212625 -0.09661711316334712
792240 -1.002427019162245 -0.09636982857880359
792402 -1.0018383208322714 -0.09642989018830077
792564 -1.0018711164910719 -0.09671581260736492
792726 -1.0008739544893832 -0.09595696328160146
792889 -1.0018654666188556 -0.09524893807143982
793051 -1.0024440202019438 -0.0952091750271747
793213 -1.0022132832631496 -0.09527996617693359
793375 -1.0020397566286094 -0.09515119083031502
793538 -1.0023328383499368 -0.09521031618134046
793700 -1.0025216837313797 -0.09558309902594804
793862 -1.0023067255153026 -0.09467302048768214
794024 -1.0019362618995142 -0.09486760922199744
794187 -1.0022101719440952 -0.09410003570689715
794349 -1.001716092941707 -0.0942741574935105
794511 -1.0020482770223023 -0.09459532727884198
794673 -1.0018717658842706 -0.09450906691507566
794836 -1.0016135772061239 -0.09358829368799158
794998 -1.0021381704155128 -0.09376357880792874
795160 -1.0026342224991336 -0.09364285570424534
795322 -1.0024104943428092 -0.09293510226774916
795485 -1.0017282545075328 -0.09387968249103497
795647 -1.0017006429624578 -0.09338531626984334
795809 -1.0017600081912756 -0.09259547320932195
795971 -1.0024391488217383 -0.09255948037527073
796134 -1.0022767671162032 -0.09278886596040957
796296 -1.0025183806454814 -0.09237373572571907
796458 -1.0022463038002254 -0.09249459934678604
796620 -1.0015240996023373 -0.09236575352497227
796783 -1.0017782928811818 -0.0920119781221198
796945 -1.0023143569548987 -0.0916955374037965
797107 -1.0021886134308962 -0.09143892126270943
797269 -1.0024600859277168 -0.09171819628565676
797432 -1.0024319828863608 -0.09183064393675118
797594 -1.0010779220273975 -0.0912880533460719
797756 -1.0025924564984154 -0.09103929525710469
797918 -1.0032672700272833 -0.09063658345552493
798081 -1.0024989209313935 -0.09058785466948638
798243 -1.0021940728742775 -0.09111661869989292
798405 -1.0024142133696545 -0.09111418850131206
798567 -1.0013787913244803 -0.090499209337576
798730 -1.0026156026652675 -0.0905696608543912
798892 -1.0026878340041634 -0.09040162983589779
799054 -1.0028684923614066 -0.08968402753399976
799216 -1.0020594137757373 -0.09031576932052644
799379 -1.0010040137951344 -0.09045554348957392
799541 -1.0012685364558782 -0.0894327592730926
799703 -1.0009311690474185 -0.08892080024818952
799865 -1.0027275206561412 -0.08913777128403395
800028 -1.0014124833480895 -0.08859196460075157
800190 -1.0025095282994256 -0.08882245270322858
800352 -1.0027768282989193 -0.08860752115129687
800514 -1.0013862400275877 -0.0888075531372699
800677 -1.0014834359022435 -0.0885953469185853
800677 -1.002843108770589 -0.08822744312923107
800842 -1.0015437770465208 -0.08826234827058452
801008 -1.0022471962632153 -0.08879725164086386
801173 -1.0013001964241244 -0.08794016485543689
801339 -1.0024439459920562 -0.08754785765246707
801505 -1.0025761632647356 -0.08753639312951397
801670 -1.002574549433985 -0.08707801503833264
801836 -1.0020669553979933 -0.08794173715710432
802001 -1.0012606389354575 -0.08783560389393338
802167 -1.0024252046678008 -0.08725088550469681
802333 -1.0029469655396153 -0.08628573831213827
802498 -1.0022512354652653 -0.08627921130596455
802664 -1.002644944351683 -0.08650835449348633
802829 -1.002450033646579 -0.0868946892724578
802995 -1.0022471471220886 -0.08613894342839204
803161 -1.0019947980233248 -0.0861564207048227
803326 -1.002854604858452 -0.08540351098210198
803492 -1.0026118266395216 -0.08549486621742847
803657 -1.0018320385133141 -0.08586921055077514
803823 -1.002478642465387 -0.08638060524373409
803989 -1.00189792013312 -0.08515632803401638
804154 -1.0029508103324354 -0.08476292464029053
804320 -1.0024345010601716 -0.08495498494004719
804485 -1.0023058774850808 -0.08469537981528909
804651 -1.0026316424749702 -0.08513649805275189
804817 -1.0022428756825126 -0.0845075110383853
804982 -1.0022384483690823 -0.08418184877343006
805148 -1.0022497976503941 -0.08378004028917076
805313 -1.0021164763091386 -0.08401212195337827
805479 -1.0023471727372861 -0.0839110123273315
805645 -1.003021886178581 -0.08400450639588128
805810 -1.0018655918455155 -0.08397739815958014
805976 -1.0024716089161487 -0.08327510692079473
806141 -1.0024761084474096 -0.08344673118023949
806307 -1.0026268152121594 -0.08307394574460665
806473 -1.0022258828246906 -0.08324566896100613
806638 -1.0025150187859262 -0.08350390725430622
806804 -1.0023550805783976 -0.08263865082761593
806969 -1.0028654113307855 -0.0823357667044309
807135 -1.0029237124583164 -0.08236687858028963
807301 -1.002108671563963 -0.08205371693322087
807466 -1.0021223503825238 -0.08286992125513573
807632 -1.0020960469734168 -0.08224988554018936
807797 -1.002122000051999 -0.08160314567798882
807963 -1.0028488088574168 -0.08120467903910183
808129 -1.0023782589636492 -0.08146518209685014
808294 -1.0027057403359212 -0.08117703657007619
808460 -1.002469142660781 -0.08158736373107457
808625 -1.00160546691448 -0.08119158737690395
808791 -1.0028051899268655 -0.08093071340421226
808957 -1.0028199849679769 -0.0806247785628056
809122 -1.0025287135974477 -0.08022306663968373
809288 -1.002805886165949 -0.0799738238838769
809453 -1.0031857537220072 -0.08143802547184452
809619 -1.002369645363965 -0.08005976184696796
809785 -1.0027872897804686 -0.0804367677231606
809950 -1.0028823281027441 -0.07985980851519377
810116 -1.0029283885227016 -0.07916698466590634
810281 -1.003416317327615 -0.07978570973606769
810447 -1.0027302528266695 -0.07958031492098645
810613 -1.0023736888028152 -0.07899589290226873
810778 -1.0033118100883565 -0.07878092950179216
810944 -1.0029862472036577 -0.07867816203911303
811109 -1.00298089626516 -0.07856625777801583
811275 -1.0024798323870916 -0.07893757101753585
811441 -1.0030361092589666 -0.07848033375017473
811606 -1.002744364519096 -0.07786870221598285
811772 -1.0030005851648305 -0.07772477333674258
811937 -1.0024805671024377 -0.07805309596219073
812103 -1.0029473821867316 -0.0773979331084774
812269 -1.0027524166672228 -0.07745065546750589
812434 -1.0026561750241216 -0.07729879843238842
812600 -1.0029869872059223 -0.07699055000495816
812765 -1.0032258461302173 -0.07710334283909356
812931 -1.0024000388674572 -0.07687237040621214
813097 -1.0028417580233109 -0.07727257149841234
813262 -1.0028519403527927 -0.07718564182070042
813428 -1.001826500768057 -0.07657895458652482
813593 -1.003359192998566 -0.0760549323807507
813759 -1.0034063480832112 -0.07624817661741114
813925 -1.0027579177935115 -0.0758665202381543
814090 -1.0029877348656244 -0.07651299837162286
814256 -1.0028840659976077 -0.07634882709700522
814421 -1.002193476543846 -0.07564693430056989
814587 -1.0033978006892301 -0.07504535664581195
814753 -1.0033419404872133 -0.07514532692934724
814918 -1.002505581459014 -0.07518949049617372
815084 -1.0026246131514311 -0.07525122674312958
815249 -1.0023093189745689 -0.07486244489172345
815415 -1.002754768561204 -0.07497500679533367
815581 -1.0025449651524043 -0.07439953115174582
815746 -1.002391868030705 -0.0741507614493918
815912 -1.0024904631027236 -0.07436000425804755
816077 -1.0025094343198913 -0.07472315537019036
816243 -1.0023797153708691 -0.07354734427132323
816409 -1.0031848971811723 -0.07356348285057057
816574 -1.0032489979579744 -0.07343854004166969
816740 -1.002871090847528 -0.07321344201205236
816905 -1.0026794644568398 -0.07348483549677813
817071 -1.0026747170124535 -0.07324724970019153
817237 -1.0029143468892607 -0.07299691128116578
817237 -1.0031267088203142 -0.07294852257599944
817406 -1.0031507479275896 -0.07270186371354147
817575 -1.0029514550658682 -0.07217128034331464
817744 -1.0020909413243306 -0.07290130421093749
817913 -1.0030052344156188 -0.07251983650379742
818082 -1.0026803750120927 -0.07225773041649351
818251 -1.003043512926541 -0.07138459378827702
818420 -1.0028446414643635 -0.07145333864114443
818589 -1.0029880990950488 -0.0717791780970384
818758 -1.0036788014022235 -0.07130598838252046
818927 -1.0016239862970588 -0.07160345136998851
819096 -1.0032857320448667 -0.07105994745632871
819265 -1.003702073860986 -0.07071678588515452
819434 -1.002973614751464 -0.07054911193773132
819603 -1.003080656061475 -0.07094757485497194
819772 -1.0030356263288502 -0.07059277833350466
819941 -1.0029560102757578 -0.06991808516152342
820110 -1.0032680188762833 -0.06979587067749668
820279 -1.0031997941519282 -0.07023253461650081
820448 -1.0032337726039757 -0.06981873349663112
820617 -1.003068876598572 -0.06986310634902682
820786 -1.0028394847163957 -0.06977137410227134
820955 -1.0037196590865038 -0.06949153918106925
821124 -1.003667348308144 -0.06906985892033957
821293 -1.0026413735346464 -0.06902679418156568
821462 -1.0029618198787122 -0.06906596738712648
821631 -1.0027341817172017 -0.06933234409051152
821800 -1.0025657687656397 -0.06936511423126833
821969 -1.003633846851072 -0.06863270611128298
822138 -1.0029840603707225 -0.0683407776197974
822307 -1.0036587570121682 -0.06826416179739987
822476 -1.002115559758048 -0.06832064692426973
822645 -1.0023283587299971 -0.06819792859201938
822814 -1.0019548905319937 -0.06763674040848372
822984 -1.003104132639009 -0.06703657223699634
823153 -1.0031007149033853 -0.0670898333460507
823322 -1.0028532256854419 -0.06722506660834282
823491 -1.0021694922146376 -0.06736760080898146
823660 -1.0026274954890415 -0.06658723759280726
823829 -1.0037149340744491 -0.06671029808179628
823998 -1.006129973790616 -0.0663321947241544
824167 -1.003798895873917 -0.0664807761893177
824336 -1.004018383409631 -0.06636862616130067
824505 -1.00680500443177 -0.0660142817335723
824674 -1.0034397755135227 -0.0657353648796222
824843 -1.0033052184460167 -0.06529952913374089
825012 -1.0058271275075896 -0.06570182756124496
825181 -1.0036407755623225 -0.06578776798713051
825350 -1.0036159581721897 -0.0660407247374211
825519 -1.0018637985322025 -0.0649688655795834
825688 -1.0030593724643961 -0.06490937577442252
825857 -1.003649825766237 -0.06464807541457115
826026 -1.006676950852613 -0.06451420175683488
826195 -1.0033280933424897 -0.06505092712941327
826364 -1.00255546511147 -0.06472211180441662
826533 -1.0028297272412023 -0.06374993706093145
826702 -1.0033414268857281 -0.06392052481461197
826871 -1.0032466519252101 -0.06363574865716518
827040 -1.003322611493362 -0.06345001468925131
827209 -1.0032331436482669 -0.06402880427551028
827378 -1.0020689235117626 -0.06351620909199353
827547 -1.003985489212704 -0.06270703723004344
827716 -1.003569541276063 -0.06262887629243552
827885 -1.0031285376872272 -0.06279040886508551
828054 -1.0036252995972148 -0.06291755247167392
828223 -1.0026119297517126 -0.06268560718087424
828392 -1.003204323631887 -0.06223519766159566
828562 -1.0036323806013665 -0.06175602070234637
828731 -1.0035983525459542 -0.06170454390483621
828900 -1.0035132182049937 -0.06194483427790709
829069 -1.0039116722589239 -0.06209471796834545
829238 -1.0023678505778362 -0.06226844569445823
829407 -1.0035619448546604 -0.06191637363088219
829576 -1.0035309143518845 -0.06101443968158149
829745 -1.0034488920928364 -0.06095795597190351
829914 -1.0027820988699396 -0.06184147673240196
830083 -1.0030117442691524 -0.060982043866954244
830252 -1.002859167302003 -0.060263708566333604
830421 -1.0031498012402185 -0.060241491559916135
830590 -1.0029317995012494 -0.060600534876460554
830759 -1.003613633157193 -0.060252635017068554
830928 -1.0037164433848493 -0.06035657350588738
831097 -1.0024152737219503 -0.06039553323822765
831266 -1.0029573509971494 -0.059539366384466635
831435 -1.0039464543211238 -0.05951086087031764
831604 -1.0034029073355253 -0.058704983543424814
831773 -1.0035984225587025 -0.059289264038263914
831942 -1.0031712459917028 -0.05928592796182388
832111 -1.0027830409563119 -0.05868652318283058
832280 -1.0037335719598117 -0.057880940413510225
832449 -1.0037440095549 -0.05825653169598182
832618 -1.0033291136577698 -0.05813962010539615
832787 -1.0034556516600361 -0.05837401997686479
832956 -1.0026524035858322 -0.058461668354052886
833125 -1.0034370764568203 -0.05845332707758428
833294 -1.0038245010222167 -0.057618637030707215
833463 -1.0033398217353167 -0.057516302403413176
833632 -1.0032122319917354 -0.05795754337870298
833801 -1.0036721420362162 -0.05780047173326941
833970 -1.003141062272628 -0.05728924594988991
834140 -1.0035571956754594 -0.05660419366947444
834140 -1.0033346947534558 -0.05670399135533096
834312 -1.0035573148661037 -0.05675670985313626
834485 -1.0035117402531142 -0.05657466729875546
834657 -1.0033819510185435 -0.056936164365452895
834830 -1.0020673121705033 -0.05612712644064279
835002 -1.0036268120238667 -0.05607117475541421
835175 -1.003196950740753 -0.05538448111073783
835347 -1.0033119042309653 -0.05522642825464185
835520 -1.0035310299294322 -0.05561766522702439
835692 -1.003323644711713 -0.05536450416365449
835865 -1.0038077702441237 -0.05591432242514176
836037 -1.0041196913009547 -0.054941102988200395
836210 -1.0034458752983841 -0.05509463947618392
836382 -1.0034496224673695 -0.05532909084964084
836555 -1.003748438337174 -0.0553603744951624
836727 -1.0032252778912771 -0.054782849796338136
836900 -1.004030395178109 -0.05427486316350168
837072 -1.0034794623081886 -0.05436364294391005
837245 -1.003400080676146 -0.05431270459430591
837417 -1.0032268752762095 -0.054581301845515365
837590 -1.0029855761866024 -0.053857188574942184
837762 -1.0031928954962577 -0.05369773863209463
837935 -1.003470924783447 -0.053713020677972505
838107 -1.0029764706265447 -0.05308833825075147
838280 -1.0033733897832922 -0.053567218436967594
838453 -1.0033058924262535 -0.05331293895847479
838625 -1.0029984448254687 -0.05270850660485887
838798 -1.003445957250645 -0.052173328055832455
838970 -1.0034423911151928 -0.05230168420971974
839143 -1.0031452835117407 -0.05215766935133486
839315 -1.0036105431241136 -0.05242525450427321
839488 -1.003164382233706 -0.05218985268486646
839660 -1.0038253416256562 -0.05155698300080204
839833 -1.0031848303100306 -0.0515715806134034
840005 -1.0037254889570304 -0.05133278552031721
840178 -1.0038248099741323 -0.051740446516760054
840350 -1.0033716613568553 -0.051372691909167545
840523 -1.0039542379937223 -0.051088782307341506
840695 -1.0032047180401003 -0.0512558093295579
840868 -1.00350614144915 -0.05072456090500097
841040 -1.0034778643128617 -0.05101422492340621
841213 -1.0034717869525032 -0.05083178791489648
841385 -1.0030223763742834 -0.050280331591004715
841558 -1.0034828035476642 -0.04979416154983823
841730 -1.003473912810097 -0.049827664939940335
841903 -1.0033492950645917 -0.04986301303275058
842075 -1.0034394639137785 -0.04977527113885287
842248 -1.0035420559992516 -0.04970474371999786
842420 -1.0021987206919691 -0.049171526568134616
842593 -1.0037903674323798 -0.049174523886469715
842766 -1.0037783402524179 -0.04823234311058165
842938 -1.0039394238626191 -0.04876080194176136
843111 -1.0034726385921702 -0.04830961980462995
843283 -1.0030799937584822 -0.04822325488417295
843456 -1.0036756035932557 -0.048528956106908785
843628 -1.003326632677256 -0.04759827540579823
843801 -1.003736944570392 -0.0484278027090166
843973 -1.0037208127039152 -0.047737757901661626
844146 -1.0036714364076111 -0.04799076845513746
844318 -1.0024332199178776 -0.04778053230137908
844491 -1.0036844482818503 -0.04692666803169306
844663 -1.0030255955114953 -0.04733715235472677
844836 -1.0037706380383773 -0.04715918639280161
845008 -1.0037722564680227 -0.04708658190776771
845181 -1.0028138378294889 -0.04680980904710684
845353 -1.003362188511739 -0.04641616759837119
845526 -1.0035524281186659 -0.046315404106582005
845698 -1.0031009894006364 -0.046048993703306396
845871 -1.003402198923838 -0.046336384208501086
846043 -1.003326415443262 -0.04614770558198786
846216 -1.0032288294091223 -0.04568010272590683
846388 -1.0034243433779846 -0.045269199112775674
846561 -1.003517741477759 -0.04491290928370165
846733 -1.0033358834579325 -0.045066891601837494
846906 -1.0039803531612594 -0.04570068342153106
847079 -1.0029817087008512 -0.044771341078987684
847251 -1.0036808928536685 -0.044683233153713975
847424 -1.0034429792524284 -0.044359806374767316
847596 -1.0033023751011825 -0.04444862073664643
847769 -1.0037904963533137 -0.045068488214183
847941 -1.0037378900727836 -0.04396522937578063
848114 -1.0036515021509096 -0.0436557961390882
848286 -1.0035182175016049 -0.04361123446626885
848459 -1.003532763409652 -0.043406973546575016
848631 -1.0035200746006003 -0.04371073474257169
848804 -1.0036277794974804 -0.04381959350371623
848976 -1.0032152234619471 -0.043176206748404104
849149 -1.0033847199257215 -0.04301790826005388
849321 -1.0043926852471428 -0.04307442511214722
849494 -1.0028187822391028 -0.04264435305079692
849666 -1.0042340799214782 -0.042755154302196015
849839 -1.0030896484472505 -0.042367373627310516
850011 -1.0015454414364664 -0.04221159512873689
850184 -1.0036156502854465 -0.04162412598949408
850356 -1.005132134560487 -0.041645137170391144
850529 -1.0032693034091171 -0.04173757207466634
850701 -1.00371213019194 -0.04189069748239843
850874 -1.0046314338085407 -0.04168631461771264
851046 -1.0037697666152283 -0.041552433986890056
851219 -1.0035103659883515 -0.04164521960469606
851392 -1.0033168793387155 -0.04092624656368244
851392 -1.0034995146892558 -0.041178693802865714
851568 -1.002997091884669 -0.04068708158060914
851744 -1.0039967338346472 -0.04033822474629146
851920 -1.0038162731285143 -0.04065627545902422
852096 -1.0022705398084806 -0.04101165484404386
852272 -1.003589811801417 -0.04030553339576256
852448 -1.0020965539245417 -0.040001448887230465
852624 -1.0037068047608193 -0.03951834081375113
852800 -1.0030164698543802 -0.039166138987820384
852976 -1.003546276288621 -0.03928114707989074
853152 -1.0031695829477005 -0.039652173254287444
853328 -1.003031533695223 -0.0390307129111084
853505 -1.003520321103148 -0.039081989535824035
853681 -1.0033984935447107 -0.038492525685006815
853857 -1.0034924942476153 -0.038044513243118014
854033 -1.0034693662155518 -0.03827520006847637
854209 -1.0030806772329177 -0.03802311973569275
854385 -1.0032739964996429 -0.03820318858009214
854561 -1.0036972701961797 -0.03730857971476224
854737 -1.0035183802940995 -0.03749712431647121
854913 -1.003618411854613 -0.03765315237140224
855089 -1.003694933380988 -0.037536120583711384
855265 -1.0026309078013877 -0.037604714863056804
855442 -1.0042530875333429 -0.036681324939806706
855618 -1.003908530038381 -0.03706186498227597
855794 -1.0032465158210582 -0.03648279508910041
855970 -1.003370794729532 -0.037056627142987485
856146 -1.0024997136952647 -0.03636167770374878
856322 -1.0046738670753799 -0.03594614340517246
856498 -1.002815806174958 -0.036056008113750745
856674 -1.0031990673435744 -0.035975475960107105
856850 -1.003132495125365 -0.0359377372786448
857026 -1.0035340713274443 -0.03546096698420929
857202 -1.003904633922365 -0.03501093541752486
857379 -1.003683693786509 -0.03521838831788825
857555 -1.003274802701536 -0.034970258108130425
857731 -1.0036914062920297 -0.03499689227104029
857907 -1.0035512970247187 -0.03516517177094731
858083 -1.003108869660876 -0.03455699802883146
858259 -1.0037741363405799 -0.033923349091480044
858435 -1.00364707641738 -0.03413046510033565
858611 -1.0032192514582858 -0.03410659795457805
858787 -1.0038343300057309 -0.03415073174576928
858963 -1.002975787525521 -0.033980662323372754
859139 -1.0037524755869385 -0.03352689840148674
859316 -1.0034976550171277 -0.03352860809837167
859492 -1.0033880619391677 -0.03297115590690563
859668 -1.0036802893361185 -0.03345372346286948
859844 -1.0032430420704983 -0.033288131084657786
860020 -1.003091730400258 -0.032879423511212216
860196 -1.0037739254070934 -0.03216400614570971
860372 -1.0036415647250994 -0.03197662675605373
860548 -1.0036765137931798 -0.03220132313992165
860724 -1.0030256740360592 -0.03206647737956158
860900 -1.003851276225465 -0.031086392664243595
861076 -1.0035792734649798 -0.03192126518847382
861253 -1.0033445651465183 -0.03178593110900609
861429 -1.0035665515978307 -0.03145096587130872
861605 -1.0037652374732189 -0.031472849129416336
861781 -1.0031310175819086 -0.03114169636352844
861957 -1.003900091357574 -0.030691153219087275
862133 -1.0035499146960682 -0.030859870386507372
862309 -1.0030709439892223 -0.03053174922052912
862485 -1.0035077177568343 -0.030751050590849916
862661 -1.0029869205122224 -0.030697287904642902
862837 -1.0032981871999227 -0.030250635326241525
863013 -1.0043827734341675 -0.029541923630735937
863190 -1.0036098500012434 -0.030099199070671784
863366 -1.0037797279608094 -0.030713166558085484
863542 -1.004076240990281 -0.028926376751629124
863718 -1.0021258109847346 -0.02934240513972017
863894 -1.0039070547778712 -0.028634477868057687
864070 -1.0038791015265733 -0.0283705775950705
864246 -1.0034674733927256 -0.028760052212897166
864422 -1.0036778844034782 -0.028860494312115233
864598 -1.0028994562363904 -0.028581422770688446
864774 -1.0034299263815682 -0.028148945721580287
864950 -1.0036312648007992 -0.027471276861422735
865127 -1.0033803828615884 -0.02753325541841486
865303 -1.0034962405399952 -0.028014090489477856
865479 -1.0031084301729951 -0.02755587049177271
865655 -1.0041210209846996 -0.027579187735726794
865831 -1.0038288505655868 -0.026847833047854593
866007 -1.0034022413825652 -0.02696989632645544
866183 -1.003958072490758 -0.027248647537208553
866359 -1.0038547850523374 -0.02739152330672352
866535 -1.0028061236538737 -0.02679757414635848
866711 -1.0037437181485078 -0.02656748861320065
866887 -1.003767113795077 -0.02615864806636463
867064 -1.0034853084793265 -0.026332059881575075
867240 -1.0038529529601887 -0.026439077362942494
867416 -1.0028645929650515 -0.025942525629240668
867592 -1.003885031822697 -0.025502615464746012
867768 -1.0034830756475115 -0.02547116792546991
867944 -1.0031842935727195 -0.02550728145407691
868120 -1.00324506296276 -0.02544442189370115
868296 -1.0032196264221893 -0.02536211642862617
868472 -1.003080876460227 -0.02481415771282863
868648 -1.00267034740368 -0.02398903155561903
868824 -1.004357407237391 -0.02438922676910129
869001 -1.0032084012912108 -0.02448495332567219
869001 -1.0029025353531118 -0.02468341554571972
869180 -1.0035626730752016 -0.024199714442954066
869360 -1.0038476347575274 -0.02407753658100434
869540 -1.0032040464674852 -0.023516741047414927
869719 -1.0029617423563113 -0.023846733888586203
869899 -1.0031361789932327 -0.023398073382986176
870079 -1.0033468396628877 -0.02360124256204651
870259 -1.0043169244752022 -0.023180708061336867
870438 -1.0038808925257536 -0.02270763647723442
870618 -1.0035097073646089 -0.023100776008159036
870798 -1.003321051610068 -0.022948302248623886
870978 -1.003050531350995 -0.022495986163631236
871157 -1.0034063936881312 -0.02189952145774284
871337 -1.003375031605195 -0.0220878464565088
871517 -1.0034529583196243 -0.0220024191594279
871697 -1.0033846440704388 -0.022197446227963914
871876 -1.0027869110327452 -0.022454168013161534
872056 -1.0041891708623394 -0.021381696567078678
872236 -1.0032723032980246 -0.021090499594234122
872416 -1.003471591336234 -0.02071138381836855
872595 -1.003615369135534 -0.021271698392854824
872775 -1.0041754044489624 -0.021158853051536603
872955 -1.0030752814127109 -0.02008246498452387
873135 -1.0031508517600938 -0.020670136106771934
873314 -1.0032995551243484 -0.02024499210218743
873494 -1.0036453674778987 -0.020473929462775122
873674 -1.003275114845493 -0.02024982059358075
873853 -1.0030009784378755 -0.019805114022055953
874033 -1.0034832804040021 -0.019700016485326807
874213 -1.0031913655447506 -0.019533972694314613
874393 -1.0032553167536482 -0.019487430131920634
874572 -1.0033216776091531 -0.019668041203491974
874752 -1.0032861832232067 -0.01883423000054265
874932 -1.0039979143699695 -0.018735729038003218
875112 -1.0035306701464934 -0.018482406144038253
875291 -1.0032134177420142 -0.018797426493421962
875471 -1.003438438808783 -0.01854145974588124
875651 -1.002922878587112 -0.0181745995921801
875831 -1.0031678785393003 -0.017637294384130975
876010 -1.002830652782875 -0.017769400951407447
876190 -1.0023551256714442 -0.017670919279685945
876370 -1.00355452917159 -0.01773385091788949
876550 -1.0027739991136229 -0.017185932533670928
876729 -1.0036638276245444 -0.01700942159368913
876909 -1.003269992883674 -0.016928422827158424
877089 -1.0033593689115925 -0.01658641651281913
877269 -1.003124754917468 -0.01707848866550603
877448 -1.0037211875904175 -0.016516375793045324
877628 -1.0023708694760476 -0.016548318367068226
877808 -1.0035631871157373 -0.015728834712871148
877988 -1.0028439476533528 -0.015768807430790576
878167 -1.003518736811178 -0.016325234973865673
878347 -1.0040565372575159 -0.015900020933714256
878527 -1.002649065062071 -0.015744338345956593
878706 -1.003134677789458 -0.015548025905990118
878886 -1.0031951912567731 -0.015177502832502783
879066 -1.0032852968381738 -0.01480596130729893
879246 -1.0033214118836642 -0.015137211663846524
879425 -1.0028910455996112 -0.015111397432396948
879605 -1.00287111796207 -0.013951533997289134
879785 -1.0032017048307498 -0.01404879576879094
879965 -1.0030711136400594 -0.013916302346065102
880144 -1.0033998001202127 -0.014860043026771425
880324 -1.003072787219506 -0.013875567781256534
880504 -1.0026763942424217 -0.01372160085980069
880684 -1.003591424271021 -0.013074159782428497
880863 -1.0031827359576555 -0.013304154063494696
881043 -1.00374605868219 -0.013807345384938455
881223 -1.0026418673188988 -0.013900654055769644
881403 -1.0012414082952341 -0.01267288911953134
881582 -1.0037855860123053 -0.012445091309954491
881762 -1.0035340931008594 -0.012145016048293237
881942 -1.0027864446801809 -0.012727764372092987
882122 -1.003873077066797 -0.011845781232383532
882301 -1.002966321110126 -0.011351956729081127
882481 -1.0039546025104136 -0.011262666982278879
882661 -1.0031561335388475 -0.011396098549450383
882840 -1.0030439619586482 -0.011348864942927828
883020 -1.0033291191981628 -0.011559887558561799
883200 -1.0027640847230141 -0.011226464376290882
883380 -1.0033116915081317 -0.010931249883442328
883559 -1.0030181498115178 -0.010236253988185395
883739 -1.002733093134493 -0.010359200396887393
883919 -1.0034106891277297 -0.010267652757183228
884099 -1.0030419185502242 -0.010591128817903956
884278 -1.0027609853855768 -0.010301053588134629
884458 -1.0040224165652798 -0.00915776317691735
884638 -1.0024136748204204 -0.009661230112762431
884818 -1.0035383691356847 -0.009616611878065432
884997 -1.003730061165736 -0.009573431919138111
885177 -1.0026580588383005 -0.009475589568144939
885357 -1.0050965921706285 -0.008804729458525017
885537 -1.0010188971609346 -0.009906323611178706
885716 -1.0039811169586865 -0.009038028180705376
885896 -1.0032187325784245 -0.009109421479655074
886076 -1.00276658339077 -0.008834844459133063
886256 -1.0028084523135845 -0.008161162745646437
886435 -1.0033253930182926 -0.008207261538961673
886615 -1.0030793551660702 -0.007648555506662529
886795 -1.0028098274058435 -0.008291316373271991
886975 -1.0030449528463123 -0.007826637877428723
886975 -1.0031003206948224 -0.007482684722127843
887158 -1.0032485912039848 -0.0068071658835889715
887341 -1.003187675913368 -0.007111354154149237
887525 -1.0030794515375245 -0.007118916953783197
887708 -1.0032336062804947 -0.007053541524885655
887892 -1.0029626352656262 -0.006526090082899121
888075 -1.0027896956225453 -0.006315859829531906
888259 -1.0036485862680482 -0.00661537039767987
888442 -1.0039473464475368 -0.0067353731873889015
888626 -1.0012108054319568 -0.0065207146421188585
888809 -1.0034788015357414 -0.005817117410817117
888992 -1.0038936668052245 -0.005599703872535521
889176 -1.0030216291593859 -0.005499401001465038
889359 -1.0036906231406852 -0.005792236230392402
889543 -1.0038221779719716 -0.00521891949316681
889726 -1.002418175337155 -0.005389734938433589
889910 -1.003286253740295 -0.004474764164267136
890093 -1.0022240690266204 -0.004370210244936465
890277 -1.0026847106044712 -0.004744277794962536
890460 -1.004102947902207 -0.004373754760681581
890644 -1.000644095488449 -0.003626047141998999
890827 -1.0019746430682517 -0.0038364186894091143
891010 -1.0030755383754013 -0.0032543563908805717
891194 -1.003199546907466 -0.003492948738231801
891377 -1.0029437085647814 -0.0035866408460706687
891561 -1.0030369837525215 -0.0031005230014286263
891744 -1.003173916263218 -0.002783645373202801
891928 -1.0030199219137896 -0.0027701601098989227
892111 -1.003203929060826 -0.0029639362294324864
892295 -1.003079593554683 -0.003257525385396813
892478 -1.0022821018970551 -0.002530284645765179
892661 -1.002426954025933 -0.0023773729990442033
892845 -1.0024991356150708 -0.0019053296142331347
893028 -1.002575216487758 -0.0019544856321307698
893212 -1.002992407835951 -0.002273412204465433
893395 -1.0024277435205053 -0.0016567122759426115
893579 -1.003732015248687 -0.00025153452548608496
893762 -0.9990203631435418 -0.0010562396172477042
893946 -0.9998922116325641 -0.0017927188621141405
894129 -1.0029131882327795 -0.0004276165835084688
894313 -1.0046164557262742 -0.00030123809936182287
894496 -1.0023854641823902 1.6579292250752324e-05
894679 -1.0066935149745788 0.00029460203549069316
894863 -0.9982505844833849 -0.0004112828271713317
895046 -1.0042589036190468 0.00033942706804168454
895230 -1.0026030110668571 -0.00031601842372666405
895413 -1.003804843093012 0.001140946871613428
895597 -1.002594439893095 0.0006783954787848912
895780 -1.0032135905249016 0.0004839812021053249
895964 -1.0030580613052256 0.0002682499684328903
896147 -1.0028096855600535 0.000603922160089767
896330 -1.0034404249274076 0.0014183209416053677
896514 -1.0034644721784858 0.0017420294178788216
896697 -1.0038179802729394 0.002078711089472637
896881 -0.9998852537483147 0.002231965301663741
897064 -0.9972698431314853 0.001060345827115755
897248 -1.002754159244 0.002093636356939173
897431 -1.0042772287296233 0.001100966793166051
897615 -1.003017327398844 0.002187424609553529
897798 -0.9921705762325259 -0.0002427023434995073
897982 -1.0181216160347242 0.007821804590631181
898165 -0.9951059587372548 0.0028193057926117863
898348 -1.004329485490218 0.004523196602774011
898532 -1.0027660185195115 0.00474694579143702
898715 -1.0006579027817142 0.002086990573649888
898899 -0.9974988689452643 0.0016602441134726167
899082 -1.0036708918391268 0.005026021873475843
899266 -1.0027084531209844 0.00400521157418947
899449 -1.0023854813531776 0.004740144209013962
899633 -1.005202040245775 0.004463153202215566
899816 -0.9998982247479924 0.004928075865955972
899999 -0.9884464511532752 0.002892648141050683
900183 -0.9878895577855705 0.003943537660526452
900366 -1.000488099755769 0.0049160525221569615
900550 -1.000514720571299 0.0032448316247167056
900733 -1.001802986995725 0.004245255695326592
900917 -0.9905910831927226 0.005420225353390384
901100 -1.008099009040429 0.002699044351339729
901284 -1.0144078856235508 0.00892801841852377
901467 -1.0011424059101146 0.0050447315734787985
901651 -1.0029958844932951 0.0052248946782623654
901834 -1.0027129458717248 0.0069892665662323805
902017 -1.0084542507619516 0.008316615036234763
902201 -1.0004565642015386 0.006219071704752613
902384 -1.002382885752644 0.007129018047662458
902568 -1.0017156509925227 0.007186181336369028
902751 -1.0028863439452913 0.007135531514971994
902935 -1.0011918076074857 0.007534197732163325
903118 -0.9987953371320729 0.00686810302240929
903302 -0.9987974337364179 0.007002267885394276
903485 -1.0021950824248886 0.007753782815032529
903668 -1.0012574190040189 0.007428743519273336
903852 -1.0028789354452017 0.008125509352168785
904035 -1.0033076745639782 0.008812903446300292
904219 -1.002391607171311 0.008139005231758534
904402 -1.0026225949321628 0.008358711874444638
904586 -1.0016936727337715 0.008704428423863337
904769 -1.003109003965909 0.009077280176275723
904953 -1.002791973407359 0.0095682167287361
905136 -1.0031615356384136 0.009590248099350593
905320 -1.0015365125544828 0.009436334793622847
905320 -1.0012442070335732 0.009443774439375706
905507 -1.0019065180306093 0.009801350224005826
905694 -1.0020350864752112 0.010134873324100626
905881 -1.0021687809642468 0.010527671070639193
906068 -1.0023010903198346 0.010936686460079878
906256 -0.9989864234390582 0.009510201492773977
906443 -1.0012921886301727 0.010327351261864251
906630 -1.0018837789556163 0.010634699089335793
906817 -1.0019759652458988 0.011297403045131004
907005 -1.0017812856516186 0.010755830821739594
907192 -0.9997252358680147 0.011048613033501796
907379 -1.0042191688349833 0.011701022843610359
907566 -1.002286401595841 0.011345657661956353
907754 -1.002472414967992 0.012119693069424353
907941 -1.0024755371502563 0.011874162017253798
908128 -1.0025194710619354 0.011915092094856675
908315 -1.0020921527267488 0.012159070668172399
908503 -1.0018624587327682 0.012802393218433726
908690 -1.0024744118426625 0.01320473285355637
908877 -1.0018717900952603 0.013224841568791411
909064 -1.0023312787685237 0.012746548876181811
909252 -1.0019477650708675 0.013554191462869179
909439 -1.0024960980904638 0.01381581351760802
909626 -1.001718694979612 0.013805702185651126
909813 -1.0027049071298557 0.013969985039243616
910001 -1.0022993617456861 0.013854995364431416
910188 -1.0037962849553745 0.014545320741420427
910375 -1.0049223873866886 0.015161205601382247
910562 -1.0046365254728673 0.01522305883486899
910749 -1.0021397318525438 0.014297165456957006
910937 -1.003080295935125 0.014969187077266787
911124 -1.0022301845996875 0.014801851222423343
911311 -1.0019700063984012 0.015319145699926042
911498 -1.0023330745707573 0.015579118538870925
911686 -1.0020239510759166 0.015186401622331909
911873 -1.0021948329565975 0.015381842090080703
912060 -1.0017372398222697 0.015462830113337291
912247 -1.0015858990027569 0.015923873418892974
912435 -1.0019070029634574 0.016106790524868676
912622 -1.0019672076605846 0.016458691108659728
912809 -1.0020282189364866 0.01663385840144554
912996 -1.0013840902233453 0.01678037879231633
913184 -1.00208707561627 0.017453338374565953
913371 -1.001968911844501 0.01748379469644045
913558 -1.003222883890028 0.017710260224177873
913745 -1.0014620233371478 0.017490785302521683
913933 -1.0025122406306337 0.017340480799590774
914120 -1.0010087221559834 0.017640553600014826
914307 -1.002702292974631 0.0182698068170347
914494 -1.0017247543410166 0.01839067009433593
914682 -1.002651656053576 0.018324691458913887
914869 -1.0021703520412475 0.018081715221215593
915056 -1.0018380508439753 0.018234362459834768
915243 -1.0022424578717246 0.019192474822357038
915430 -1.002214024806388 0.019239057971495405
915618 -1.0010601883838552 0.019054116894108176
915805 -1.0016361176257835 0.019199060598461458
915992 -1.0009047123705301 0.01920537396455899
916179 -1.0023211097586167 0.019988586625597004
916367 -1.001698445216381 0.019987496368674317
916554 -1.0015736613349344 0.019753469151262422
916741 -1.0023964597245822 0.020285952859191998
916928 -1.0008966092511367 0.020393540619971538
917116 -1.0016090162296134 0.0210772472404875
917303 -1.001656803541624 0.021197252276991364
917490 -1.0026625386471821 0.021210020325847106
917677 -1.0022938547839204 0.02098901872219033
917865 -1.0012547419695834 0.020854435123645567
918052 -1.001781025010363 0.021842808962656224
918239 -1.001722262447031 0.021855632492591523
918426 -1.00217372500695 0.02166690856270875
918614 -1.0018445879125806 0.021825194847249468
918801 -1.0015318726778981 0.022411940933976308
918988 -1.0024590421612438 0.02263196629420258
919175 -1.0017325168605338 0.02299990260449351
919363 -1.0019408869527366 0.022577950563361565
919550 -1.0013244598486213 0.022466827077203357
919737 -1.0008755222649417 0.022548183541868876
919924 -1.0024943679711031 0.02368869633579105
920111 -1.0017907142071092 0.02347902274280117
920299 -1.0019341139885647 0.023642237845291413
920486 -1.0017715032915373 0.0237966721018717
920673 -1.0010104992730195 0.023982709070092707
920860 -1.002049950207746 0.024469169828986656
921048 -1.0017095589805602 0.024626586331505308
921235 -1.0018604358846184 0.02465711506833156
921422 -1.001929800975288 0.024498906164020496
921609 -1.0014925468483649 0.025027604803787937
921797 -1.0012390417744301 0.024638749809333945
921984 -1.0010921223604181 0.025005559474103652
922171 -1.002206311167345 0.025039865948299888
922358 -1.0019403692592845 0.025122415974029557
922546 -1.0013704464133393 0.025366642206198553
922733 -1.002096661234824 0.026194024134417255
922920 -1.000666965684868 0.025686014249011936
923107 -1.000369729203026 0.025489342810260624
923295 -1.0016295292817117 0.026121739099582392
923482 -1.0014502832658676 0.02671104223355053
923669 -1.0015929179995324 0.02705121226995328
923856 -1.0009450800339608 0.027313508482648144
924044 -1.0015819904228849 0.027095159062611052
924044 -1.0018065682691546 0.0269429605075851
924235 -1.0009652947583325 0.027235769734295243
924426 -1.001545480853973 0.02756001762460197
924617 -1.0013602395579158 0.02773992191035214
924808 -1.0013263084336335 0.02812543647654558
924999 -1.0017526219367099 0.027496398435646892
925190 -1.0013168452216374 0.02813697906339959
925381 -1.001809070953596 0.02855039743478002
925572 -1.001362687398666 0.02863215558248849
925764 -1.0015832823460502 0.028642403178564257
925955 -1.0019896219149769 0.029095065947767923
926146 -1.0006099957076795 0.029178416773605095
926337 -1.0016065088866386 0.029610785894997108
926528 -1.0010730125014518 0.029458118923397263
926719 -1.0011364290161462 0.029545281833659537
926910 -1.00146976920806 0.029545062653762326
927101 -1.0014808048582733 0.029774547393607124
927293 -1.0018219721266337 0.030196832265607106
927484 -1.0013551198755304 0.030528688677413356
927675 -1.0010975629503405 0.03035304203886985
927866 -1.0012856792715852 0.03050728570214045
928057 -1.000695814283473 0.030535802260501427
928248 -1.0015873092120775 0.03131597752932231
928439 -1.001116155127116 0.031158787777028185
928630 -1.0012677276297353 0.031362901333746085
928822 -1.0009342724504389 0.031195688472862537
929013 -1.0009054716760735 0.031877798284509186
929204 -1.001231334993762 0.03217636666862296
929395 -1.001262914748174 0.03171307970847578
929586 -1.0012426434745836 0.03213754048694694
929777 -1.0012307173288029 0.0319336674430748
929968 -1.0014549876109744 0.03250178138579495
930159 -1.0014781804339532 0.03258220801616346
930350 -1.0010699404994818 0.032912925799017716
930542 -1.0013572578404788 0.033224597232455924
930733 -1.0011165929726573 0.0331298033257226
930924 -1.000642366224993 0.03355838272144079
931115 -1.00092849169859 0.033641940744550604
931306 -1.0007099831656021 0.03369499857784927
931497 -1.001057189918693 0.03405494853339186
931688 -1.000466274121485 0.03413525717126338
931879 -1.001028331813405 0.03438720909885335
932071 -1.0013177403282738 0.03522464938880252
932262 -1.0017141711975073 0.03503619705625881
932453 -1.0016563721238165 0.03501357303878124
932644 -1.0008007045721883 0.03451616156146848
932835 -1.001161357690651 0.03507215493526716
933026 -1.000830742579843 0.03589945243842821
933217 -1.0009416737684997 0.03573532352961821
933408 -1.00138966091176 0.035727257596573504
933600 -1.0003153055871699 0.035330998534847356
933791 -1.000923130116436 0.036218779121858904
933982 -1.0006827958520739 0.036334228454696305
934173 -1.0008703079522563 0.03657140776205089
934364 -1.0007974578743055 0.03655911630778942
934555 -1.0008185107721816 0.0365960477693413
934746 -1.0004591670131304 0.03708093361844897
934937 -1.0002017946232271 0.037329157812514335
935128 -1.0000628869186157 0.036965409128317056
935320 -0.9999839707337546 0.03752942041001334
935511 -1.0010708242826163 0.037676623687076936
935702 -1.0003870221149862 0.03838636347357399
935893 -1.0003845108993918 0.03841941657246869
936084 -1.0008950772939047 0.03857887352307772
936275 -1.001067621568801 0.038767964173458264
936466 -1.000618727166877 0.03794908723856402
936657 -1.0006440770043603 0.03922275575616734
936849 -1.000696379817393 0.03944337473764961
937040 -1.0002899902518572 0.03858986380666978
937231 -1.001672647034394 0.03960812816756174
937422 -0.999956089572385 0.03931574472937107
937613 -1.0010470002559801 0.03969055404203745
937804 -1.0002865399004945 0.04022610194836542
937995 -1.0005351968277936 0.039759749668426055
938186 -1.0004609036659349 0.040419284751301875
938378 -0.9994848786468401 0.040063462671264635
938569 -1.0001769713182833 0.040652335901344316
938760 -1.0004305447721864 0.04124923278360911
938951 -1.0004129580925945 0.04085106813069925
939142 -1.000726913911275 0.04096863837581796
939333 -1.0002244452798645 0.04106286959687044
939524 -1.0009190724829506 0.04196685744472792
939715 -1.0004511039614277 0.042297298444165854
939906 -1.0005466883405005 0.041996111217200656
940098 -1.001077743991174 0.04193218907841755
940289 -0.9998359424424716 0.04230178084173712
940480 -1.0004963864699497 0.04290843534645723
940671 -1.000233465083548 0.04277081060168016
940862 -1.0006995406558503 0.04288957621564655
941053 -1.000550522740601 0.04290650263886181
941244 -0.9994342096588288 0.042622792210332744
941435 -1.0005211854387592 0.0435405543521342
941627 -1.000305228126093 0.04342947473116346
941818 -1.0001459986981676 0.04316227223147479
942009 -1.0001375904705436 0.04352888299563201
942200 -0.9998512185995707 0.043645529019429856
942391 -1.0005332257727488 0.04429590991270222
942582 -0.9995823572748389 0.04418688350883751
942773 -1.0006746617013211 0.04467028509079082
942964 -0.999975536227813 0.04440805264101522
943156 -0.9997244794342232 0.044624911934796486
943156 -0.9998887096342806 0.04524713314143897
943351 -1.000145208382243 0.04502022464507465
943546 -1.0007702212063263 0.04522670172510703
943741 -0.9997457892205441 0.04538256885912126
943936 -1.0002556283805741 0.04613762390455024
944131 -0.999916149154372 0.04598850818522642
944326 -1.000369225761241 0.046059215970716744
944521 -1.0003543654007558 0.0460842151697016
944716 -0.9998673767366242 0.04578521069106031
944911 -1.0005220153148067 0.04649167235154833
945106 -1.0001668598981877 0.04665868574921564
945301 -1.0000151913902509 0.046998450605043054
945496 -1.0001040195963748 0.04686315253081855
945691 -0.9997492428601544 0.04719927726927362
945886 -0.9998218360559415 0.04779893166692736
946082 -1.0000723877237947 0.04753678636484172
946277 -1.0001503359370394 0.047842620794602164
946472 -0.9995888065068528 0.04778252486228187
946667 -0.9997323441592072 0.04820595719225325
946862 -0.9998096843963249 0.04855892397741458
947057 -0.9994463709456435 0.04872569836598021
947252 -0.999875362242989 0.048303652873531056
947447 -0.9999847307915731 0.04859437583714182
947642 -0.9997188309887777 0.049276390760212764
947837 -0.9995532854491724 0.04958550343893116
948032 -0.9995037485936475 0.048941142606009264
948227 -0.9997022760948662 0.04937365319188645
948422 -0.9995244668500973 0.04951698672946067
948617 -1.0003272333684592 0.05015237481353686
948813 -0.999772234408573 0.050615596714801675
949008 -0.9992404088799302 0.050004217679730456
949203 -0.9996343065722313 0.05070135639936064
949398 -0.9987351942239322 0.05023695753849736
949593 -0.9995042277654411 0.05097574342939326
949788 -0.9993016153098369 0.051019463540286865
949983 -0.9990767650479122 0.05056956884392933
950178 -0.9987610373468563 0.05145661190248715
950373 -1.0002210106038418 0.05197729777454015
950568 -0.9992753709157208 0.052190864182311926
950763 -1.0002452008034943 0.0519420557278317
950958 -0.9993787407608743 0.05218436395501959
951153 -0.99887377149545 0.05225096879915084
951348 -0.9994171768627937 0.05245962979005514
951544 -0.9995447301730992 0.05276403719935592
951739 -0.9993504039654135 0.05294549575847261
951934 -0.9998253560474324 0.05354914196423079
952129 -0.9993993775722846 0.052594166116707794
952324 -1.0000094653462306 0.053487261485317496
952519 -0.9992864084727794 0.05387138533108375
952714 -0.9996674121988626 0.0537905500005113
952909 -0.9997733766951916 0.05386072209678089
953104 -0.9986695202267893 0.05358177871286059
953299 -0.9994017563997047 0.05464356441894805
953494 -0.999889672867336 0.054453037061311355
953689 -0.9997104872987174 0.05485764906069568
953884 -0.9993800945379417 0.05484084120093004
954079 -0.9985763957966945 0.055296782566514706
954274 -0.9989546716479071 0.055709953593665325
954470 -0.9992914514046214 0.05519662200210766
954665 -0.9995144204909061 0.05538433692235458
954860 -0.9987178295951217 0.05595900914196689
955055 -0.9988407945259948 0.055870049477190174
955250 -0.999284287262123 0.0563259813556118
955445 -0.9990579384954041 0.05606760066842126
955640 -0.9993618732024377 0.05634727648031847
955835 -0.998581207046422 0.0567476219517988
956030 -0.9997299721630182 0.056612271145622776
956225 -0.9990917843209972 0.057272150704161556
956420 -0.9993450283383473 0.05673633703692096
956615 -0.9990641747355461 0.05702473608364459
956810 -0.9986058580627757 0.05709851237498185
957005 -0.999016279464351 0.05791373084149038
957201 -0.9987071695948149 0.05842660059992759
957396 -0.9987219890464856 0.0581258349515244
957591 -0.999209918962431 0.05836669784963501
957786 -0.9985165265122597 0.05813604764390312
957981 -0.9992789252720712 0.058789471806689156
958176 -0.9988521902704288 0.05890069900282436
958371 -0.9990176919132351 0.059025612623789164
958566 -0.9988733717241062 0.05915611555067494
958761 -0.9986637836570152 0.059486218687404044
958956 -0.9989769502719952 0.05977281193733657
959151 -0.9989460066308607 0.05972038498786922
959346 -0.9996873367632969 0.05958703360537295
959541 -0.9991070839429685 0.05974454345302972
959736 -0.9986270678579934 0.06013153726335473
959932 -0.99909019199637 0.060800695479715075
960127 -0.9987042166021982 0.060218669001325484
960322 -0.9986545480021057 0.06065624180054106
960517 -0.9977649281618773 0.060636212881669656
960712 -0.9983494797552873 0.061473502331247015
960907 -0.998323688682353 0.06157206977578079
961102 -0.9984140837642888 0.062046650604886344
961297 -0.9985960957032273 0.0619477085997873
961492 -0.9980005994221982 0.06164605531879047
961687 -0.9988561595046415 0.06243534817103666
961882 -0.9981318499110313 0.06232627731303647
962077 -0.9988310549065862 0.062444857496669615
962272 -0.9987055708000299 0.06263066614898997
962467 -0.9978620195493595 0.06265827619587279
962663 -0.9986067196249807 0.06346883377309237
962663 -0.9986241904398316 0.06306136555189996
962862 -0.9990360178061726 0.06332686837833951
963061 -0.9987397821005776 0.06371591397490749
963260 -0.9986215786558312 0.06373103154963003
963459 -0.9985108527926144 0.06386047208719045
963658 -0.997715438586789 0.06259214011548817
963857 -0.9991274155600145 0.06421868374287096
964056 -0.9989182985928422 0.06445187013549254
964255 -0.9989489084760993 0.06413326414296117
964454 -0.9982573187899041 0.06430480762632886
964654 -0.9969624652232414 0.06449688195571511
964853 -0.9979487263619917 0.06512323858024953
965052 -0.9987036054085026 0.06516818524889853
965251 -0.9986268975334154 0.0654587860896165
965450 -0.9977960467781145 0.06567156231723725
965649 -0.9977558899368612 0.06619152693244937
965848 -0.9977896867139936 0.06650368107392851
966047 -0.9984647600838333 0.06606115006385843
966246 -0.9984349367378915 0.0660544953261378
966445 -0.9978799862212442 0.06637987611835193
966645 -0.9985360432875905 0.06685186111476225
966844 -0.998633819154545 0.06743612478772995
967043 -0.9982869584667924 0.06670561271709792
967242 -0.9985601421386704 0.06705220593269057
967441 -0.9977668144398756 0.067480194666406
967640 -0.997781519529223 0.06739334393975847
967839 -0.9978865991878546 0.06747129397448128
968038 -0.9981419469899326 0.06773107119637338
968237 -0.9975605421879418 0.06762609997262305
968436 -0.9977877974814555 0.06804812858942816
968636 -0.9978988125158701 0.06881793096960935
968835 -0.9979094631628289 0.06853299682200145
969034 -0.9976534005908377 0.06895174196254017
969233 -0.9976414243684177 0.06923507903977363
969432 -0.9981128559781717 0.06960636819580546
969631 -0.9974405230861352 0.06982906772780519
969830 -0.9975999017501977 0.06962960238046847
970029 -0.9983304942936548 0.06974319124279282
970228 -0.9972848236715848 0.06980816127070939
970427 -0.9976358732388944 0.07026379199818171
970627 -0.9975442896437636 0.06995483330828565
970826 -0.997916856425432 0.07045156126788395
971025 -0.9977285711423778 0.07067142121501169
971224 -0.9975847631301956 0.07121750422189677
971423 -0.997701216608701 0.07140181432065872
971622 -0.9974709448168027 0.07077351703235234
971821 -0.9980148345532069 0.07153677993095298
972020 -0.9967795962345009 0.07103320868366575
972219 -0.9973217194616641 0.07236932234996546
972418 -0.9968707744102142 0.07236691702260797
972618 -0.9977110908452207 0.07217183356894433
972817 -0.9979939815680109 0.0723853864548101
973016 -0.9974257952140722 0.07265274970530343
973215 -0.9976381768797333 0.07312414981351081
973414 -0.9974718223197575 0.07328223686437245
973613 -0.9974409869472085 0.07337664523615517
973812 -0.9980061219776748 0.0732326394782697
974011 -0.9984470377652175 0.07318413857636316
974210 -0.9982034709924913 0.0741947412441699
974409 -0.9986724739257582 0.07406182785230742
974609 -0.9977119114186426 0.07410086857080117
974808 -0.99695831078463 0.07415138872111615
975007 -0.9957109559481214 0.07364464877068311
975206 -0.9981266526644943 0.07462869182618165
975405 -0.9974234967439726 0.07445519087529444
975604 -0.9993985761509749 0.07548066446462512
975803 -0.9961145608068117 0.07528582265604852
976002 -0.9974859931980572 0.07565970334060709
976201 -0.9972587881461618 0.07542013510792428
976400 -0.9962399624807483 0.07489049124125437
976600 -0.9970431361871024 0.07585891112268012
976799 -0.9976520206832687 0.07660383290070692
976998 -0.9978226075738694 0.07674064170476733
977197 -0.9975080430016453 0.07643481646516215
977396 -0.9959355811360843 0.07656325088778873
977595 -0.9973568627260753 0.07753391806552462
977794 -0.9976369864391418 0.07642466725530639
977993 -0.9974080614614904 0.07748124827427932
978192 -0.9969748671670123 0.07768750524198949
978391 -0.9968937143727041 0.07780196041637458
978591 -0.9966616454167279 0.0780284207996538
978790 -0.9970837930436935 0.07760903769716747
978989 -0.9969378855169155 0.07811540873983307
979188 -0.9964575984711456 0.07798126128809159
979387 -0.9970553131904014 0.078400907324796
979586 -0.9962585635278577 0.07883943714420215
979785 -0.9966153871905475 0.07909583965792558
979984 -0.996881623551727 0.07918985716199424
980183 -0.9964585829264239 0.07930432790711724
980382 -0.9966077497010325 0.07932948224322618
980582 -0.9964206283415967 0.0800583520295004
980781 -0.9972688566853222 0.08020797585246886
980980 -0.9974763105227348 0.07971369179451734
981179 -0.9967763952111495 0.08028483136108076
981378 -0.9970948326012342 0.08036874759888682
981577 -0.9970116833654029 0.08068370196848944
981776 -0.9967377200253746 0.08076022689186373
981975 -0.997099778507503 0.08096028682417464
982174 -0.9958424779570365 0.08101957592335528
982373 -0.9962601851432051 0.08096478925846765
982573 -0.9967095395494527 0.08150274750078333
982573 -0.9963750109211965 0.08142971637026436
982776 -0.9964343883724164 0.08173304784521446
982979 -0.9963846015122052 0.08153388888150201
983182 -0.9967385466237245 0.08181509475618481
983385 -0.9964554129498152 0.08177536965376828
983589 -0.995995365746167 0.08227538676060285
983792 -0.9966832672864792 0.08275267410646564
983995 -0.9961303160658097 0.08292274360881534
984198 -0.9963800534105899 0.08313609652950116
984402 -0.9957336590455301 0.08307060854540672
984605 -0.9961189683941776 0.08355458404066332
984808 -0.9961040171148009 0.08345264951095258
985011 -0.9963951893210696 0.08391047017046183
985214 -0.9968550272845019 0.08409538652976163
985418 -0.9953305715952062 0.0839607613451275
985621 -0.9963666180878836 0.08461209639206824
985824 -0.9960032000338515 0.08416996099660279
986027 -0.9964408196677166 0.0848476220150696
986231 -0.9961542310453572 0.08458048174163513
986434 -0.9957031125632972 0.08506561806211647
986637 -0.9958716651045687 0.08543591154601289
986840 -0.9961958598605163 0.08506349218000368
987044 -0.9961071482616629 0.08500049024914492
987247 -0.9956609631945548 0.08537293541974715
987450 -0.9961586259164525 0.08623841012383746
987653 -0.9958128367364788 0.08614811171017665
987856 -0.9956770227653299 0.08620942552846855
988060 -0.9957368736028764 0.0862939484072404
988263 -0.9956047099730462 0.08675131022686006
988466 -0.9956756981980142 0.0873215077315464
988669 -0.9957242724744536 0.08663542606542915
988873 -0.9963581302732767 0.08747645034498087
989076 -0.9954218499832622 0.08722248180950178
989279 -0.9957966923289403 0.08777758448337793
989482 -0.9954648172049404 0.08757624915453299
989686 -0.996003794585516 0.08821612607270966
989889 -0.9956989708789047 0.08769985770663676
990092 -0.9955727718247283 0.08825060616763514
990295 -0.9953338330927524 0.0887367808953837
990498 -0.9952635571006269 0.08843345304819861
990702 -0.9961044794947177 0.08911614094020544
990905 -0.995343833381789 0.08890044842233119
991108 -0.995121920368384 0.08929055124484138
991311 -0.9951769927097087 0.08952634114334714
991515 -0.9957717911856073 0.08979928786846454
991718 -0.9957670325516884 0.09014166917411151
991921 -0.9952706580534386 0.09038595517043452
992124 -0.9953212853278608 0.09086271745096593
992328 -0.9954549556312805 0.09071038052286524
992531 -0.9957609040909271 0.09028077338290447
992734 -0.9949110837894596 0.09082505334124275
992937 -0.995159063713593 0.09135591898059103
993140 -0.9955438052251341 0.09105558000791422
993344 -0.9956806191545562 0.09179741667863447
993547 -0.9948721354317378 0.09118422894722428
993750 -0.9956293882639878 0.09137061542422464
993953 -0.9948094524096253 0.09200710748772002
994157 -0.9956689235839573 0.09198862503778209
994360 -0.9948686151921792 0.09232731959757337
994563 -0.9941783955839089 0.09197383778658473
994766 -0.9947792902925116 0.0925652456347193
994970 -0.9951282077737399 0.09273980249057528
995173 -0.9952285823704998 0.0933706730707496
995376 -0.9945626293963307 0.09330526978822996
995579 -0.994850078298681 0.09386873633484405
995782 -0.9947090906631489 0.09403739490892132
995986 -0.9949017251879093 0.09370029792644753
996189 -0.9953815092216377 0.09414192231277631
996392 -0.9947238180040665 0.09409454877354505
996595 -0.9949512870367276 0.09452237875482042
996799 -0.9951198211736707 0.09476452282064247
997002 -0.9951308623051632 0.09489309655627744
997205 -0.9951636551726649 0.09502643101987675
997408 -0.9946573510297093 0.09514961955493488
997612 -0.995020419352998 0.09548811765313694
997815 -0.9947956123865503 0.09549144762516584
998018 -0.9951150880888632 0.09541259437113053
998221 -0.9946874125047667 0.09603980207606605
998424 -0.9946171623148032 0.0962573360030993
998628 -0.994533820918388 0.09679491735825844
998831 -0.9940911869981097 0.09643671125174132
999034 -0.995188048501393 0.0966920381961171
999237 -0.9944321583269903 0.09712616513732553
999441 -0.9942290863875577 0.09731114946332416
999644 -0.9949807915593856 0.0971466627659289
999847 -0.9951142925294052 0.09768634585072934
1000050 -0.9952928761500645 0.09743011618040612
1000254 -0.9940380416213161 0.09768663592828794
1000457 -0.9940338389330351 0.09747406368973054
1000660 -0.994748822629063 0.09744710330658468
1000863 -0.9949363594175773 0.09756788569797264
1001066 -0.9941511905150804 0.09744602827825062
1001270 -0.9945619391801186 0.09842598588589155
1001473 -0.994558634427073 0.0982939933652403
1001676 -0.9946483016459547 0.0976031443405695
1001879 -0.9942920447265938 0.0981619275608223
1002083 -0.993510275248603 0.09778589449703358
1002286 -0.9939627965880438 0.0979232088024228
1002489 -0.9943593291849663 0.09748498164914647
1002692 -0.9948628126558947 0.09765107411591495
1002896 -0.994504689573489 0.09732545144607117
1002896 -0.9950298585971125 0.09736598451355473
1003103 -0.9947160991476617 0.09752761055520892
1003310 -0.994284977040099 0.0982151410056701
1003518 -0.9943563666205778 0.09814988154524693
1003725 -0.9944387383806423 0.09790648199449653
1003933 -0.9950282309812518 0.09810024754701789
1004140 -0.9946269354862893 0.09806248793675794
1004347 -0.9949218688972263 0.0983545309126383
1004555 -0.994768245669407 0.09838747779108702
1004762 -0.9944189430665441 0.0980453491528203
1004970 -0.9945399023481524 0.09816424730475762
1005177 -0.9947567246374688 0.0980881969315274
1005385 -0.9943570069185307 0.09811426944582546
1005592 -0.9946058524560949 0.09776076674338627
1005799 -0.9949566437853344 0.09823262219945213
1006007 -0.9943599106279536 0.09765755897939207
1006214 -0.994245661185306 0.09822469859557338
1006422 -0.994300219487094 0.09828170349444615
1006629 -0.9948389617991927 0.09874378173877602
1006836 -0.9948923259866924 0.09837047574171093
1007044 -0.9941412145307978 0.09846132261032092
1007251 -0.994486395151245 0.09858313995830977
1007459 -0.9944279340622979 0.09860472736000749
1007666 -0.9952325824630679 0.09883640128407077
1007874 -0.994588625871151 0.09827618654560855
1008081 -0.9941585955406653 0.09875243309073559
1008288 -0.9945743317134286 0.09842204834473997
1008496 -0.9946919544968343 0.09853352999873881
1008703 -0.9949893682570805 0.09816247954696139
1008911 -0.9943628657734874 0.09839264957718609
1009118 -0.9943027708365946 0.09834814633488358
1009326 -0.9948247030052537 0.09788652036262856
1009533 -0.9950919036751888 0.09894358311331267
1009740 -0.9945127332046056 0.09864543232121058
1009948 -0.9948886060560016 0.09886935141250645
1010155 -0.9946945376907171 0.09920959645029001
1010363 -0.9945495690747875 0.09849894965259344
1010570 -0.9946008165040284 0.09852420664029207
1010777 -0.9943085708309227 0.09836019266942259
1010985 -0.9944935373384177 0.09898323120266117
1011192 -0.9947425401290817 0.0982029070264848
1011400 -0.9941873949450429 0.09876339695062825
1011607 -0.994366821515437 0.09828736673285833
1011815 -0.9940345035348895 0.09870809825526282
1012022 -0.9938045692912969 0.09891081808512461
1012229 -0.9947792242295425 0.09889234157216716
1012437 -0.9946124335459622 0.09879599099209418
1012644 -0.9943437098539625 0.09930706839383291
1012852 -0.9938863384570797 0.0989988989428391
1013059 -0.9932997521413526 0.09853075685330884
1013267 -0.9944038547861641 0.09917867232255326
1013474 -0.9945616914920198 0.09916513719854392
1013681 -0.9941203387319522 0.09917660404787892
1013889 -0.9947100137100786 0.09893976551831138
1014096 -0.9949260479836339 0.09938928068733562
1014304 -0.9945262592762703 0.09908789032264992
1014511 -0.9939970105379117 0.09922233377039337
1014718 -0.9947257114703899 0.0988352214429607
1014926 -0.994121963280007 0.09903937868451476
1015133 -0.9951024050988212 0.09858999232722751
1015341 -0.9943823668405127 0.09930587375640458
1015548 -0.9943725942473762 0.09916942611932783
1015756 -0.9953779127899915 0.09929064207861593
1015963 -0.9950736744341819 0.09924971027396315
1016170 -0.9945318224480819 0.09837104905606277
1016378 -0.9951792501231316 0.09884738344596124
1016585 -0.9948134850861843 0.09924718789244248
1016793 -0.9951252443256885 0.09881375890223622
1017000 -0.9952679788921435 0.09889377809754972
1017207 -0.9946658730139732 0.09912795709693914
1017415 -0.9944961402862685 0.09972386026481732
1017622 -0.9945018914933853 0.09878400059753356
1017830 -0.9947924968560202 0.09954499663707336
1018037 -0.994584900700415 0.09945244089734714
1018245 -0.9951232916256894 0.09963867508878058
1018452 -0.994953427937718 0.10026659577684198
1018659 -0.9948456567463437 0.09958055681183695
1018867 -0.9953259966516423 0.10001791887354206
1019074 -0.9936913418838769 0.09940014480890158
1019282 -0.9943890584463051 0.09976289569491635
1019489 -0.9949919113403525 0.09904945589478863
1019697 -0.9949690655323212 0.0992413521857964
1019904 -0.9941990017748129 0.09916288475460658
1020111 -0.9939336890828194 0.09940720025142928
1020319 -0.9943437428818032 0.09947245611238648
1020526 -0.9945071851300973 0.09973526250114434
1020734 -0.994693282191094 0.0997195929996838
1020941 -0.9939558879341484 0.09977596329835964
1021148 -0.994418731796884 0.10054194610559013
1021356 -0.9947332011473197 0.0997875198097952
1021563 -0.9950457969846574 0.10022237756660465
1021771 -0.9950328299275256 0.0999135043565332
1021978 -0.9943607410179389 0.0999042978106646
1022186 -0.9946591138880907 0.10032311078831868
1022393 -0.9941694737023777 0.09988108169904003
1022600 -0.9945766362182904 0.09950433839706485
1022808 -0.9941025018548513 0.0995876786740467
1023015 -0.9942885712455249 0.09990001420815886
1023223 -0.9945626639567116 0.09957655505401088
1023430 -0.9949617074909847 0.10000712628532836
1023638 -0.9950438287870894 0.09982385719114083
1023638 -0.9955953923525918 0.10020589340029115
1023849 -0.9946822746992923 0.09964050445324811
1024061 -0.9953609912647506 0.1003434685773078
1024273 -0.9950133397920305 0.10026797833646478
1024484 -0.9947672221411656 0.10020045068839538
1024696 -0.9941784804325277 0.10000199221174873
1024908 -0.9941373176539402 0.10020618009264413
1025120 -0.9943178015216058 0.10065582424026902
1025331 -0.9948655934317868 0.10024907551467589
1025543 -0.9950927538893422 0.10034643254299375
1025755 -0.9945807109035857 0.10033749501177115
1025966 -0.9942567252311394 0.10067407819764762
1026178 -0.9949389234770453 0.10039174283562986
1026390 -0.9951825570026459 0.10077468914893668
1026602 -0.995072850894863 0.10050254094557266
1026813 -0.9946444675830389 0.10057823765753193
1027025 -0.9955908590789825 0.1006933962595532
1027237 -0.9951508530907961 0.10023129730400471
1027448 -0.9947699992654068 0.1004020333909308
1027660 -0.9950146658291319 0.1002285535700638
1027872 -0.9944380346005046 0.10056129297228006
1028084 -0.9953145277258324 0.10020053504088934
1028295 -0.9955954895941334 0.10023892380525963
1028507 -0.9943145767163973 0.100236056451344
1028719 -0.9940997367310558 0.09983500570762721
1028931 -0.9941031718150786 0.10022434568518916
1029142 -0.9944712080270863 0.10017225414686906
1029354 -0.9947322711877512 0.10036815968187991
1029566 -0.9943808382545031 0.10069314535888226
1029777 -0.9945160709085983 0.10095302152847865
1029989 -0.9948162308106439 0.10090219996644507
1030201 -0.9948775133544875 0.10111193064009663
1030413 -0.9945266883007351 0.10068123694662577
1030624 -0.994539263091921 0.10041816520393156
1030836 -0.9946171184369419 0.09973432649182554
1031048 -0.9947833032566148 0.10055693271255606
1031259 -0.9936242286884059 0.10052670754565679
1031471 -0.9938284058971301 0.10052506641564975
1031683 -0.9941813629145215 0.10082812557405946
1031895 -0.9948461247256711 0.10088777688886129
1032106 -0.9952515072577891 0.10071142070612364
1032318 -0.9955487199265143 0.10117857567109081
1032530 -0.9948529420709125 0.10132636585292668
1032741 -0.9948228236788424 0.10054937574478649
1032953 -0.994673175269402 0.10100663220183875
1033165 -0.9941924246612964 0.1003845532742396
1033377 -0.9944796803434085 0.10072050449025056
1033588 -0.9947479641917849 0.10092160994576226
1033800 -0.9949762302101879 0.10145355660950012
1034012 -0.9945118025112892 0.10106669218357042
1034224 -0.9937512840957959 0.1007290985529994
1034435 -0.9948043123003469 0.10152339668083445
1034647 -0.9949418506247834 0.10057762980443805
1034859 -0.9953238791553713 0.10087246429617817
1035070 -0.9949277221984251 0.10070533357008657
1035282 -0.9951580702740712 0.10083469598307827
1035494 -0.9949391709220479 0.10082764823871204
1035706 -0.9955413479367763 0.10166069399306156
1035917 -0.9945446978261628 0.1007820193015319
1036129 -0.9941650851648548 0.10186268485108545
1036341 -0.9953068672050239 0.10190547711268408
1036552 -0.9936208625859471 0.10106987092250826
1036764 -0.995292386297325 0.10149275962863188
1036976 -0.9943976170640088 0.10132547501765447
1037188 -0.9945993868474571 0.10122365513565629
1037399 -0.9946619578340811 0.10073306054330794
1037611 -0.99529611387268 0.1014854701934096
1037823 -0.9945316925276075 0.10123874551635831
1038034 -0.9944841554853199 0.10167694121345738
1038246 -0.9946868834809822 0.10155664340984093
1038458 -0.9950234043525743 0.10177586837210921
1038670 -0.9954920143436958 0.10226294471546239
1038881 -0.9945801414150235 0.10170384867389695
1039093 -0.9942735994836163 0.10230434023488795
1039305 -0.9948622087207246 0.10116227011262681
1039517 -0.9964826527727827 0.1025500714402136
1039728 -0.9925353688044712 0.10026866451187602
1039940 -0.994657307929466 0.10123478543418754
1040152 -0.9942269209159107 0.1010346763539981
1040363 -0.9943794721273252 0.10138072480599773
1040575 -0.9957755135366465 0.10175488070360278
1040787 -0.9929703642245384 0.1012685760871294
1040999 -0.9939595916140406 0.10209802964570454
1041210 -0.9945037683706381 0.10144183653624088
1041422 -0.9942868060404706 0.10176012748833466
1041634 -0.9941168267891433 0.10120295295003355
1041845 -0.9941080708817455 0.10174541679655537
1042057 -0.9942170892287763 0.10149312345341
1042269 -0.9951390863443521 0.10157203669928558
1042481 -0.9948323992466482 0.1019069571904613
1042692 -0.9941900824638122 0.10148894444277011
1042904 -0.9918439459836039 0.10088629793511618
1043116 -0.9942765503076406 0.10117046834251728
1043327 -0.9934673080008294 0.10122239410784797
1043539 -0.994422637657738 0.10162401468978259
1043751 -0.9923867488641507 0.1011523602917544
1043963 -0.9912298828371761 0.10135964423994794
1044174 -0.9943248822533122 0.10148164134005198
1044386 -0.9941003828582611 0.10183116543310744
1044598 -0.9943586366936099 0.10233199734227431
1044810 -0.9939191429822707 0.10184711357054506
1044810 -0.994312331826593 0.10210703175206949
1045026 -0.9952763125738082 0.10209832101329681
1045242 -0.9943639293659005 0.10157627135322328
1045458 -0.9941618556625551 0.10231924863662384
1045674 -0.9942415095227174 0.10144282658397169
1045890 -0.9944111485974915 0.10189899472847536
1046106 -0.994667655312173 0.10196449457347573
1046322 -0.9948903949340018 0.10239211300469885
1046538 -0.9947316457109575 0.10220449606456129
1046754 -0.9909079062367826 0.10171676743410363
1046970 -0.9987342755204115 0.10315294274820126
1047186 -0.9934566829249951 0.1021101810600025
1047403 -0.9955563015699572 0.1027344199448053
1047619 -0.9972027262155829 0.10279934904029615
1047835 -0.9986969576487466 0.10321972799094724
1048051 -0.997575616448028 0.10401332239544753
1048267 -0.9943036667461222 0.10308516162089507
1048483 -0.9961338837007166 0.10222732803708293
1048699 -0.9917822146674481 0.10182487675676927
1048915 -0.9937924188032609 0.10330828668601938
1049131 -0.9995137110389591 0.10512226694622527
1049347 -0.9941399439551257 0.10254279010762266
1049563 -0.9928049325489969 0.10205172302958158
1049780 -0.9996775483445772 0.10432799803026274
1049996 -0.9966342877286133 0.10427165958647897
1050212 -0.9894780448286397 0.10257192114744877
1050428 -0.997004684541788 0.10309303538174457
1050644 -0.996339469430109 0.10286607832145295
1050860 -0.9979312228665345 0.10256600185683558
1051076 -0.994852269054975 0.1038957506655902
1051292 -0.9979548322148135 0.10333969065250974
1051508 -0.9962055584372126 0.1034875092452163
1051724 -0.9947028311829609 0.10269972111632725
1051940 -0.9987831103981185 0.1038646835702883
1052157 -0.9835709683425742 0.09994353972483169
1052373 -0.9956001800151564 0.10304285610562709
1052589 -0.9959916280525712 0.10357007733459525
1052805 -0.9929026459382996 0.10307764235504868
1053021 -0.9930886163705365 0.10280690433935896
1053237 -0.9910591081441233 0.1028936460913438
1053453 -0.9946247017285779 0.1033618440241421
1053669 -0.9940241812101415 0.10286422186832701
1053885 -0.9943546334005712 0.10345324919935817
1054101 -0.9940598529455097 0.10254366608689731
1054317 -0.9948040735800517 0.10298467327627882
1054534 -0.9940524469416573 0.10250726635072256
1054750 -0.9934789890371583 0.10278592884869389
1054966 -0.9945254754155348 0.10283260680714956
1055182 -0.9932389951659821 0.10308767196276246
1055398 -0.9929382765956817 0.10277537904181862
1055614 -0.9937216164450438 0.10323852580681059
1055830 -0.9931540868710248 0.10280725721849406
1056046 -0.992058808968296 0.10324550906237044
1056262 -0.988996129824926 0.10246331135888447
1056478 -0.9921461201452706 0.10270538263833652
1056694 -0.9924294051634598 0.10289558843355905
1056911 -0.9937017733325535 0.10249017658303061
1057127 -0.9943791462845548 0.10291584977038523
1057343 -0.9941526603010961 0.10273554996458212
1057559 -0.9937429690828451 0.10389762568890289
1057775 -0.9940147102439821 0.10328874137347681
1057991 -0.9941435612450851 0.10393245699663876
1058207 -0.9939675543422756 0.1033816364427306
1058423 -0.9930872994477978 0.10378626036035686
1058639 -0.9935836727022553 0.10338200253941328
1058855 -0.9936586989605612 0.10329003174844467
1059071 -0.9943551735415733 0.10373996317874307
1059288 -0.9931629692111918 0.10328723071209485
1059504 -0.995211839632168 0.10418594870808162
1059720 -0.994063091331662 0.10345031576175846
1059936 -0.9941257322981252 0.10343889347214033
1060152 -0.9934021998539477 0.10314582274445391
1060368 -0.9939164361149051 0.10436856896679808
1060584 -0.9945444534748393 0.10313317353440547
1060800 -0.9949296118246265 0.1036836354160937
1061016 -0.994762713724515 0.10376878502270517
1061232 -0.9942231747674382 0.10370503447615678
1061448 -0.9930570327022004 0.103391297038285
1061665 -0.9935817766142815 0.10354729089977313
1061881 -0.9944252981032824 0.10359097001239818
1062097 -0.9938229483814082 0.10347138830530407
1062313 -0.9938615680749072 0.10378716540816746
1062529 -0.9944687108995933 0.10322366743606387
1062745 -0.993704188841645 0.10340004239467995
1062961 -0.9936512034270142 0.1036746617640757
1063177 -0.9943532956764707 0.10447596818103395
1063393 -0.9948946751937888 0.10332720298643276
1063609 -0.9946427663830067 0.1040405108616967
1063825 -0.9941887976482017 0.10385377490035955
1064042 -0.9944759029549189 0.10430889734182033
1064258 -0.9944859378798891 0.1041905183482639
1064474 -0.9943968180236521 0.10439657146411703
1064690 -0.9952272781947407 0.10347192987468679
1064906 -0.9949344890611755 0.1038725905700432
1065122 -0.9951781125312491 0.10458100826318006
1065338 -0.9945324519820358 0.1039706865774341
1065554 -0.9960526203139363 0.10446343474572921
1065770 -0.9944539524174199 0.10413292443939906
1065986 -0.9945909471925134 0.10441249967541044
1066202 -0.9945662277874069 0.10405440428133401
1066419 -0.9942545276277409 0.10444489908004012
1066419 -0.9938980501816356 0.10409177176166111
1066639 -0.9940304211355533 0.10484542956605292
1066860 -0.9935938591855049 0.10442227484063739
1067080 -0.9933670532363706 0.1043022194739545
1067301 -0.9935227420517337 0.10443079812747633
1067521 -0.9940283160821656 0.10448019996253415
1067742 -0.9941830523028902 0.10450710662552103
1067962 -0.9945159572061643 0.1043790298041057
1068183 -0.9941510074875866 0.10473094344926831
1068404 -0.9945438317631324 0.10404835131768679
1068624 -0.995780549431437 0.10470822163249839
1068845 -0.9934087767413949 0.10451365864337975
1069065 -0.9940773625581021 0.10468470079399944
1069286 -0.994035577974298 0.10445071642489284
1069506 -0.9939977557412621 0.10443705637449946
1069727 -0.993738026499601 0.10443183223943384
1069948 -0.993454801839163 0.10460383852840803
1070168 -0.9936732912017903 0.10411811587498668
1070389 -0.9938756394803895 0.10436747197708336
1070609 -0.9937608396906616 0.10441967298607396
1070830 -0.9939109278545288 0.10441439334442347
1071050 -0.9943589705722492 0.1043755743415577
1071271 -0.9945022965071836 0.10481836008190366
1071492 -0.9946350004960219 0.10433136915925816
1071712 -0.9945970497449484 0.10463646928854028
1071933 -0.9937980378305641 0.10463785068344628
1072153 -0.9939592239592836 0.10472085629337008
1072374 -0.9942731110128576 0.1049146818840102
1072594 -0.9940405823424254 0.10457201532358858
1072815 -0.994197058522927 0.10529237613857537
1073036 -0.9942401836256586 0.1043730581790162
1073256 -0.994545537701518 0.10483879006882578
1073477 -0.9940168620065736 0.10468590867302997
1073697 -0.9942125947679978 0.10457104952374495
1073918 -0.9940242430823132 0.10478461432834561
1074138 -0.9939526826398101 0.10507485525012662
1074359 -0.9940373354586357 0.10498384453164256
1074580 -0.993998114300664 0.1053802961075542
1074800 -0.9941104889268443 0.10537944658790395
1075021 -0.9944645251855385 0.10486725433096342
1075241 -0.9941903292648941 0.10532962740143197
1075462 -0.9932289938547485 0.10509263894916196
1075682 -0.9938095469771681 0.1051054263620774
1075903 -0.99394230649645 0.10501870235676856
1076124 -0.9941628062579329 0.10479982699430343
1076344 -0.9940384910443036 0.10466441681014681
1076565 -0.9945159725699947 0.10450959517630662
1076785 -0.9945588840345586 0.10469300303627367
1077006 -0.9944804290681627 0.10495584722382519
1077226 -0.9936708066830839 0.10498098059065318
1077447 -0.9943486586111063 0.1047235946760198
1077668 -0.9939236023988661 0.10477434868671216
1077888 -0.9932419014749777 0.104500896992065
1078109 -0.9928721769714177 0.10468202524504072
1078329 -0.9936615158182758 0.10476989758933179
1078550 -0.9946081331475575 0.10569245145353086
1078770 -0.9941733064994107 0.10545785199689338
1078991 -0.9937500438391 0.10535405826491334
1079212 -0.9936249431606996 0.1052747234318405
1079432 -0.9940531733571609 0.10574577338791183
1079653 -0.9937235362104975 0.10560882028176759
1079873 -0.9933431501081299 0.1048782852747262
1080094 -0.9933913780137301 0.10553821860545794
1080314 -0.9942264161517378 0.10514800635492215
1080535 -0.9941109739699562 0.10517156913103458
1080756 -0.9932498283759101 0.10521557834521224
1080976 -0.9932794197989164 0.10587458106216385
1081197 -0.9946690652685894 0.10545648964915695
1081417 -0.9936107908869827 0.10550851778152873
1081638 -0.9934255824102899 0.1051537932936844
1081858 -0.9936325064241749 0.10573567446597744
1082079 -0.993779256573514 0.10555769250357575
1082300 -0.9942428638440468 0.1058636339935514
1082520 -0.9938505586769413 0.10566144506556611
1082741 -0.9930897489185314 0.10528782807443932
1082961 -0.9937413701377483 0.1055533928775531
1083182 -0.9938475308988372 0.10606851529331483
1083402 -0.993728091612326 0.10551636123564413
1083623 -0.993073407873515 0.10509857033447403
1083844 -0.9932141689753677 0.1054267697677379
1084064 -0.9935987758635416 0.10587344378103873
1084285 -0.9934855435659093 0.10543747580552125
1084505 -0.9943883421123338 0.10560216267739654
1084726 -0.993839223895429 0.10560683217441504
1084946 -0.9936933926620344 0.10534160774895027
1085167 -0.9939247461704086 0.10555959302321342
1085388 -0.9933946465684282 0.10531081557226335
1085608 -0.993919840902244 0.1057445996577828
1085829 -0.9943612803736055 0.10505773607678781
1086049 -0.9942683501101931 0.10613243728482534
1086270 -0.9943728735808404 0.10577524937446715
1086490 -0.9938779031308901 0.10624305748851355
1086711 -0.9938891294614299 0.10553303370150298
1086932 -0.9938257623913795 0.10634068633573976
1087152 -0.9939464745846633 0.10580083683630585
1087373 -0.9925754933694579 0.10575161396324383
1087593 -0.9926399954633364 0.1057791540132443
1087814 -0.9932206665132116 0.10615006458170112
1088034 -0.9939553802760865 0.10591249613133714
1088255 -0.9929898228466599 0.1058839361480336
1088476 -0.9939624422688118 0.10624992185354086
1088476 -0.993262907269043 0.10581844569493397
1088701 -0.993332041120247 0.10662454598157987
1088926 -0.9936755322982804 0.1058343104851308
1089151 -0.994022124377479 0.10623486442100183
1089376 -0.9937136760439983 0.1060233382066763
1089601 -0.9942117898060023 0.10658712673222022
1089826 -0.9943706727073549 0.10550713999402297
1090051 -0.9943779611804999 0.10675994853503844
1090276 -0.9939260857077636 0.1066427778307925
1090502 -0.9930162389580768 0.106391979007929
1090727 -0.9938253534632839 0.10716640550428974
1090952 -0.9938715645382926 0.10726713838881069
1091177 -0.9937141028838177 0.10649568014764016
1091402 -0.993157051229926 0.1068639963212967
1091627 -0.993858643310481 0.1066772142616052
1091852 -0.9938878498181944 0.107271667205715
1092077 -0.9939864619155316 0.10662062813648963
1092303 -0.9937989714352256 0.10686589957636769
1092528 -0.9938012301930512 0.10657934444237971
1092753 -0.9936827993696365 0.10654393215094275
1092978 -0.9941161014540242 0.10639484117842099
1093203 -0.9939738374547702 0.10614409122265915
1093428 -0.9939371713446581 0.10696913506928879
1093653 -0.9933348385721329 0.10689339931847147
1093878 -0.9942000993455555 0.10637323926958395
1094104 -0.9936566751149863 0.10691662947785033
1094329 -0.9935196697683069 0.10701201197276916
1094554 -0.9935651734084419 0.10677047329901701
1094779 -0.9935319027420138 0.10718140183998648
1095004 -0.9936404086053008 0.10665754611443035
1095229 -0.9931293085645968 0.10704865427021017
1095454 -0.9936427964969419 0.106551557227696
1095679 -0.9941172478007341 0.10735415000587038
1095904 -0.9938444949685897 0.10687839644728846
1096130 -0.9941883606994218 0.10692253800714666
1096355 -0.9938910615101951 0.10675131580880615
1096580 -0.9943036366874373 0.10700658201501395
1096805 -0.9944515023249741 0.10684463505190064
1097030 -0.9940136075983049 0.10725811470425023
1097255 -0.994078709364619 0.10691479544911071
1097480 -0.9942717334609951 0.10699983008697612
1097705 -0.9946580038385503 0.10681649207326786
1097931 -0.9936393165482776 0.10690013299471973
1098156 -0.9939581326981262 0.10721249413560227
1098381 -0.9940147951384409 0.10711147090844653
1098606 -0.9939510832819743 0.10726188063359797
1098831 -0.9933150078007841 0.10703035084632764
1099056 -0.9934057108520588 0.10731422745416683
1099281 -0.9935203024701077 0.10697751204770052
1099506 -0.9936450691862854 0.10749123444994946
1099732 -0.9929079742852851 0.10728772939197909
1099957 -0.9932161104625457 0.10770493541490123
1100182 -0.9940978470317515 0.10690460079444361
1100407 -0.993851066994064 0.10717554875846556
1100632 -0.9933320134266523 0.10643408261073592
1100857 -0.9934656007712259 0.10707417165284466
1101082 -0.9933065523346233 0.10670785818864197
1101307 -0.9938884160098433 0.1069035280922292
1101532 -0.993583089424372 0.107063711433756
1101758 -0.9936109557099426 0.10798915517214858
1101983 -0.9941690903582007 0.10799703881681347
1102208 -0.9937639608528965 0.10787154610370982
1102433 -0.9937502590301996 0.1080631295602885
1102658 -0.9932419520247348 0.10732595674005353
1102883 -0.993252540858241 0.10794615807816516
1103108 -0.993887706941524 0.10782511435817745
1103333 -0.9939853378845099 0.10790358867090646
1103559 -0.9936086220291787 0.1078216899675815
1103784 -0.9936313249541409 0.10855114587961996
1104009 -0.9939416468985307 0.10785611214669413
1104234 -0.9932865567491758 0.10804309798041
1104459 -0.9928875375849063 0.10778641529306282
1104684 -0.9931413945563043 0.10811217629200796
1104909 -0.9932990052056003 0.1075623299176949
1105134 -0.9936059299251382 0.10802583561752171
1105360 -0.9932118210112996 0.10812767083544735
1105585 -0.9931917719125818 0.10801121605913674
1105810 -0.9940824822059302 0.10785849879787991
1106035 -0.9936845039120417 0.10784659581850896
1106260 -0.9935307053247885 0.10730541448519065
1106485 -0.9933426082579145 0.10773395610263423
1106710 -0.9938434236476622 0.10728920865741723
1106935 -0.9939286709032414 0.10792047761526781
1107160 -0.9942110604786562 0.10748603071375289
1107386 -0.993592108137103 0.1085246883618079
1107611 -0.9934285431175554 0.10812141740415461
1107836 -0.9935154296285924 0.10885699661957732
1108061 -0.9932869625532016 0.10831998214128818
1108286 -0.9930744617905728 0.10814437387050964
1108511 -0.9929908396052355 0.10838075516788327
1108736 -0.9934313581254683 0.108573741047657
1108961 -0.9934056396256424 0.1084761939031594
1109187 -0.9930500402406854 0.10838197080480834
1109412 -0.9934746025047936 0.1087374115255643
1109637 -0.993945781537008 0.10839880108251043
1109862 -0.9939272011509307 0.10879085496229289
1110087 -0.9938201345871154 0.10828492922375582
1110312 -0.9936343304750005 0.10856115180383617
1110537 -0.9935405081651051 0.10825052540542038
1110762 -0.9942421952856672 0.10855903767837503
1110988 -0.9937188020978004 0.10797418415405909
1110988 -0.9932142408387085 0.10814583119933036
1111217 -0.9929969590224855 0.1086462333408395
1111447 -0.9937246413904908 0.10798189223947662
1111677 -0.9939109715801552 0.10885926412670038
1111907 -0.9933398872594743 0.10857766423492186
1112136 -0.9931957674776022 0.10868013489210043
1112366 -0.9932519660526539 0.10843023353113836
1112596 -0.9940017094885769 0.10842714838105239
1112826 -0.9933444223259382 0.10840966560217008
1113056 -0.9932961230270017 0.1087669968607277
1113285 -0.9939708894600354 0.10851029980612097
1113515 -0.9942135508098658 0.10843336068907529
1113745 -0.9940702389106238 0.10808198473626582
1113975 -0.9938637751641028 0.10836038379231075
1114205 -0.9940460698598261 0.10812322762748167
1114434 -0.994373147520772 0.10853009079053944
1114664 -0.9938729810736797 0.10833281266934394
1114894 -0.9933742738357894 0.108145004729451
1115124 -0.9936047225628604 0.10839383877375705
1115354 -0.9938967605290558 0.10896938923298045
1115583 -0.9933521533274534 0.10868916024190085
1115813 -0.9930562395538105 0.1090753129326876
1116043 -0.9930558617162827 0.10914518344199005
1116273 -0.9935446340639709 0.10927189309213335
1116502 -0.9930910842550648 0.10916655282886638
1116732 -0.9932164086325116 0.10935052309970932
1116962 -0.9936989855914881 0.1092091890899736
1117192 -0.9939657582727873 0.10957138488467107
1117422 -0.9939692506029444 0.10915621866792687
1117651 -0.9936396838105392 0.10842506362750177
1117881 -0.9939893153200577 0.1085301570686122
1118111 -0.9943258463872767 0.10897705500625013
1118341 -0.9943731050126497 0.1088157262800613
1118571 -0.993015552465833 0.10893435444060345
1118800 -0.9929261803509065 0.10921246709612838
1119030 -0.9935614733975018 0.10975954657550309
1119260 -0.9935164783387638 0.10981077046773957
1119490 -0.9926597984548862 0.10946788314275802
1119720 -0.993003562191081 0.10967416150225667
1119949 -0.9930389899395015 0.10963918762301048
1120179 -0.993401118809803 0.10954937388743884
1120409 -0.992907023549747 0.10924602583751943
1120639 -0.9933046817153754 0.10932244424990589
1120868 -0.9936032501392581 0.10877103327756724
1121098 -0.9937899874159181 0.10879585939633968
1121328 -0.9931092920372859 0.10911990606031229
1121558 -0.9937511109977205 0.10918740586586803
1121788 -0.9936416936126142 0.10947209553026972
1122017 -0.9938128776532509 0.1092967266321378
1122247 -0.9937028914028009 0.10925148706299427
1122477 -0.9938897159559129 0.1091456415806576
1122707 -0.9942422345602357 0.10992674321611653
1122937 -0.9937923647709291 0.10947973762204426
1123166 -0.9930458053814123 0.10962190249486113
1123396 -0.9935616887191671 0.10980827457902921
1123626 -0.9941474584318648 0.11052966710669067
1123856 -0.9945518968793429 0.11034640332063776
1124086 -0.9940494681067134 0.11033604883842285
1124315 -0.9935750571696526 0.10990959885371351
1124545 -0.9908798419199359 0.10971798273974952
1124775 -0.9939188637480398 0.11019189034705737
1125005 -0.9917894087947322 0.10940691726903677
1125234 -0.99355467844047 0.10966548401119341
1125464 -0.9933579966112216 0.10993389343853903
1125694 -0.9940556309483124 0.10985291556479924
1125924 -0.9932731101514992 0.10934549968712225
1126154 -0.995274209997564 0.11035164134226931
1126383 -0.9933760946716509 0.10945428634647673
1126613 -0.9938550872640955 0.11012100442641048
1126843 -0.9927942941171475 0.11005185617067895
1127073 -0.9928714884196481 0.11097523172087329
1127303 -0.9933463975087148 0.11034097643304691
1127532 -0.993654035732343 0.11046433320514373
1127762 -0.9931510896429626 0.10972974232033364
1127992 -0.9929377310080358 0.11065331246040684
1128222 -0.993236523429573 0.1097615590017073
1128452 -0.9931637225969012 0.11026031058384013
1128681 -0.9932982908916179 0.10987356251222825
1128911 -0.993266735387205 0.11043469281859583
1129141 -0.9937475155348845 0.1094794155257696
1129371 -0.9937769339773752 0.11015257860727828
1129600 -0.9929665869451082 0.11009493623427005
1129830 -0.992491954176181 0.11058272533280628
1130060 -0.9929690670323639 0.11024672118453738
1130290 -0.9931738730822829 0.11062010399840023
1130520 -0.9935820696416534 0.11019641679799475
1130749 -0.9927745529382505 0.11063284008615255
1130979 -0.9933532488872754 0.11032650761516646
1131209 -0.9936282075943142 0.1106731398362769
1131439 -0.9927445155203547 0.11019836761001935
1131669 -0.992531108822335 0.11041403056407259
1131898 -0.993308513734156 0.11008993290065093
1132128 -0.9935262240914657 0.11052286336243379
1132358 -0.9938002110164164 0.11034295033937097
1132588 -0.9928725697682068 0.11037560981057305
1132818 -0.9932723634288994 0.10993100248810386
1133047 -0.9935638553643029 0.1102765477997273
1133277 -0.993880455932215 0.11018734375562238
1133507 -0.9925831675068937 0.11045681771249276
1133737 -0.9932363727426342 0.11063242955742955
1133967 -0.9935891503966671 0.11079304020165845
1133967 -0.9937642206481296 0.11095756906235735
1134201 -0.994139988084086 0.11107069195107817
1134436 -0.9937912970250452 0.1110271637240828
1134670 -0.9930450777121655 0.11127526829409923
1134905 -0.9930397396584733 0.11096002970943457
1135139 -0.9930859368999622 0.11078527165204732
1135374 -0.9928075620116454 0.110738878602549
1135608 -0.9930394538535372 0.11098317911296693
1135843 -0.9934812356560644 0.1108721670555938
1136077 -0.9935692607888623 0.11113176454079425
1136312 -0.9932295747783572 0.1106208458764215
1136546 -0.9935669529286137 0.11102474176437029
1136781 -0.9937799728134568 0.11092107480618564
1137015 -0.9937565436817315 0.11083685026487262
1137250 -0.9933457239413171 0.11050523061003814
1137484 -0.9929091883346972 0.11089006757498843
1137719 -0.9932528861731001 0.11087681849480405
1137954 -0.9933776712564065 0.11113729493335256
1138188 -0.9927575349304671 0.11087539514516183
1138423 -0.9926958282161698 0.11143950478935201
1138657 -0.9929542715867647 0.1108859137842657
1138892 -0.9934367353927317 0.11154950570192791
1139126 -0.9927966024642287 0.11149002169270679
1139361 -0.9926860091901636 0.11158050946568226
1139595 -0.9930233749659967 0.11051256987431353
1139830 -0.9933497362420247 0.1113945209783394
1140064 -0.9931453486158875 0.1105072402622649
1140299 -0.992432669309851 0.11117659991476514
1140533 -0.9928012798943286 0.11081975202992769
1140768 -0.9933402629147589 0.11097506748714038
1141002 -0.992885731328192 0.11041899413791874
1141237 -0.9924158240920471 0.1108657960791655
1141471 -0.9932381020500435 0.11106346820382834
1141706 -0.9939044040136502 0.11134410640297566
1141941 -0.993531854028833 0.11100918811506233
1142175 -0.9930317110306301 0.11175505655961643
1142410 -0.9931863582365993 0.11128682836273163
1142644 -0.9936776126909063 0.11172860804511961
1142879 -0.9927242838287526 0.11137604909631213
1143113 -0.9926853360839553 0.11166626472234654
1143348 -0.9932914284733209 0.11129896670332216
1143582 -0.9934988545943857 0.11170040147713446
1143817 -0.9930208619585347 0.11146101862953788
1144051 -0.9930913119531827 0.1116912118161983
1144286 -0.9931332038392959 0.1111943309565654
1144520 -0.9930318054336547 0.11154194937682622
1144755 -0.9935273337920678 0.11126897521427492
1144989 -0.9936029000068028 0.11165864918629435
1145224 -0.993815985067026 0.11097549726025475
1145458 -0.9934027888853847 0.11205805157803675
1145693 -0.9931964985334112 0.11199450092519816
1145928 -0.9930805691897349 0.11185398668123396
1146162 -0.9935663841653783 0.1122897718531849
1146397 -0.9935624657041715 0.11200612648703367
1146631 -0.993065655752278 0.1115015580637599
1146866 -0.993449848622047 0.1118098806053237
1147100 -0.9937644808939443 0.11184484473840942
1147335 -0.9940091695846526 0.11113403234877603
1147569 -0.993145836695032 0.11098403980816927
1147804 -0.9934555868062434 0.11185139051411572
1148038 -0.993335296231048 0.11215113423065323
1148273 -0.9936768687314157 0.11184577619664739
1148507 -0.992198563771334 0.1116298503363021
1148742 -0.9923125671963712 0.11232317737012881
1148976 -0.9926541039621679 0.11256237028642169
1149211 -0.9924826811674401 0.11246162540729562
1149445 -0.9916293682538047 0.11197935709261149
1149680 -0.9912161187627714 0.1118967359152401
1149915 -0.992479878398911 0.11252977102748478
1150149 -0.9933581944866247 0.11242868208063365
1150384 -0.9930900510645378 0.11208018680574562
1150618 -0.9931329462092612 0.11240026925175958
1150853 -0.9934248119805086 0.11263989008671423
1151087 -0.9937482581855805 0.11243034948234744
1151322 -0.9928052503912246 0.11204850528487237
1151556 -0.9932863514378243 0.11210175540978747
1151791 -0.9937542732927158 0.11215067578773853
1152025 -0.9939404882175613 0.11167436227092081
1152260 -0.9930273152188832 0.11131922770745728
1152494 -0.9928779327230263 0.11151298045460963
1152729 -0.9933657264970608 0.1122068458050202
1152963 -0.9933735183226442 0.11188665587379375
1153198 -0.9924123402463859 0.11204197100395795
1153432 -0.9933673781185949 0.11248648273854914
1153667 -0.9938243328586422 0.11288537414755033
1153902 -0.9938454919039539 0.11296663841056855
1154136 -0.992777781347663 0.1123284640331982
1154371 -0.993199634520997 0.11232964286125398
1154605 -0.9932753136587816 0.11288662233053535
1154840 -0.9930185927959951 0.11241109672485977
1155074 -0.9919675563517261 0.11169554199702801
1155309 -0.9928045122173017 0.11212205248813373
1155543 -0.9927052016358727 0.11246182576222734
1155778 -0.9929420898295584 0.11228587749950592
1156012 -0.9918089658203639 0.11192593347578626
1156247 -0.9926973718743141 0.11244826270913531
1156481 -0.9929023584971088 0.11298607609046084
1156716 -0.9926395960174184 0.11272501686398395
1156950 -0.9920548415891276 0.11220096975346637
1157185 -0.9926566136357763 0.11289778272896359
1157420 -0.9935438192234639 0.11297581724296828
1157420 -0.9933503277288857 0.11302393286226076
1157659 -0.9936743907646687 0.11314552389191772
1157898 -0.9929653997610817 0.11258238393461409
1158138 -0.993151096940708 0.11303516437636335
1158377 -0.9934254686523554 0.11270346507179836
1158616 -0.9936125997364835 0.11273617300367708
1158856 -0.9927327311943739 0.11248296797983011
1159095 -0.9929684399632422 0.11288437149655946
1159335 -0.9939892395869254 0.1129848492653065
1159574 -0.9934858954085322 0.1130917188266889
1159813 -0.9925414640259366 0.11287396382567731
1160053 -0.9925073138287959 0.11285930900940362
1160292 -0.9922367447666772 0.11304736532052709
1160532 -0.9932468625940186 0.11307432736961341
1160771 -0.9923241009718242 0.11269292749094219
1161010 -0.9930734942288242 0.11231072922777653
1161250 -0.9929665262150501 0.11311571435861975
1161489 -0.992999552491155 0.11345645693348941
1161729 -0.9926192171592195 0.11337692970636917
1161968 -0.9929149333554054 0.11349870435650486
1162207 -0.9937932673433535 0.11405878924306036
1162447 -0.9934267067597419 0.11323863683624498
1162686 -0.9926350021132477 0.1133472945612308
1162925 -0.9929336914249124 0.1131411945163585
1163165 -0.9936336505227836 0.11378271088066767
1163404 -0.9937349379611369 0.11279154174736106
1163644 -0.992481319343574 0.11282017802816352
1163883 -0.9930440232938865 0.11298440514576505
1164122 -0.9932188931257925 0.11327504985599475
1164362 -0.9925385371098925 0.11237335789824143
1164601 -0.9922009962635103 0.11340198144074184
1164841 -0.9924161901980939 0.11328940021005286
1165080 -0.9931639472650432 0.11412740688994583
1165319 -0.992921487294093 0.11394136054686606
1165559 -0.9926588039950961 0.11422071619591107
1165798 -0.9934204758465237 0.11401103836709035
1166038 -0.9928205792914973 0.11429336089107577
1166277 -0.9927914199405883 0.11334066597746001
1166516 -0.9930194324193783 0.11378589121255832
1166756 -0.9931736941407395 0.1133566000254441
1166995 -0.9930129113722571 0.11359902858102773
1167234 -0.993008486221185 0.11343463107859132
1167474 -0.9928301084787442 0.11399807113024882
1167713 -0.9931370198525398 0.11378621795768298
1167953 -0.9933160631595036 0.113470966213084
1168192 -0.9923574590263277 0.1136669223535839
1168431 -0.992664125604013 0.11319069996174476
1168671 -0.993093369405783 0.11389757510196627
1168910 -0.9934194442341698 0.1134060131282105
1169150 -0.9924429111236487 0.1138398707071059
1169389 -0.9930044690114789 0.11369339173647117
1169628 -0.9934019525402592 0.11386412077581465
1169868 -0.9937948258921934 0.1139003747914833
1170107 -0.992228791496709 0.11388365529288716
1170347 -0.9927572979641722 0.11365190910247402
1170586 -0.9929250588040398 0.11431778282589379
1170825 -0.9928669960221405 0.11406797741420269
1171065 -0.9915994685163253 0.1144541860719585
1171304 -0.9925018942161765 0.11433822560926026
1171544 -0.9931803628233195 0.11469875333391774
1171783 -0.993135961679091 0.11415180576941161
1172022 -0.9915953325525331 0.11476597693993058
1172262 -0.9920186018356473 0.11413056486277981
1172501 -0.9923197641813677 0.11454070622036541
1172740 -0.9931040215502446 0.11421505040373396
1172980 -0.9931735088244271 0.11461900143195945
1173219 -0.9936991227408574 0.11485555891746291
1173459 -0.9936886258971499 0.11470756596775822
1173698 -0.992808887217221 0.11442102278690698
1173937 -0.9930124092084764 0.11489169787837325
1174177 -0.993182142047645 0.11401615269374067
1174416 -0.9930217048014147 0.11482574951306039
1174656 -0.9928802335660997 0.11420537279445998
1174895 -0.9924880214350686 0.11432987238120274
1175134 -0.9931520251153666 0.1141742583297076
1175374 -0.9930182288192704 0.11451650777580485
1175613 -0.9928599732093525 0.1144740288554649
1175853 -0.9928688627882255 0.11498561197362206
1176092 -0.9934896565448113 0.11470099908916712
1176331 -0.9929540179960719 0.1150858572327293
1176571 -0.9928320609273077 0.11490580765482718
1176810 -0.9928364788102241 0.11494640717849235
1177049 -0.9933244274776355 0.11484796014263075
1177289 -0.9925865118887343 0.1156201271188187
1177528 -0.9929019378112941 0.1144050992550413
1177768 -0.9927918917483246 0.1147886601100431
1178007 -0.9934199508022256 0.11474677155272596
1178246 -0.9928320179455588 0.11473836983571462
1178486 -0.9917347170884719 0.11429220418782232
1178725 -0.9918219241384169 0.11455555174193717
1178965 -0.992340524692034 0.11495628325967117
1179204 -0.9927586210224841 0.11553760462831758
1179443 -0.9924041646028289 0.11541338759221179
1179683 -0.9927245770055833 0.11553240813966487
1179922 -0.9928654353080689 0.11533709628912735
1180162 -0.9928625159466158 0.11573774384482678
1180401 -0.9922509898123022 0.11570006036598249
1180640 -0.9926074947224892 0.11551341977737523
1180880 -0.9936733673356782 0.11505736271948525
1181119 -0.993321421779613 0.11458091799580651
1181359 -0.9932683253966774 0.11438505778441015
1181359 -0.9930622873673269 0.11501234583796101
1181603 -0.993618862737174 0.11477653854920912
1181847 -0.9936922060311729 0.11503915431800106
1182091 -0.9923296681785112 0.11435262768249924
1182336 -0.9933256221630505 0.11492781735240956
1182580 -0.9935082247447308 0.11517854719181224
1182824 -0.9928940317767889 0.1152816931493483
1183069 -0.9925628752197115 0.11525843945546192
1183313 -0.992297897808763 0.11549802640043173
1183557 -0.9928392637115682 0.11551811446216008
1183802 -0.993091266012698 0.11567652726885552
1184046 -0.9918102222665578 0.11538689983142113
1184290 -0.9918780956638786 0.11511335764454866
1184535 -0.9920572759781533 0.11525477607407722
1184779 -0.9931058950301027 0.11523238710285894
1185023 -0.9924583947936036 0.11584632252283944
1185268 -0.9932558229967045 0.11594301895001029
1185512 -0.9948663060919031 0.11672030785566681
1185756 -0.9928993212562246 0.11552448564562419
1186001 -0.9924147147883936 0.11586670296293093
1186245 -0.9931826194238843 0.11595430624004727
1186489 -0.9939615584990499 0.11673286423579396
1186734 -0.9928468007260022 0.11556198278824115
1186978 -0.9928132207620783 0.11582275917559494
1187222 -0.9934219227565857 0.11556662690341368
1187467 -0.9936479040835821 0.11629511690946062
1187711 -0.9925187787528535 0.11616182172294835
1187955 -0.9925538538983708 0.11583946165314096
1188200 -0.9933318881505269 0.11593531319906038
1188444 -0.9929087015270157 0.11604328106459369
1188688 -0.993427236015856 0.11604021863446293
1188933 -0.9926019498607016 0.11610857511071879
1189177 -0.992480182809113 0.1163049402082945
1189421 -0.9934844940194458 0.11564681025834095
1189666 -0.992991627520972 0.11587845320217353
1189910 -0.9921574246286664 0.11565522737638431
1190154 -0.9924419299017153 0.11591776379022836
1190399 -0.9922873184695123 0.11553724935118687
1190643 -0.9914787805592358 0.11591208756507268
1190887 -0.9917539641730275 0.11591523230995948
1191132 -0.9925671358060631 0.11634710013743974
1191376 -0.9925443387973483 0.11627917349071293
1191620 -0.991871813854824 0.11648734069930058
1191865 -0.9924948279981983 0.11634073173569351
1192109 -0.9927922748928933 0.11663552228001597
1192353 -0.9931331779031914 0.11593858021206697
1192598 -0.9913509242183461 0.11643051604850303
1192842 -0.992968985193573 0.11578232657550475
1193086 -0.9929181852642379 0.11628440348513643
1193331 -0.9924498260404432 0.11583103811244809
1193575 -0.9924186801771215 0.11639949139920656
1193819 -0.9936351186260046 0.11655761562106928
1194064 -0.9928293050407963 0.11698128450611979
1194308 -0.9916269621865976 0.1161128202208521
1194552 -0.9904679481455093 0.11618028044194281
1194797 -0.9902546733941291 0.1157700817376041
1195041 -0.9907510865400643 0.11655255207511933
1195285 -0.9914015597398343 0.11627623705958323
1195530 -0.9919340965270959 0.1160732524406257
1195774 -0.992765040127725 0.11677217312880532
1196018 -0.9927404835172283 0.11645823030161814
1196263 -0.991756607176827 0.11576699770052293
1196507 -0.9920380138830963 0.11575191791360094
1196751 -0.9921830033084953 0.11635782340974396
1196996 -0.9917246757557043 0.11601201807185746
1197240 -0.9913077650777137 0.11716215130178394
1197484 -0.9899835019419937 0.11645226988224247
1197729 -0.9928082553079105 0.11736955072849038
1197973 -0.99832701409932 0.1189555604854543
1198217 -0.991302295299629 0.11745222392463021
1198462 -0.9937435366635503 0.11737874548176057
1198706 -0.9935314780462433 0.11737361771928073
1198950 -1.0018097132360193 0.1182446245218593
1199195 -0.9949595146950112 0.1163792067267104
1199439 -0.9893393223781093 0.11582978015286519
1199683 -0.9905596506345571 0.11648854582018861
1199928 -0.9893342254498068 0.11538486309944294
1200172 -0.9930966546450778 0.11764445786000222
1200416 -0.9963323895131398 0.11842269045237726
1200661 -0.9980791202452227 0.1193395993836812
1200905 -0.9936653060754052 0.11667466691220298
1201149 -1.002285280724693 0.12016339207570458
1201394 -0.9898114331233444 0.11631012032437495
1201638 -0.9891643550590726 0.11569656178170255
1201882 -0.994539173432561 0.11731318690604263
1202127 -0.9992299035969721 0.11821158576000382
1202371 -0.9932665696808566 0.11751016522860179
1202615 -0.9928041250410217 0.11697248356404386
1202860 -0.9904892252787474 0.11683356812795441
1203104 -0.9909616501635228 0.11696983077809286
1203348 -0.9925146843330254 0.11764898146279046
1203593 -0.9915139710033507 0.11695694959435322
1203837 -0.992078223708882 0.11732890003169334
1204081 -0.9926994401182572 0.11751086346414805
1204326 -0.9924844453763361 0.11753951311059589
1204570 -0.99271688537141 0.11699598133622457
1204814 -0.9919773205068997 0.11723463629018176
1205059 -0.9933584714579992 0.11749767681125885
1205303 -0.9914943863550816 0.11727794634202733
1205547 -0.9922762518003078 0.11715469925247392
1205792 -0.9931546853945654 0.11803197652116638
1205792 -0.9933812529341715 0.11775063598062714
1206041 -0.9928205984782565 0.11844814523524277
1206290 -0.9935044937179403 0.1180687882548011
1206540 -0.9929087596715919 0.11834200406519822
1206789 -0.9924694238028705 0.11739402954835844
1207038 -0.9929114661695065 0.1181806518789503
1207288 -0.990738303176056 0.11690053750999752
1207537 -0.9918193573329404 0.11723687312430837
1207787 -0.9920872394832507 0.11698232789261627
1208036 -0.992344846948784 0.11718792776729736
1208285 -0.991564455988081 0.11742925625292523
1208535 -0.9915537994748392 0.11799221755465686
1208784 -0.9922811057569659 0.1182087131534769
1209034 -0.9921277252812627 0.11775393779903529
1209283 -0.990809585861468 0.11764284894583511
1209532 -0.9912789511130865 0.11763916357827459
1209782 -0.9926703444849716 0.11831149373965842
1210031 -0.9927557279311214 0.11764873962135747
1210281 -0.9927684846466595 0.11759861320661584
1210530 -0.9931713402216735 0.1181066047476676
1210779 -0.9935958904699165 0.1185473024365868
1211029 -0.9927004234813894 0.11742195318782116
1211278 -0.9931495397090087 0.11842996450118924
1211527 -0.9920407325314201 0.11785446781224135
1211777 -0.9927157796385807 0.11812005710145053
1212026 -0.9919419108627273 0.11790994555179786
1212276 -0.9921141260932652 0.1181003918204692
1212525 -0.9921357302647764 0.11828001762031022
1212774 -0.9924334147115427 0.11860721833940902
1213024 -0.9923636427751894 0.11863902660568243
1213273 -0.9926383492706864 0.1184956883601145
1213523 -0.9934791757789706 0.11901002808660588
1213772 -0.9929438438467604 0.11855919011810193
1214021 -0.9914403251680144 0.11885952565714487
1214271 -0.9925296512178204 0.11834523686138991
1214520 -0.9936407634039153 0.11937954341658272
1214770 -0.9922498278995089 0.11845110920018526
1215019 -0.992188948202975 0.11875751093336359
1215268 -0.9924064081115566 0.11853295587431643
1215518 -0.9924644059209682 0.11872058628077332
1215767 -0.9918308079211359 0.11798795300482814
1216016 -0.9921736313555806 0.11820073133217308
1216266 -0.9926373877761796 0.11866649125522225
1216515 -0.9927628374238338 0.11893512323742575
1216765 -0.9920245679606631 0.118368685675677
1217014 -0.9924269639447448 0.11875637874249917
1217263 -0.9929898605342641 0.11918958093297037
1217513 -0.9929262714747412 0.1190816220768989
1217762 -0.9913248287563122 0.11855098610723526
1218012 -0.9925292616200522 0.11893515018346835
1218261 -0.9921116746033983 0.11948165711549952
1218510 -0.9924601264457651 0.11884974708642725
1218760 -0.9914025295530862 0.11882950324772577
1219009 -0.9920665905712346 0.11878132649270387
1219259 -0.9922821817188655 0.11915091918501178
1219508 -0.9922960171286649 0.11890620741851693
1219757 -0.991947815543044 0.11882595119774726
1220007 -0.9921470516207663 0.11923047917826061
1220256 -0.9926193686712595 0.11963013065973009
1220506 -0.9921314508182862 0.11931132109265552
1220755 -0.9918997747676052 0.11884003868381507
1221004 -0.9926418936527589 0.11920627876270248
1221254 -0.9926914046345762 0.11937112167020106
1221503 -0.9923029271040548 0.11844187849580294
1221752 -0.9924137354097513 0.11901854582882311
1222002 -0.9926244354755202 0.1195612157962443
1222251 -0.9925982349354694 0.1192645457878252
1222501 -0.9918236570788431 0.11970552803836973
1222750 -0.9922900125938025 0.11978628589492635
1222999 -0.9928350533831076 0.12018329465670756
1223249 -0.9927064374286175 0.11904231589335998
1223498 -0.9919093558085645 0.11860208502708583
1223748 -0.9918711942233107 0.11907425848989904
1223997 -0.9916125956176862 0.11883562403062771
1224246 -0.991417769225212 0.1186035309789828
1224496 -0.9913359197693604 0.11928963119079432
1224745 -0.9919818632823566 0.11928962332001655
1224995 -0.9920025436697241 0.11927371115321059
1225244 -0.9907294699075482 0.11893091080777149
1225493 -0.9920481941921897 0.11891739827690201
1225743 -0.991993883912388 0.11958410142834254
1225992 -0.992551942299735 0.11921018556359979
1226241 -0.9909516663351323 0.11964207818283257
1226491 -0.9915525489034236 0.11932794920914541
1226740 -0.9917311666898142 0.1202956210819514
1226990 -0.9926043492685707 0.11946568550631229
1227239 -0.9918570756440187 0.11974190736511375
1227488 -0.9925390320195602 0.12011271813910734
1227738 -0.9920203274681412 0.11970829051208359
1227987 -0.9918427727505321 0.11908729578834332
1228237 -0.9918274880964366 0.1193098325202113
1228486 -0.9921683088057384 0.11939683372513452
1228735 -0.9923112357969687 0.11962913170517213
1228985 -0.9916679945027335 0.11909253675503824
1229234 -0.9918941753759821 0.11940049091928907
1229484 -0.9922275428961334 0.11981570090201213
1229733 -0.9924224892063951 0.11967047496237393
1229982 -0.9911822491876697 0.11984499661443856
1230232 -0.9922585947182996 0.1203812150573108
1230481 -0.9922255499629589 0.12078293702175924
1230731 -0.9917357957097755 0.12018083328689384
1230731 -0.9913846196339662 0.12040094015214849
1230985 -0.991095380501439 0.12010273787569947
1231240 -0.992236573117846 0.12050486283410225
1231494 -0.992061089102006 0.1207115082834004
1231749 -0.9911134429928764 0.11960008697010013
1232003 -0.9921036913864342 0.1200598459842159
1232258 -0.9926404282316782 0.12038579065039363
1232512 -0.9928609034633075 0.12023480948054203
1232767 -0.9918110584806962 0.12010546954769018
1233021 -0.9926406663565664 0.12022769350293268
1233276 -0.9930090345314195 0.12050709144253482
1233531 -0.9930844706282826 0.12011902043381556
1233785 -0.992468119011665 0.11957921738159288
1234040 -0.9927800631283139 0.12036217853489699
1234294 -0.9922767665298965 0.11998010132176072
1234549 -0.9914321365196919 0.11990160765346686
1234803 -0.9919428222839631 0.1200478129833569
1235058 -0.9916415438695434 0.1206583539860293
1235312 -0.9921363516994949 0.12079397686932056
1235567 -0.9910529329162402 0.12087760996918762
1235822 -0.9918386683883054 0.12094041133965512
1236076 -0.9919851074629177 0.12100662610128003
1236331 -0.9916618300419064 0.12009506457962033
1236585 -0.9911076470289821 0.12011686715029178
1236840 -0.9916554539916743 0.12044215635455904
1237094 -0.9918548821331834 0.12098248897154702
1237349 -0.9911586480265471 0.1197848798374748
1237603 -0.9912982532774556 0.12024763478154386
1237858 -0.9916031642401765 0.12041923978058751
1238112 -0.9917856415897996 0.1203572654960437
1238367 -0.9907111514867236 0.12079603881796226
1238622 -0.9915122275264054 0.1208928348953096
1238876 -0.9918953951467449 0.12109420215222234
1239131 -0.9917811167486928 0.12046799224292007
1239385 -0.9919438055718505 0.12075479596675363
1239640 -0.9922597404299973 0.12081183610981792
1239894 -0.9922767897693059 0.12104802927453337
1240149 -0.9917328296357666 0.12034735375940435
1240403 -0.9916703107371052 0.12005394647271667
1240658 -0.9923385811266726 0.12081306424472654
1240913 -0.9924422834409428 0.1208848482313984
1241167 -0.9914663205639838 0.12035907515687227
1241422 -0.9919349143236414 0.12089673699776793
1241676 -0.9921822670250805 0.12180955434609361
1241931 -0.9921639607645074 0.12110907700093243
1242185 -0.9909465134744571 0.12134828613504274
1242440 -0.9916391356679184 0.12148131578735209
1242694 -0.9915332741541515 0.12147844421500863
1242949 -0.9912704936019564 0.1209191044668184
1243203 -0.991630553137571 0.12122758011787295
1243458 -0.9919360399631661 0.12104458682272645
1243713 -0.992354248808886 0.12095315018995195
1243967 -0.9918331858568075 0.12069571934191425
1244222 -0.9919843725089015 0.1205025131353545
1244476 -0.9922011397973537 0.12090317149810716
1244731 -0.9925064203914569 0.12057563281332272
1244985 -0.9917507323440797 0.12087283578263068
1245240 -0.9924658731474605 0.12126867866216018
1245494 -0.9926814034159996 0.12184966795589107
1245749 -0.9921137256573223 0.12115842546624674
1246004 -0.9918174038529456 0.12133504130583604
1246258 -0.9924988865526461 0.12162635491935427
1246513 -0.9927949207892548 0.12212616864624948
1246767 -0.9915779495752863 0.12134475564120387
1247022 -0.9922002659290838 0.12155988533522157
1247276 -0.9921128170771725 0.12194238732578512
1247531 -0.9922321917842789 0.12121245833593529
1247785 -0.9915982028646072 0.12056356473371467
1248040 -0.9914525140292785 0.1206219508393072
1248294 -0.9915782603837916 0.12203421193364632
1248549 -0.9925463678761863 0.12134581166872488
1248804 -0.9912155283801614 0.1214641162256898
1249058 -0.9920191138097899 0.12216484796751015
1249313 -0.9922109206851147 0.12179318764572063
1249567 -0.9915963709659409 0.1211402530211978
1249822 -0.9911299630187903 0.12086162776583835
1250076 -0.9926276105883757 0.12143154837752872
1250331 -0.9925745323715619 0.1218694773248377
1250585 -0.990904940280864 0.1216234312894784
1250840 -0.9917522421702427 0.12180906111198567
1251095 -0.9920224926878904 0.12200487317527464
1251349 -0.9925132766606528 0.12190396787186676
1251604 -0.9914747289007209 0.12206991319334073
1251858 -0.9919876148621606 0.12237565991015197
1252113 -0.9920075966376506 0.12234988560742853
1252367 -0.9916220663164319 0.12172831540629757
1252622 -0.991521885297672 0.1214264190948992
1252876 -0.9917742015375111 0.1220057927931202
1253131 -0.9914000649112243 0.12265236674773199
1253385 -0.9905275060065813 0.12172017507413901
1253640 -0.9916014665847747 0.12227046801340107
1253895 -0.9923039021301682 0.12261316614663005
1254149 -0.992504669220455 0.12222641328317581
1254404 -0.9916564965281383 0.12209060798595912
1254658 -0.9923656003865351 0.12217273343271196
1254913 -0.9927100485401198 0.12242418300964977
1255167 -0.9920722759174735 0.12173387525451396
1255422 -0.9920239997065997 0.12209337205040442
1255676 -0.9928140851742332 0.12228896873137136
1255931 -0.992355748166349 0.12277175624100958
1256186 -0.9920552976434649 0.1220516812622082
1256186 -0.9916529721333136 0.12243151377713567
1256445 -0.9921061648772241 0.12268497985409488
1256705 -0.992152736553253 0.1232306627674194
1256965 -0.9924666060957936 0.12225659003332578
1257225 -0.9912426371399511 0.12230190813909211
1257485 -0.9922526980253553 0.12261864930452808
1257744 -0.9920175346340149 0.12299420246346611
1258004 -0.9918225003715827 0.12260646413819244
1258264 -0.9918614314564465 0.12240726324949061
1258524 -0.9921521363595586 0.12288164841049648
1258784 -0.992335107473095 0.12308510234350177
1259044 -0.9908121197160334 0.12240003116006944
1259303 -0.991578581753674 0.12229716742309348
1259563 -0.991948712469241 0.12285161484207978
1259823 -0.9910543661814255 0.1223504609705172
1260083 -0.9915294095092606 0.12249723887939792
1260343 -0.9913616063365082 0.1230681918804392
1260602 -0.991444545334534 0.1227446949817549
1260862 -0.9906176504941672 0.12241905560844688
1261122 -0.9908409808085636 0.12281597012396038
1261382 -0.9918438048512794 0.12322718589194746
1261642 -0.9911265003937914 0.12205192999715027
1261902 -0.991567310795632 0.12258629013858638
1262161 -0.9917174047331305 0.12280928762001776
1262421 -0.9921528990375397 0.12361617792285655
1262681 -0.9911527788555551 0.12267409986460347
1262941 -0.9918326217333497 0.12307246505807715
1263201 -0.9917366866608839 0.12322473064680281
1263460 -0.991957199018822 0.12313244781064116
1263720 -0.990739903366929 0.12310499712406453
1263980 -0.9918575080157808 0.12331016112059487
1264240 -0.9920040809354846 0.12290369719361319
1264500 -0.9917316601755156 0.12272546730788791
1264760 -0.991426151983608 0.12253357931850554
1265019 -0.9915838990740219 0.12291906044423985
1265279 -0.9919098896358318 0.12302334904555394
1265539 -0.990716515326465 0.12300787874849865
1265799 -0.9915107106077532 0.12330617803565573
1266059 -0.9917733153278554 0.12411923313249677
1266318 -0.9920846557894762 0.12321419469290855
1266578 -0.9916444314036845 0.12349880465763544
1266838 -0.9923782393628249 0.1241675728599498
1267098 -0.9927743376863659 0.12455978803041702
1267358 -0.9923298237372392 0.1230924632220722
1267618 -0.9922034055753203 0.12350866677146999
1267877 -0.9927009258508729 0.12357163328150811
1268137 -0.9925089341630318 0.12357325165384557
1268397 -0.9915634255354886 0.12335156487822109
1268657 -0.9919317700298349 0.12419265087416194
1268917 -0.9917922817771672 0.12384689493412958
1269177 -0.9915623983755297 0.12336732157881476
1269436 -0.9913841961260517 0.12410535505950462
1269696 -0.9913055710746161 0.12425115550867283
1269956 -0.9918102240560563 0.12447072074430583
1270216 -0.9901141101623434 0.12375019294305414
1270476 -0.9914588111231062 0.12413303424032067
1270735 -0.9921618146035939 0.12432016351364408
1270995 -0.991385435089978 0.12293706036747282
1271255 -0.9914078723883848 0.12331334288899555
1271515 -0.9921656106092998 0.12340108651156412
1271775 -0.9921363247109317 0.12359426855102566
1272035 -0.9902217758123554 0.12301279582160445
1272294 -0.9916716988139429 0.12334898009477108
1272554 -0.9916791124136406 0.12359359177874751
1272814 -0.9916351628944317 0.12378193255849332
1273074 -0.9907020114814469 0.12360542950935818
1273334 -0.991825921802478 0.12415018366839853
1273593 -0.9928716309272402 0.12416484285082952
1273853 -0.992011875607782 0.12377325634710155
1274113 -0.9912390736069527 0.12394134443952198
1274373 -0.9918319582770087 0.12437901485961828
1274633 -0.9912713924974256 0.12428743448762533
1274893 -0.9903488487311773 0.12411779339535293
1275152 -0.9904156460675153 0.12447850019066908
1275412 -0.9903992208955262 0.1240976660735158
1275672 -0.9900383161580044 0.12293446752264592
1275932 -0.990230238087907 0.12364460737985683
1276192 -0.9920497139208936 0.1242900835187458
1276451 -0.9917361900193301 0.12463847844886514
1276711 -0.9907743807371197 0.12397452103855902
1276971 -0.9912362722723059 0.12426586888746981
1277231 -0.9924352362273271 0.12462203354394423
1277491 -0.9921502143627878 0.1242928219291387
1277751 -0.9914623330656799 0.12406205670533832
1278010 -0.9923796035642003 0.12487208676853949
1278270 -0.9921434813281362 0.12453983853860107
1278530 -0.9916332457560239 0.12413039277976709
1278790 -0.9916575691129647 0.12431235168375661
1279050 -0.9920554329772265 0.12443897373254416
1279309 -0.991907516285118 0.12478067979755296
1279569 -0.9904919225541968 0.12427735901195655
1279829 -0.9909701203438964 0.12464434833414108
1280089 -0.9917075141765584 0.12530154648784245
1280349 -0.9919224150201529 0.12483183168710534
1280609 -0.9903465758060007 0.12463201404193021
1280868 -0.9913468847038247 0.1250843452689842
1281128 -0.9914062151424042 0.12558879079048252
1281388 -0.9906191856260174 0.12449038594653067
1281648 -0.9911876632694387 0.12489525448835416
1281908 -0.9914228510461233 0.1254301679346767
1282168 -0.9918403413793796 0.1252966549443568
1282168 -0.9905171469409468 0.12459252081191774
1282433 -0.991687338527515 0.12492929122444175
1282698 -0.991642492130526 0.125333421814422
1282963 -0.9906597801015112 0.12439837219868725
1283228 -0.9906622123919796 0.12461997304253737
1283493 -0.9911731071043615 0.12513493072213774
1283759 -0.9911656506742601 0.12498829307958156
1284024 -0.9904256873627723 0.1249250740993242
1284289 -0.991231506197177 0.12553115641940357
1284554 -0.991691650142003 0.12536665918333934
1284819 -0.9910746878005054 0.12490598152108033
1285084 -0.9915422484020188 0.124685666813681
1285350 -0.9917317806237042 0.12523641498549623
1285615 -0.9916625475976003 0.12519174223263707
1285880 -0.9905200357052363 0.12494913318566979
1286145 -0.9914340170992149 0.12524459624099848
1286410 -0.9916290575817374 0.1255381548647704
1286676 -0.991173833505819 0.1251681272709728
1286941 -0.9913537602804599 0.12500100576905163
1287206 -0.991876985746945 0.12567347755649552
1287471 -0.9919523965527455 0.1258338300398762
1287736 -0.9906365213350571 0.1251603283174614
1288001 -0.9917033692711459 0.12594221322517118
1288267 -0.9914500840730357 0.12573942145098943
1288532 -0.9912822551088943 0.12561984226180717
1288797 -0.9918192953670878 0.12561183723340383
1289062 -0.9919817542898676 0.1256198767506215
1289327 -0.9919469719360591 0.12563910580722493
1289593 -0.9913484292155137 0.12565184849948288
1289858 -0.9917459240255673 0.12577298799379033
1290123 -0.9920745133301015 0.12624855653003536
1290388 -0.9916985149678712 0.12563056425998465
1290653 -0.9917790378561498 0.12580324797871772
1290918 -0.9916236220782516 0.12608593135989316
1291184 -0.9916730313101592 0.12567257815236896
1291449 -0.9905746485540442 0.12571844310040137
1291714 -0.9913395661064637 0.12601281200375045
1291979 -0.9919049310869333 0.1270063931912049
1292244 -0.9920656676018588 0.12584766447500945
1292510 -0.9915376376618271 0.12583643577292172
1292775 -0.9918377835363932 0.12542446472065663
1293040 -0.9918045811867928 0.12638398084371907
1293305 -0.9909268676514182 0.12569383357168668
1293570 -0.9909360034718939 0.1256640231726727
1293835 -0.991242581852438 0.1260895823142182
1294101 -0.9914671579087923 0.12572944896958796
1294366 -0.9903761393041993 0.1252286537857668
1294631 -0.9908803743377786 0.12548125222759407
1294896 -0.9912508334934129 0.12621297630878883
1295161 -0.9906744548097272 0.12575895509065407
1295427 -0.9909488449937339 0.12583852247849095
1295692 -0.9910493039334934 0.12671735603183776
1295957 -0.9915832768796322 0.12587227650871302
1296222 -0.9904201717903595 0.1256621819429364
1296487 -0.9914008546013757 0.1260968531825427
1296752 -0.9917149036295545 0.1267221618377511
1297018 -0.9908882523030577 0.12589364905306602
1297283 -0.9909868893201541 0.1261080028464447
1297548 -0.9917121710590016 0.1267126421211161
1297813 -0.9913241216746047 0.12619539553704642
1298078 -0.9906661525627679 0.12576319803816757
1298343 -0.9915194987738755 0.12613160187371714
1298609 -0.9917639779781878 0.12692879757220663
1298874 -0.9910390367416008 0.12595222665813807
1299139 -0.9914835953927904 0.12643826612980244
1299404 -0.991315972413847 0.12705139493984477
1299669 -0.9924779521197139 0.12720074989635272
1299935 -0.9904783993777642 0.12633666685296116
1300200 -0.9917329626942927 0.12690579209143782
1300465 -0.9918462425920062 0.12664336306706472
1300730 -0.9914958634296174 0.12665218046937857
1300995 -0.9913861162823026 0.12661917904312947
1301260 -0.9917634703786864 0.1266748175341727
1301526 -0.9918681008061997 0.1271131203339773
1301791 -0.9897346065694553 0.1263683471592626
1302056 -0.9915545278143596 0.12691578195162473
1302321 -0.99114140106834 0.12734830665804647
1302586 -0.9906743392522447 0.12658974010531046
1302852 -0.9911052813529654 0.12685449086723216
1303117 -0.9911864114488714 0.12756083325317524
1303382 -0.9918002978085535 0.127557919819972
1303647 -0.9903381607467766 0.12671618644785043
1303912 -0.9913809987765946 0.1273945092238765
1304177 -0.9917581239907628 0.1273298861533628
1304443 -0.9911562943919782 0.12661411964934438
1304708 -0.9907691338156851 0.12665579780833178
1304973 -0.9910478982211247 0.12699762754275232
1305238 -0.991301162552596 0.12735506459191942
1305503 -0.9896558518368088 0.12649618119715292
1305769 -0.9907386164531538 0.12706309741762611
1306034 -0.9908114069696509 0.12712437053312065
1306299 -0.9906072798656358 0.1269324465560891
1306564 -0.9907900277442947 0.12657279062929816
1306829 -0.9908308589002646 0.12708556819613062
1307094 -0.9914091222834429 0.12681868454938133
1307360 -0.9896272210758726 0.12618127376245106
1307625 -0.9911067455468754 0.127608985990738
1307890 -0.9913806546501736 0.12741613647432662
1308155 -0.9913645239899808 0.12694147585964946
1308420 -0.99084333437376 0.12720074818340232
1308686 -0.9911703171213042 0.12739257115502403
1308686 -0.9909931062753676 0.12813863266173414
1308956 -0.9916485495742252 0.12724347721128704
1309227 -0.9904699801497598 0.12752723067639707
1309498 -0.990835526449253 0.1278039258197637
1309768 -0.9914059438513638 0.1283222202244412
1310039 -0.9905326908309802 0.1277984638174166
1310310 -0.991308173248594 0.12824119044959104
1310580 -0.9916327053929053 0.12798580431547
1310851 -0.9918811833255354 0.12751826190387783
1311122 -0.9907544172312046 0.12813635905229673
1311392 -0.9917067241837756 0.1276884347008589
1311663 -0.9917280298979063 0.12819632598289832
1311934 -0.9907641023287579 0.12775957098293983
1312204 -0.9909873773993703 0.1283465980862666
1312475 -0.9912170636763423 0.1280389160499238
1312746 -0.990499133832017 0.12799139037657015
1313016 -0.9908722470583021 0.1279941978598453
1313287 -0.9909358050146571 0.12847692073118927
1313558 -0.9911832650572441 0.12816620630313516
1313828 -0.9908669221179928 0.1276061976276205
1314099 -0.99103520685984 0.12791708441049326
1314370 -0.9921820363742082 0.12849726443851328
1314640 -0.9918413186899384 0.12803070603737168
1314911 -0.9918170064587021 0.1276633588623249
1315182 -0.9918116842057438 0.12835630065114167
1315452 -0.9917886591181044 0.1276767932450785
1315723 -0.9908835756271651 0.12767060665439217
1315994 -0.9914966309065408 0.1282724478511602
1316264 -0.991588156792623 0.12860540352979952
1316535 -0.990862329731266 0.12772339066364566
1316806 -0.9910320000484582 0.127977836697225
1317076 -0.9914185685585252 0.1282420691408646
1317347 -0.9922051616284734 0.1287041239923916
1317618 -0.9908132766102996 0.12765935484585134
1317888 -0.9917222237656859 0.12863717323374071
1318159 -0.9911311686542785 0.12844841367728335
1318430 -0.9909005925526303 0.12745193536337437
1318700 -0.9905802058814297 0.12775197364565516
1318971 -0.9911769890697664 0.12811144188905546
1319242 -0.9914062296723037 0.12799849676471234
1319512 -0.9905178501608504 0.1276771797471413
1319783 -0.9912630694734366 0.12867763927527212
1320054 -0.9912443101597888 0.1290384312888932
1320324 -0.9904126487750878 0.12833911791043068
1320595 -0.990777090620248 0.12818187515657956
1320866 -0.9917044790998165 0.1286216938571285
1321136 -0.9918513271263953 0.12925043739834746
1321407 -0.9900912300943501 0.1281186885004511
1321678 -0.9915155543211548 0.12871439826906286
1321948 -0.9921295911033116 0.1287488559275583
1322219 -0.9916776404236608 0.1282959382471777
1322490 -0.9913821151427611 0.1284798718587936
1322760 -0.9919513833715087 0.1293396129597887
1323031 -0.9915302179094284 0.1292740610444269
1323302 -0.9900469292419664 0.1282704143872877
1323572 -0.9911210872174256 0.12888781512151723
1323843 -0.9912388895788399 0.12958056596983236
1324114 -0.9910537607800392 0.12880757343383106
1324384 -0.9912088871849037 0.12884671747666282
1324655 -0.991557709521272 0.12932249767773984
1324926 -0.9918106279184398 0.12893771755396854
1325196 -0.990921552880749 0.12857342356830823
1325467 -0.9918630507081896 0.12848933885022115
1325738 -0.9919466297311088 0.12935718918270603
1326008 -0.9914449131566205 0.12895971538320633
1326279 -0.9915477042202836 0.12872358884652849
1326550 -0.9920479526156699 0.12961611316490612
1326820 -0.9918553349981523 0.12876636732620578
1327091 -0.9908334883521538 0.12903626741801713
1327362 -0.9911787029388682 0.12940140379924797
1327632 -0.9917227137259553 0.12965415497146707
1327903 -0.9906529939536721 0.12928391061551742
1328174 -0.9916235413145255 0.1298136574422221
1328444 -0.9913108110448489 0.1304728457306682
1328715 -0.9916709334941752 0.12962450037596024
1328986 -0.9910266427443345 0.12926648830039272
1329256 -0.9916680915691689 0.12980229418634606
1329527 -0.9918131008692364 0.12985894211631477
1329798 -0.9901278537585342 0.1290836167269834
1330068 -0.9915648495540867 0.1300126718559558
1330339 -0.991620899484112 0.12979645329316009
1330610 -0.9911996049988168 0.12951246513966777
1330880 -0.9907496155550899 0.12926109487679355
1331151 -0.989752319129525 0.12938018304149035
1331422 -0.9906920207548938 0.12968610119402033
1331692 -0.98941713227357 0.12921482200480455
1331963 -0.9906478535982843 0.12992325740004687
1332234 -0.9907496579151615 0.13020214301995092
1332504 -0.9905810185805658 0.12986191572981498
1332775 -0.9908539664382574 0.1298710697144886
1333046 -0.99113862085246 0.13070357243849265
1333316 -0.9914119783551063 0.13018376209413055
1333587 -0.9903141688996253 0.1293877046487914
1333858 -0.9912676532060397 0.1300023069031122
1334128 -0.991360200744426 0.13033011824355342
1334399 -0.9900768235892826 0.1295751862065574
1334670 -0.9908630767648859 0.13020670060926756
1334940 -0.9908495079816954 0.1305540212100457
1335211 -0.991492624912229 0.12973665456041106
1335482 -0.9898430610392197 0.13019983576818003
1335753 -0.9906469509918235 0.13088263299769579
1335753 -0.9912781460025322 0.1309896904222262
1336029 -0.9915132722155834 0.13107937269288045
1336305 -0.990189171472926 0.13005577088329087
1336581 -0.9916403133587315 0.13082508744934024
1336858 -0.992161327873746 0.13142519304337533
1337134 -0.9909506362545706 0.13032991698719268
1337410 -0.9912584167355653 0.13044508880847894
1337686 -0.9918181985400937 0.13083179652119373
1337963 -0.9912894288232001 0.1300548132384521
1338239 -0.9904361259888483 0.1301296588835473
1338515 -0.9912274954862227 0.1308719992138385
1338791 -0.9912400075544743 0.13076534582429092
1339068 -0.9897950727754251 0.13032175782718605
1339344 -0.9906155560196142 0.1307619904905597
1339620 -0.9915146131117681 0.131508598307543
1339897 -0.9909333476718181 0.13052200780426393
1340173 -0.9903865853805324 0.13050699278938802
1340449 -0.9899839388916913 0.13114777308066472
1340725 -0.9901850115462927 0.13048480197940748
1341002 -0.9904966139595982 0.1302465290683251
1341278 -0.9908531328528407 0.13063258885439794
1341554 -0.9909144208771016 0.13115766209051846
1341830 -0.9906614500680432 0.13034286224031885
1342107 -0.9906368917689468 0.1307925661689215
1342383 -0.9909360171645428 0.1313428194533696
1342659 -0.991233650673107 0.13071099644510317
1342936 -0.9901209775905032 0.13085835583141947
1343212 -0.9909656519579096 0.13174895617439408
1343488 -0.9911553281778653 0.13165922010341266
1343764 -0.9915901195279059 0.13107768410907875
1344041 -0.9912936804930231 0.13105644235759026
1344317 -0.9920248310546524 0.13152810153132657
1344593 -0.991561412758133 0.13100153407622447
1344869 -0.9909730420654578 0.13108190840817177
1345146 -0.990664546481328 0.13107922687948118
1345422 -0.9907233056959143 0.1310988056260147
1345698 -0.989281780362928 0.13024056673051654
1345974 -0.9905450638806118 0.1313458918283579
1346251 -0.9896404597629407 0.1306954820533507
1346527 -0.988393964286311 0.1300745592764122
1346803 -0.9855907548317387 0.1298277129173386
1347080 -0.9888100841686085 0.13132154918604055
1347356 -0.9895431897454646 0.1299768250402764
1347632 -0.9890886660311315 0.13032884822552007
1347908 -0.9961334394260108 0.13373799487528026
1348185 -0.9943799849104319 0.13300250578724654
1348461 -0.9928922665215331 0.1315339057256224
1348737 -0.9923093442174412 0.1317844578144991
1349013 -0.994284471807308 0.13243208483474112
1349290 -0.9917815684328416 0.13175222857171762
1349566 -0.987621096530103 0.13103571521194687
1349842 -0.9932869246779884 0.13144920794092504
1350119 -0.9986102095752075 0.13410894672999094
1350395 -0.9890273751467089 0.13042935133079508
1350671 -0.9889830028774399 0.13066769927233715
1350947 -0.9843905574857031 0.12865499618957943
1351224 -0.9912907263105819 0.1324481226956547
1351500 -0.9893006041678006 0.13105450087229847
1351776 -0.9911595823139071 0.13186582636435562
1352052 -0.9911856410230742 0.1311866423879972
1352329 -0.9905564293265872 0.1314537927158002
1352605 -0.989516990976904 0.13165046222714766
1352881 -0.9899628298512286 0.13126327431785081
1353158 -0.9876010634356013 0.13059292035161554
1353434 -0.9890081596468808 0.1311164840286706
1353710 -0.9895851792489534 0.13166515077028781
1353986 -0.9902518599097018 0.13124962125173856
1354263 -0.9894573426856036 0.1314899664571814
1354539 -0.990593014742435 0.13193731355967972
1354815 -0.990596376901944 0.13201570600842036
1355091 -0.988432983426002 0.13056486344352536
1355368 -0.9902755885829785 0.13195009325038473
1355644 -0.9914350670615867 0.132040620600446
1355920 -0.9916193756454714 0.13160771856894513
1356196 -0.9903296486128365 0.13133947726313855
1356473 -0.9922721490308608 0.1322549710246821
1356749 -0.9910058826480953 0.13157019843235296
1357025 -0.9886621091946328 0.13081945169875303
1357302 -0.9906216447650913 0.13217779139380653
1357578 -0.9906197368931051 0.13230844326534302
1357854 -0.9893791711552752 0.13151085908080754
1358130 -0.9900177963251283 0.1323166805389862
1358407 -0.9904492200795809 0.13203226597191345
1358683 -0.990287729286543 0.1312224057927457
1358959 -0.9899640048577351 0.13091852062735188
1359235 -0.9910836178679734 0.13182277292185532
1359512 -0.9911258650982957 0.13201074997086798
1359788 -0.9892120589767885 0.1308165388023862
1360064 -0.9902331886097098 0.13210807910131575
1360341 -0.9911378817984262 0.1325000209167889
1360617 -0.9889857289772997 0.13155438709537276
1360893 -0.989921983734015 0.13171969239973966
1361169 -0.990328342001213 0.1322050528435948
1361446 -0.9908398438294994 0.13229092000856998
1361722 -0.9895040383899287 0.13197823363112762
1361998 -0.9903544593992791 0.1325251601531707
1362274 -0.9908303680546555 0.13286105482297256
1362551 -0.9892807991529794 0.13188851761120748
1362827 -0.9899000251900641 0.13249702329465127
1363103 -0.9905546767219512 0.13266787521064052
1363380 -0.9907323133824453 0.13247494503815738
1363380 -0.9899552198573974 0.13229602559318004
1363661 -0.9904982752298668 0.1325592806684031
1363943 -0.9908504552360219 0.1325958876292115
1364225 -0.9906912530414576 0.13253439579791843
1364507 -0.9900345304284529 0.13227635618952346
1364789 -0.9905803539610483 0.1323419576770524
1365071 -0.9906524532816616 0.1325168179419811
1365353 -0.9893877953429802 0.13228166148161294
1365635 -0.9896300341154138 0.13269320359710363
1365917 -0.9902275362272306 0.13289918572326237
1366199 -0.989901598539492 0.1322250534101208
1366481 -0.9904979483379608 0.13293668484511503
1366763 -0.9907378024101008 0.1329045368805165
1367045 -0.9905998876359584 0.1326671633345572
1367327 -0.9894178705558317 0.1329242181926494
1367609 -0.9903947913040931 0.13285621577751822
1367891 -0.9904624832870139 0.13280459066250372
1368173 -0.9891121547965424 0.1320551742133105
1368455 -0.9903537153324969 0.13300873350152764
1368737 -0.9904155322740018 0.13361685670214418
1369019 -0.9896862390520687 0.13251565131575962
1369301 -0.9899529072497515 0.13308356034376026
1369583 -0.9902878020953182 0.13348956626634892
1369865 -0.9905753375205542 0.13317434097918304
1370147 -0.9895582920676164 0.1331224986338906
1370429 -0.9905383178759414 0.13335871055938872
1370711 -0.9910319000867438 0.1338234472412945
1370993 -0.9901000632682312 0.13310862351175645
1371275 -0.990222236200326 0.13337992569639293
1371557 -0.9899683575695675 0.1336532608907413
1371839 -0.9896967793652117 0.13292015776059943
1372121 -0.9895674520779177 0.13333786957049745
1372403 -0.9899606253137934 0.1335631687589453
1372685 -0.9900138993889274 0.13364896131726883
1372967 -0.9896504922382036 0.13374454053053245
1373249 -0.990014651223639 0.13415912381961623
1373531 -0.9903652751650559 0.13432648645612444
1373813 -0.9888247724073733 0.13343954627831087
1374095 -0.9902029701364408 0.13397315055143239
1374377 -0.9902530667658316 0.1340854065675175
1374659 -0.9897450382977654 0.1333344742958644
1374941 -0.9900135081237793 0.13389012139818676
1375223 -0.990184367843179 0.13407030039823478
1375505 -0.990245494237317 0.1334777475366272
1375787 -0.9892467644528912 0.13340236355856852
1376069 -0.9897537749879988 0.13383662169349897
1376351 -0.9904896955417273 0.13355882105370598
1376633 -0.9888397583297585 0.13318866113866734
1376915 -0.9898788202642796 0.13369630496143625
1377197 -0.9901258486497008 0.13486616324311884
1377479 -0.9894912393111585 0.13332736970481116
1377761 -0.9900995622259982 0.13396909427273676
1378043 -0.9906897319892667 0.13399888921798292
1378325 -0.990208966811607 0.13310990402605696
1378607 -0.9898332458954505 0.13348320925201929
1378889 -0.9901757903105489 0.13398159215868155
1379171 -0.9904997833283022 0.13369709631364263
1379453 -0.9890885617289918 0.1333851074634954
1379735 -0.9900654852523909 0.13383514726893656
1380017 -0.9901393943924149 0.13477926078905617
1380299 -0.9885127431309318 0.13366301841612893
1380581 -0.9897762626564967 0.1345625664051246
1380863 -0.9897194443718085 0.13503222836718876
1381145 -0.9899717534973856 0.13450049031386416
1381427 -0.9897221823030707 0.13425416413351912
1381709 -0.9905610888949384 0.13476622131554358
1381991 -0.9906270042561465 0.1337568971769874
1382273 -0.9894603644871581 0.1337843725184856
1382555 -0.9906683510594415 0.13494653058876074
1382837 -0.9906164774711452 0.13474413338381297
1383119 -0.989385873652933 0.1337123364870289
1383401 -0.9901206862173256 0.1348140203580332
1383683 -0.9904319876921779 0.134806077375658
1383965 -0.9896482622747402 0.13430759917493024
1384247 -0.9897314507168936 0.13490268433121425
1384529 -0.9901814352340131 0.13519228794684196
1384811 -0.9904816290803539 0.13478625149178575
1385093 -0.9894370223195028 0.13451223590627875
1385375 -0.9901130674331037 0.13486416667773554
1385657 -0.9911388088967557 0.13525336228998738
1385939 -0.9898569799723137 0.1340433031180524
1386221 -0.9902213947597378 0.13513191307308622
1386503 -0.9905704198479518 0.13522839549858826
1386785 -0.9900474859177109 0.13437235642864623
1387067 -0.9897115160182116 0.13479029195803519
1387349 -0.9899730359723097 0.13487167279488999
1387631 -0.9899737243145286 0.1350706450904179
1387913 -0.9889260268390924 0.134813977234975
1388195 -0.9902491303099071 0.1356262701616391
1388477 -0.9905465180072028 0.1357787981292073
1388759 -0.9893427946239807 0.134990536076246
1389041 -0.990423023959034 0.1355834940336128
1389323 -0.9906016627920812 0.13567296635758744
1389605 -0.989968800475663 0.13441911160106843
1389887 -0.9902833621721141 0.13512819269782061
1390169 -0.9904491705922154 0.13509065645459764
1390451 -0.9903613778662698 0.1348699644085341
1390733 -0.9889613656322409 0.13487807243924307
1391015 -0.9897676655263671 0.13568813659774015
1391297 -0.9905400394596836 0.13586623681327492
1391579 -0.9891576962760164 0.1351007866267783
1391579 -0.9900839971954631 0.13591921604987667
1391866 -0.9902853494849716 0.13635186869693244
1392154 -0.9899263971641807 0.13581511432997342
1392442 -0.9902183117196844 0.1354887638272139
1392730 -0.9903380853171212 0.13580455740238476
1393018 -0.9909574069758068 0.13529600482744222
1393305 -0.9901055056885018 0.1349338350198871
1393593 -0.9907227601640635 0.1355615182420983
1393881 -0.9911879386026095 0.13538733045512644
1394169 -0.989363013315099 0.13489858406233424
1394457 -0.9904934281080846 0.13578977015710392
1394744 -0.9904196631681079 0.13661276197029587
1395032 -0.9894320010019761 0.1358032317407013
1395320 -0.9899366038757439 0.13610645104545208
1395608 -0.9899913871177394 0.13673731038559925
1395896 -0.9901980969925883 0.13585950155239127
1396183 -0.99031684111841 0.1362696826720792
1396471 -0.9910996560160222 0.13637313109511567
1396759 -0.9905315316592063 0.13633788277497777
1397047 -0.989992217202125 0.1356582698632145
1397335 -0.9908465614826288 0.13648638513292022
1397623 -0.990661324934119 0.13564193942742947
1397910 -0.9897109782912404 0.13582351970566267
1398198 -0.9906144235399613 0.13647604265708818
1398486 -0.9909095891032687 0.13668657732488132
1398774 -0.9900337964663405 0.1360679685127572
1399062 -0.9910400740950166 0.136581852423522
1399349 -0.9907317042308175 0.1368997953070413
1399637 -0.9900763865522395 0.13598348695440562
1399925 -0.9902256004966765 0.13634457096224528
1400213 -0.9907408270139546 0.1363706352073135
1400501 -0.9905086206396148 0.13570430517832768
1400788 -0.9899351812054558 0.13550957409642025
1401076 -0.9907479916704012 0.13667028918746502
1401364 -0.9900243459410624 0.13596490414939222
1401652 -0.9894098136418986 0.13551601789217488
1401940 -0.990038383359448 0.1365405319669088
1402227 -0.9905365746733045 0.1368200837332139
1402515 -0.9893248336132872 0.1360299496599606
1402803 -0.9899777866670519 0.13683896927101125
1403091 -0.9899398453408508 0.1372008549518555
1403379 -0.9895551580344191 0.13624057309226548
1403667 -0.9900008715412286 0.13684593008567142
1403954 -0.9904248231723486 0.1372853265865564
1404242 -0.9901347088387648 0.1365564425067504
1404530 -0.9903100723599011 0.13657498448075453
1404818 -0.990517774051072 0.1369445455928775
1405106 -0.9907450312368535 0.13703055242571552
1405393 -0.9895069986954538 0.136560258191271
1405681 -0.9892481931777558 0.13695315112929635
1405969 -0.9901296038055353 0.137791811833891
1406257 -0.9901822331237394 0.1370586389170585
1406545 -0.9893807325780919 0.13658078172069132
1406832 -0.9900754986179136 0.13724826816325886
1407120 -0.9903389277020693 0.13753721939021327
1407408 -0.9890768479769202 0.1364022170209401
1407696 -0.9900394687309626 0.13736441308393574
1407984 -0.9901169141622889 0.13729148425461865
1408271 -0.9895732855018664 0.13633452551174244
1408559 -0.9892717935648707 0.1367970602050831
1408847 -0.989904265440623 0.13675911716169795
1409135 -0.9898414744933127 0.13630246544995056
1409423 -0.9889813421566828 0.13632248903242702
1409711 -0.9897991165062634 0.13694954642419319
1409998 -0.989881356985312 0.1367615659839257
1410286 -0.9885130058741559 0.1362446109473589
1410574 -0.9892315007771937 0.13754629565650142
1410862 -0.989793483011201 0.13743435122679487
1411150 -0.9885023146120677 0.13698365175573046
1411437 -0.9897026307788913 0.13749084637180917
1411725 -0.9898962377168812 0.13741139634895483
1412013 -0.9895067977911742 0.1370292737935398
1412301 -0.9891371343804909 0.13709043254519168
1412589 -0.9895499521274149 0.1374680088677552
1412876 -0.9895761972147096 0.1374937988353212
1413164 -0.9879641114028989 0.13689270537034987
1413452 -0.9896524669247277 0.1375904078825996
1413740 -0.9892925327371033 0.13716203955499576
1414028 -0.9885110888160307 0.13664012648905854
1414315 -0.9894188027125821 0.1375415300749603
1414603 -0.9891936006749674 0.1381058921288988
1414891 -0.9886629922366538 0.13753065911944973
1415179 -0.9894641434355607 0.13799526007535642
1415467 -0.9897838165312868 0.13798063120834017
1415755 -0.9894344122404611 0.13733729761642022
1416042 -0.9891343762950525 0.1369331017907332
1416330 -0.9895170810493148 0.13784607690720857
1416618 -0.9893615624237794 0.13741235079967426
1416906 -0.9880213104903219 0.1376453194137233
1417194 -0.9892990842294673 0.1385540151851698
1417481 -0.9898971138198237 0.13821399509836127
1417769 -0.9887209649164552 0.13757553488552327
1418057 -0.9900368593807561 0.13816920636185956
1418345 -0.990797636381263 0.13880622064730372
1418633 -0.9898644832272471 0.13734843336506505
1418920 -0.9901419692713254 0.13837416320861193
1419208 -0.9904154683933014 0.13848933154875298
1419496 -0.9902255395231467 0.13782931774107246
1419784 -0.9896745660840885 0.13820521847253697
1420072 -0.990271117687453 0.1383814921874021
1420360 -0.9901173600636664 0.1382201795169008
1420360 -0.9898826317117448 0.13822835476364495
1420653 -0.9897702932203216 0.13909765878692237
1420947 -0.9887484492981612 0.13789298378164253
1421241 -0.9899079361799803 0.13865608182218486
1421535 -0.9905770337314016 0.13910333572050942
1421828 -0.9901415784953398 0.13822895032302188
1422122 -0.9903737763531849 0.1389676513171072
1422416 -0.9911608027738102 0.13906951992297187
1422710 -0.9906368995242015 0.13838735042830086
1423003 -0.9897757131003128 0.13811306177534774
1423297 -0.9902557643482031 0.13830875696045003
1423591 -0.989624914620836 0.13795386071699117
1423885 -0.9884633039863454 0.13841632846706764
1424179 -0.9889165552617701 0.13860227572221442
1424472 -0.9886185344383924 0.13853241349941117
1424766 -0.987853089092205 0.13852573182371358
1425060 -0.9878453737251978 0.13941418241435688
1425354 -0.9890081552021498 0.1388953567251869
1425647 -0.9896215987417736 0.13898714066851417
1425941 -0.9898058608405584 0.13875425717093315
1426235 -0.9895554797483213 0.13929714050925018
1426529 -0.9891392106671033 0.13871248597390115
1426822 -0.9893892545173419 0.1389655357841459
1427116 -0.9897365837370588 0.13878179465051604
1427410 -0.9892240810783098 0.13855817708477747
1427704 -0.9883099815310983 0.13843660454604606
1427998 -0.9890907283258572 0.1388552893561693
1428291 -0.9888633319688943 0.13859593990133748
1428585 -0.9886633002913285 0.13873991318778245
1428879 -0.9891198704562821 0.13947426104983904
1429173 -0.9894342815499233 0.13914947085475488
1429466 -0.9890416336220476 0.13886954012005875
1429760 -0.9900732132175202 0.139671624006334
1430054 -0.9897158747554283 0.13917927078777534
1430348 -0.9889917500243787 0.13818726843174667
1430641 -0.9894697824349985 0.13859404467621883
1430935 -0.9895655092228233 0.13880351346445896
1431229 -0.9884989617221414 0.13817079142906055
1431523 -0.988866142965032 0.13891347443138166
1431817 -0.9893363993449296 0.13901262425322708
1432110 -0.9888282248052636 0.13862886789288023
1432404 -0.988105863338309 0.13880290971961232
1432698 -0.9890946464685714 0.13921904210024635
1432992 -0.9888734113721406 0.1391115497013643
1433285 -0.988471484983253 0.1388806094013606
1433579 -0.9894208816905062 0.13929353237376227
1433873 -0.9893408905560368 0.13894320296769988
1434167 -0.9882666283849877 0.13851639677757155
1434460 -0.9893239749951216 0.1398321921405506
1434754 -0.9897921525075585 0.13917737536827957
1435048 -0.9878583516300627 0.13802870860806574
1435342 -0.9889268106266819 0.1392863992884788
1435636 -0.9890577298836738 0.14046301839819214
1435929 -0.9878113078005346 0.13919538278615018
1436223 -0.9890271352563614 0.13995898056669945
1436517 -0.9893315501995124 0.14027951583548506
1436811 -0.9892012766390479 0.1395580602261324
1437104 -0.9893978258583297 0.14002700723373118
1437398 -0.9902311145383617 0.13946746448148883
1437692 -0.9899904805252296 0.13982613599451477
1437986 -0.98973484654307 0.13945675178301484
1438279 -0.9901892734495181 0.14000889930274435
1438573 -0.9895768391123946 0.13967413987377453
1438867 -0.9891604358315311 0.13929880371502157
1439161 -0.990093470972587 0.14028074847845548
1439455 -0.9903110052265376 0.13998072700443606
1439748 -0.9890574731993784 0.1399419048473836
1440042 -0.9898969839376999 0.14103503613797772
1440336 -0.9900480186412879 0.1411525274581763
1440630 -0.9890719535227243 0.14003554246612132
1440923 -0.9901374494645573 0.1411554122588231
1441217 -0.990142306222885 0.1404952046311303
1441511 -0.9893841579352115 0.13976163546265166
1441805 -0.9899314236703135 0.13965933041909717
1442098 -0.9898693890904247 0.14074585848511612
1442392 -0.9892504071459892 0.1399041899065252
1442686 -0.9894666644995145 0.1403726099898118
1442980 -0.9898108894759907 0.139976247446603
1443274 -0.9891509212875219 0.1404317130395278
1443567 -0.9884987722264377 0.14054059959138948
1443861 -0.9891194383437695 0.14041097679095044
1444155 -0.9893060858843653 0.1402789249746605
1444449 -0.9891879891373575 0.1402538484279363
1444742 -0.9894103942545132 0.1405985256404705
1445036 -0.98930809415581 0.14079064321537182
1445330 -0.9884320702469682 0.1400295214009003
1445624 -0.9890258677139222 0.14036769458836293
1445917 -0.989159661533265 0.14112208411234972
1446211 -0.9887209634357945 0.14053979665461866
1446505 -0.9896209410665108 0.14082189158331637
1446799 -0.98959785376639 0.1410386760847158
1447093 -0.9893750948437195 0.1406732984857048
1447386 -0.9895293970759761 0.14044017562413738
1447680 -0.9895333912552525 0.14071605387089647
1447974 -0.9889784106158498 0.14077294240805968
1448268 -0.9888998376565791 0.1405888661637761
1448561 -0.9896549427091232 0.14137956772793706
1448855 -0.989756961299459 0.14108293575632125
1449149 -0.9884688594323154 0.139976813099706
1449443 -0.9894691132132303 0.14118858090935532
1449737 -0.9896687790525707 0.14148226229119454
1449737 -0.9888900815771511 0.14107541813999055
1450036 -0.9886312705775756 0.140766269422471
1450336 -0.9892917321257914 0.14094333272119733
1450636 -0.9889239164069507 0.140522572896454
1450936 -0.9884612495933073 0.1408410694155009
1451236 -0.9884991507170645 0.14109374896645296
1451536 -0.9890552339709474 0.141418318043873
1451835 -0.9883659508676508 0.1407824664733162
1452135 -0.988944932424035 0.141444160474749
1452435 -0.9893360543131032 0.14081950876529917
1452735 -0.9886270238972598 0.14024057835743262
1453035 -0.9889163352736833 0.1409623120944337
1453335 -0.9893161415141875 0.14102086566064329
1453635 -0.9882744618196686 0.1401224952853647
1453934 -0.9884472663988569 0.1414782180525865
1454234 -0.9887526485590311 0.14160042814042914
1454534 -0.9880603142737715 0.14088151858417436
1454834 -0.9885257303644864 0.14152040385113326
1455134 -0.9889893922120956 0.14200980292030507
1455434 -0.9885651553579257 0.14159805852393484
1455734 -0.9891069196307385 0.14192955040383018
1456033 -0.9896701394567415 0.14226029910307328
1456333 -0.9894494214338906 0.14113843977248877
1456633 -0.988442989101809 0.1417397551129565
1456933 -0.9894299109531197 0.14209174348350687
1457233 -0.9891681353502199 0.14128748805019878
1457533 -0.9882604602150985 0.14137938067662884
1457832 -0.9886536150938583 0.14161335989601237
1458132 -0.9891746772857415 0.14189120820725748
1458432 -0.9883827443957581 0.14159083168087191
1458732 -0.9893451021576556 0.1420349925973125
1459032 -0.9897403609530131 0.14202713894454386
1459332 -0.9896324482901193 0.14170199159808153
1459632 -0.9899385800163691 0.14221438069020237
1459931 -0.9901772607517757 0.14209532763141353
1460231 -0.9897725899114861 0.14167355843470913
1460531 -0.9900234442863342 0.14242769835939423
1460831 -0.9905114536028915 0.14264952434605566
1461131 -0.988903059059752 0.14154729954398165
1461431 -0.9897267277960046 0.14229627624221317
1461731 -0.9894335199196379 0.1432400861674969
1462030 -0.9889273822831826 0.14229939882377424
1462330 -0.9896370915140392 0.1427513632115216
1462630 -0.989687788708267 0.14321171155336754
1462930 -0.9891512171204949 0.14264773564149796
1463230 -0.989560615696933 0.14263073318445055
1463530 -0.9900386257649005 0.14268642883711577
1463829 -0.9895799072182224 0.14202141397155563
1464129 -0.9890274203577105 0.1415834304384167
1464429 -0.989480082700464 0.1418555969471857
1464729 -0.989329966991211 0.1420096875344866
1465029 -0.9884282131265556 0.14169073018502987
1465329 -0.989246634363846 0.14228456637180656
1465629 -0.9888790813498406 0.14208181613243495
1465928 -0.9884258878614629 0.14197407300319956
1466228 -0.9887412000133663 0.1425827567056448
1466528 -0.9885914873068758 0.14276467887951136
1466828 -0.9885196205451003 0.14200200760042328
1467128 -0.9892079103481802 0.14296781604891512
1467428 -0.989618413204761 0.14257629977156577
1467728 -0.9888804355975254 0.1422006017918743
1468027 -0.9888629691727382 0.14258927607510244
1468327 -0.988814703820272 0.14240734050712167
1468627 -0.9875520260984232 0.14181078866110317
1468927 -0.9880280459175379 0.14272062434279917
1469227 -0.9883189696154747 0.1426502532200733
1469527 -0.9877559562970407 0.14223779488546906
1469826 -0.9885040625078875 0.14226095132929886
1470126 -0.9885548919326661 0.143027714711748
1470426 -0.9879905513203762 0.14205298100277208
1470726 -0.988557881981756 0.14276317412750103
1471026 -0.9888666959472048 0.14318184825329203
1471326 -0.9885483065868865 0.142468681859809
1471626 -0.9885417289428816 0.14299157787892894
1471925 -0.9885204688038107 0.14330209425340004
1472225 -0.9883639439525002 0.14282680930201283
1472525 -0.9876921381961186 0.1431900352444583
1472825 -0.9888430658707539 0.14322209787114581
1473125 -0.9882272645504846 0.14311032331394843
1473425 -0.9875115401229628 0.1431366418913851
1473725 -0.9883316066429763 0.1439359570870192
1474024 -0.9885717379951041 0.14318443339470882
1474324 -0.9878191488160044 0.14286025869195912
1474624 -0.9886723091761156 0.14403983782054355
1474924 -0.9893939688571326 0.14384095668517818
1475224 -0.9882882575542473 0.14290549746412048
1475524 -0.9892465922336984 0.14469275549300684
1475823 -0.9891644894375407 0.14380100113194613
1476123 -0.9884242521037677 0.14309396127783963
1476423 -0.9890720339159549 0.14428903866644247
1476723 -0.9891495230376305 0.1446837272153636
1477023 -0.9879899411002404 0.14294537276067457
1477323 -0.9890759930603977 0.14410773447529168
1477623 -0.9895233758229609 0.14473778425338113
1477922 -0.9893358338650977 0.14357896790548963
1478222 -0.9894270064920686 0.14442568006509512
1478522 -0.9897831287851449 0.1441113147105429
1478822 -0.9894248484530881 0.14436842351303436
1479122 -0.9892141991191702 0.14424040639256544
1479422 -0.989419728402861 0.14463508013811913
1479722 -0.9886310093856926 0.14365977721178538
1479722 -0.9883677486657598 0.1439357282899391
1480028 -0.9883585903956413 0.14371769339011822
1480334 -0.988731088283039 0.14432700272382726
1480640 -0.9881184284505556 0.1437811057403999
1480946 -0.9882224845046826 0.14398870032205896
1481252 -0.989005908521971 0.1448232898245906
1481558 -0.9884635125544633 0.14392208689816344
1481864 -0.9886876401104038 0.1442922799904564
1482170 -0.989175281181546 0.14460932797717047
1482476 -0.9890593854717662 0.14371853583982422
1482782 -0.9882436644884129 0.14388177342555453
1483088 -0.9891217142979246 0.1441592770958653
1483394 -0.9884495789512796 0.1436129896290184
1483700 -0.9879595329021287 0.14342653485434154
1484006 -0.9890762615007896 0.14403737754773024
1484312 -0.989188958057426 0.1439318051415073
1484618 -0.9877526773821753 0.14373712675950967
1484924 -0.9884840021936987 0.14447899155905458
1485230 -0.9881672135334317 0.1438678601527551
1485536 -0.987435999859492 0.14377082352010506
1485842 -0.9886951837592811 0.14411548842696206
1486148 -0.988666130653312 0.143661464800466
1486454 -0.988193010829686 0.14360536396186907
1486760 -0.9883607081282564 0.14378243937574728
1487066 -0.9882694273183105 0.14395362784709545
1487373 -0.9871615300161274 0.14312022632064111
1487679 -0.9880032976045705 0.14449758473053548
1487985 -0.9878013474407764 0.1444955398221808
1488291 -0.9869264644203812 0.14407005570124634
1488597 -0.9879022492628242 0.14515316148578952
1488903 -0.9884288059821721 0.1445361335007004
1489209 -0.98769255221571 0.14403825728220093
1489515 -0.9878187424295131 0.14501630862166842
1489821 -0.9889731456237039 0.14472600200842284
1490127 -0.9880866289056368 0.14422660089141182
1490433 -0.9888735802221937 0.1452453981009492
1490739 -0.9892197962520167 0.1446676652349543
1491045 -0.9878415111251966 0.14436093122796176
1491351 -0.9885145648285271 0.145068288960907
1491657 -0.9884592519503913 0.1450133076634458
1491963 -0.9881907029351417 0.14455199011369982
1492269 -0.9888531620745831 0.14597153259147402
1492575 -0.9896604251677604 0.14598264490913251
1492881 -0.9882697654689027 0.14532054978160083
1493187 -0.9890467106080137 0.14614761761161063
1493493 -0.9905096164214728 0.1466488113816732
1493799 -0.9880623574023062 0.14502238588244612
1494105 -0.9890785679530748 0.1455516681192328
1494411 -0.9895766378998363 0.14627482893490223
1494717 -0.9885505548836415 0.14502851216657037
1495024 -0.9888999182590537 0.14530854920407493
1495330 -0.9891561654221332 0.14559881139942102
1495636 -0.9884334662209509 0.1457610481584756
1495942 -0.9884286074652687 0.1461520330098328
1496248 -0.9891749466209241 0.14588750357384953
1496554 -0.9888057691010552 0.1459265445249159
1496860 -0.9878912716875331 0.14524325093541418
1497166 -0.9887534944141707 0.14615963140665325
1497472 -0.9879985352256405 0.1455175779822382
1497778 -0.9880014428734656 0.1445944108040453
1498084 -0.9890151063908611 0.1458794044264774
1498390 -0.9901827516145466 0.14643637176291183
1498696 -0.989989109436889 0.14616735956305
1499002 -0.9925044656338275 0.14774711946302838
1499308 -0.9923686884645655 0.14700559699143378
1499614 -0.9868433672116652 0.1449831663910333
1499920 -0.9883579402026428 0.1469598434343015
1500226 -0.986339427513622 0.14497828309468094
1500532 -0.9873190838618745 0.1460231096769167
1500838 -0.9867211715895452 0.14667677568549334
1501144 -0.9887741441044168 0.14770929997019916
1501450 -0.989581149916514 0.14643438701469272
1501756 -0.9914615982226157 0.14742554379880213
1502062 -0.989123819268676 0.14675770582850076
1502368 -0.9892017964547771 0.14599880415942354
1502675 -0.9893265902784336 0.14690037069586118
1502981 -0.9858152169280463 0.14546817784793728
1503287 -0.9869532564001919 0.1453032975174802
1503593 -0.988478577263025 0.14618845823307275
1503899 -0.988034286700741 0.14629505629587153
1504205 -0.9877261588327028 0.14560990115345834
1504511 -0.988629475929704 0.1463989075063399
1504817 -0.9891135537987521 0.1463826617539222
1505123 -0.9886844497964334 0.14516842437778726
1505429 -0.9886478515977299 0.14632098725527806
1505735 -0.9881162276678329 0.14616265380300167
1506041 -0.9872166444104317 0.14524727935731704
1506347 -0.9886190200145009 0.14640620046769529
1506653 -0.9883842686807689 0.14662377437181567
1506959 -0.9875604234567186 0.14612197104934327
1507265 -0.9884252923384043 0.14626289676477688
1507571 -0.9886807714227343 0.1468675455078485
1507877 -0.9885502248628762 0.14666088391225168
1508183 -0.9882990551259676 0.14705524644564585
1508489 -0.9888275633381107 0.14745195468946543
1508795 -0.988641054413428 0.14672443240691568
1509101 -0.9879524441271046 0.14699239075520681
1509407 -0.9885016493961635 0.1469012995006594
1509713 -0.9881134855655191 0.1467615538247857
1510019 -0.9872884143424026 0.1463494181333603
1510326 -0.9884776688013449 0.14731405465317288
1510326 -0.9886402371118848 0.14709649937096506
1510638 -0.9871539808805996 0.14613246675579863
1510950 -0.9881777053961229 0.1469971913138689
1511263 -0.9883681437349844 0.14746146460349402
1511575 -0.9872789274854676 0.1462193951548071
1511887 -0.9884332998022648 0.1470876987895772
1512200 -0.9883292205513046 0.14655563415090914
1512512 -0.9873925047176444 0.1457853287102192
1512825 -0.9885725294927726 0.14669969432383057
1513137 -0.9884542565104903 0.14694801563778517
1513449 -0.9874064775942484 0.14598621945613516
1513762 -0.9881114003410922 0.14734743042045984
1514074 -0.9881464852150539 0.14717689426843983
1514386 -0.9870589749060766 0.14671747550259184
1514699 -0.98761398384855 0.14745692878955996
1515011 -0.987811246287933 0.14755552423329885
1515324 -0.9871490673173264 0.14740803826224178
1515636 -0.9884326264496339 0.14862665221753368
1515948 -0.9885389924723355 0.14819965586799366
1516261 -0.9879502423663367 0.14753448034804345
1516573 -0.9888319496512116 0.14853508058437034
1516885 -0.9887938107042841 0.1484367273678541
1517198 -0.988207403492274 0.14761628008796115
1517510 -0.9881977122917175 0.1484395188393825
1517823 -0.9882467068152136 0.14847261646846963
1518135 -0.9877619257211463 0.147210435316889
1518447 -0.98845929615325 0.148048468336586
1518760 -0.9884512759914559 0.14775826958071772
1519072 -0.9877616557242318 0.14716873103432382
1519385 -0.9885227202718716 0.1478214740823264
1519697 -0.9883569850566987 0.1476878024936246
1520009 -0.9876444886388003 0.14700173014203533
1520322 -0.9884612005420074 0.148122343566878
1520634 -0.988101189223488 0.14729420506030505
1520946 -0.9871361413709749 0.14692468023087457
1521259 -0.9878056570761692 0.1480674197817739
1521571 -0.9881978455114234 0.1478010083168431
1521884 -0.9873426530511776 0.14714337837376387
1522196 -0.9878563882092938 0.1484885703203694
1522508 -0.988321587235165 0.1482898431782499
1522821 -0.9876378928473661 0.14746514138544078
1523133 -0.9883956162185059 0.14862682844664662
1523445 -0.9887417966387119 0.14853405949159323
1523758 -0.9884429441157069 0.14801758413958016
1524070 -0.9891170413578764 0.14918811071748278
1524383 -0.9891116213247841 0.14902645110252233
1524695 -0.9884517718034965 0.1481232821904552
1525007 -0.9885819090079666 0.14914375344509745
1525320 -0.9888010671464611 0.14907142382347108
1525632 -0.9878786818443168 0.14813505243740369
1525945 -0.9880621175911339 0.1483879610253601
1526257 -0.9880198359191782 0.14819146263183874
1526569 -0.9878674429039711 0.14762096224287183
1526882 -0.9878367060990797 0.14812258887551863
1527194 -0.9883041551299112 0.14849814894121766
1527506 -0.9880235083337279 0.14795853085637667
1527819 -0.9875913098949208 0.14812400252490046
1528131 -0.9882241211175156 0.14794280755139927
1528444 -0.9874923398412124 0.1474206761597441
1528756 -0.9871804972478481 0.14788279310620378
1529068 -0.9880833286864416 0.14813945089049987
1529381 -0.9871660946129819 0.14812702336621386
1529693 -0.9874165846305464 0.14840790103320162
1530005 -0.9881562783419634 0.14892234763640264
1530318 -0.9876241570752844 0.1486920348272337
1530630 -0.9870198808368097 0.14898512022890964
1530943 -0.9881693145077927 0.14932901384284578
1531255 -0.9877162149001862 0.14901101701390382
1531567 -0.9876779252135894 0.14918698490250834
1531880 -0.988415480534493 0.14946632975596685
1532192 -0.9876680636588386 0.1490443032844231
1532504 -0.9877676624382411 0.1489640282057911
1532817 -0.9883155954939762 0.14940574973800066
1533129 -0.9876879216058834 0.14916379965565918
1533442 -0.9876144754288073 0.14911468027131983
1533754 -0.9885074371979475 0.14971074744799198
1534066 -0.9876517604783929 0.14909056563282547
1534379 -0.9874688053798993 0.14948658266960024
1534691 -0.9881802391741278 0.14959780335142472
1535004 -0.9871743373360615 0.14885764108162544
1535316 -0.9873994687542481 0.1489734566670185
1535628 -0.9877666900694677 0.1490909964394752
1535941 -0.9869620313285786 0.14833185933608944
1536253 -0.9869743188701524 0.14894498243939563
1536565 -0.987890948867377 0.1489443362262334
1536878 -0.9873477417877458 0.14874008266088815
1537190 -0.9866325078317093 0.14918534983656329
1537503 -0.9879432546810806 0.14918807426410324
1537815 -0.9874402535970338 0.1485988744821394
1538127 -0.9868657882666303 0.14950602985932526
1538440 -0.9881010231046615 0.1498827439472849
1538752 -0.9873584460552024 0.1491186570846721
1539064 -0.987369744728238 0.1494693867724967
1539377 -0.9886592061962298 0.15001296793820912
1539689 -0.9876505802011396 0.14983804359645408
1540002 -0.9880618139966947 0.15020695202266976
1540314 -0.9886161873257552 0.1504224647504288
1540626 -0.9879361383122791 0.15015678133640795
1540939 -0.987839042119273 0.15014787089241516
1541251 -0.9882406831490314 0.1507647119088668
1541564 -0.9876720466491099 0.1500725924233029
1541564 -0.9879751703001554 0.14964938002733907
1541882 -0.9876245799600948 0.14982402739838477
1542201 -0.9882449413034845 0.15033372327016126
1542520 -0.9877195509623865 0.14958058488176432
1542839 -0.9880264747520083 0.1491817548388764
1543158 -0.9880745289130595 0.15027198305540324
1543477 -0.9875350595994095 0.14979408576217612
1543795 -0.9875621323914034 0.1503530528287365
1544114 -0.9879316925406687 0.15023186575430078
1544433 -0.9872496197691503 0.14969409694633304
1544752 -0.9875913644371697 0.15024255326491
1545071 -0.9874525698678445 0.14998646817802475
1545390 -0.9870796385132432 0.14953000772235192
1545708 -0.9876718733005023 0.1503008451791239
1546027 -0.9874079066243389 0.15022638583190723
1546346 -0.9864813828842409 0.14928915825062836
1546665 -0.9873366933355859 0.15025602934272245
1546984 -0.987561423900846 0.1502142174065629
1547303 -0.986888951199061 0.1492254493303049
1547621 -0.9875318527895035 0.15040044453061555
1547940 -0.9876463711098307 0.15094736764764527
1548259 -0.9867910949234777 0.14984053596716673
1548578 -0.9873468480541633 0.15096856252485985
1548897 -0.9874380218275076 0.15090060379438466
1549216 -0.9867740161654898 0.15004700517627595
1549535 -0.9874906324776352 0.15074813309102275
1549853 -0.9873826432537983 0.15050594718691973
1550172 -0.9870637551629955 0.15020217757720886
1550491 -0.9874913297217818 0.1504660139527132
1550810 -0.9870382735636332 0.15030831765177957
1551129 -0.986608544722644 0.15011134132698756
1551448 -0.987398931340836 0.1509631761494551
1551766 -0.9873029561324248 0.15108097005156254
1552085 -0.986536124270932 0.15060953070430075
1552404 -0.9884934723027915 0.15204360781259968
1552723 -0.9883014616009702 0.1519162957568529
1553042 -0.9872287893269139 0.15163564858221634
1553361 -0.9885135921810951 0.1518554095475808
1553679 -0.9879813409215135 0.15134510064668685
1553998 -0.9876104411476739 0.1512316526592157
1554317 -0.9882528521910983 0.15158943845422806
1554636 -0.9875577982158735 0.15050392913300367
1554955 -0.987098529785784 0.15089427513659176
1555274 -0.9874631672452173 0.1511397397344384
1555592 -0.9869323151347494 0.15055730569073414
1555911 -0.9866783893365961 0.1508622035508074
1556230 -0.987223824860741 0.15148096495292293
1556549 -0.9870040750665356 0.15057263215072866
1556868 -0.9876765034713546 0.15123492897846974
1557187 -0.9876254524996706 0.15133637117764537
1557506 -0.9867598513153453 0.15003222501988622
1557824 -0.9873143510865127 0.15084727334651923
1558143 -0.9874381335988661 0.15090302340977543
1558462 -0.986180377407443 0.15024804210521714
1558781 -0.9874211649314856 0.15157702480584878
1559100 -0.9866900527576122 0.15156626709842935
1559419 -0.9857370697773135 0.15113541342401723
1559737 -0.9874260258486965 0.15203722200689593
1560056 -0.9875961462970918 0.1524079179783479
1560375 -0.9866976824388295 0.15111164497293136
1560694 -0.9884862259989453 0.15246634848818025
1561013 -0.9885652618322881 0.15197330935367287
1561332 -0.987420508174872 0.15163590413647854
1561650 -0.9887190779989572 0.15232679864972376
1561969 -0.9877415492132009 0.15194053867511378
1562288 -0.9869328853758026 0.1515893936209146
1562607 -0.9879118266692204 0.15250169140029723
1562926 -0.9874627879166704 0.1515828651600219
1563245 -0.9867633106773054 0.15185498825398777
1563563 -0.9875864062325447 0.15201557205366337
1563882 -0.9872451948547853 0.15155967738747453
1564201 -0.9872962347509446 0.1512733175890346
1564520 -0.987735935335893 0.15182607280783297
1564839 -0.9876308737270396 0.15126950104040018
1565158 -0.9869689159679935 0.15155135218279395
1565477 -0.9877469114990708 0.15180108408747878
1565795 -0.9868400646277088 0.15123592373645714
1566114 -0.986786868120768 0.15166981493867077
1566433 -0.987278302085609 0.15174978421855545
1566752 -0.986433018095807 0.15157305088751932
1567071 -0.9871124264679518 0.15208557112074175
1567390 -0.9872512888439868 0.15257283331635912
1567708 -0.9867685528110888 0.15245326819065713
1568027 -0.987671591998201 0.15289885334582756
1568346 -0.9878173357364944 0.1528410784952239
1568665 -0.9873409724437024 0.1520924572299713
1568984 -0.9880819988330107 0.15286734518810172
1569303 -0.988192200400488 0.15240929946206894
1569621 -0.9874856118872599 0.15217130196505013
1569940 -0.9877293760207838 0.15282531163352264
1570259 -0.9877963116044121 0.15275176927728332
1570578 -0.9866763691025694 0.1517704089142582
1570897 -0.9871656783341086 0.15295852227602041
1571216 -0.9873239808403638 0.152866461280503
1571534 -0.986647969046237 0.15216023364765904
1571853 -0.986997578722312 0.15259961033912836
1572172 -0.9872774305929135 0.15244561010363303
1572491 -0.9865744693270518 0.1517443170788079
1572810 -0.9871588749635767 0.15237336026426715
1573129 -0.9873094704777714 0.1520320859759056
1573448 -0.9862757729756236 0.15145455949353684
1573448 -0.987351905698703 0.15248569493553063
1573773 -0.9871149660605035 0.15247112042666533
1574098 -0.9862735954011158 0.15213657205026
1574424 -0.9869848646587308 0.15272926143485796
1574749 -0.9875893678953006 0.15309554980850734
1575075 -0.9875572191027828 0.1525891001481928
1575400 -0.9870413206627884 0.15315537088217368
1575726 -0.986548978905429 0.15245515329056436
1576051 -0.9858480360419168 0.15268258512633337
1576376 -0.9875675245329387 0.15354446134749125
1576702 -0.9868698538876506 0.1531325954762886
1577027 -0.9870267052017547 0.15367713338282935
1577353 -0.9876802410144181 0.15422103892546776
1577678 -0.9872326360144843 0.1539091002470257
1578004 -0.987254109279339 0.15461207336180208
1578329 -0.9877243093125948 0.15456769724483302
1578654 -0.9873483224738387 0.15337910762531606
1578980 -0.9876729156065175 0.15436923995916751
1579305 -0.9878589678300935 0.15359778182894668
1579631 -0.9868366710775728 0.15296322323988754
1579956 -0.9872815039851768 0.1531273505262579
1580282 -0.9873537019908635 0.15329713974255507
1580607 -0.9867705378386435 0.15253760713860381
1580932 -0.9871455133557128 0.153598291339448
1581258 -0.9866951393133839 0.15310229730866318
1581583 -0.9861514648664584 0.15289992946039466
1581909 -0.9870549428957964 0.15357220426693424
1582234 -0.9865233204291616 0.15336517001253702
1582560 -0.9868013560595548 0.1528124859762557
1582885 -0.9875561913056657 0.15347926459595532
1583210 -0.9872520688934417 0.15329992752887917
1583536 -0.9864298235037856 0.152922561395202
1583861 -0.9873141439776506 0.1540892067688608
1584187 -0.9866592149681431 0.15345953910688165
1584512 -0.9862562498427121 0.15405970604996552
1584838 -0.9871456326997291 0.1542966153343074
1585163 -0.9866667701319244 0.15392943655635402
1585488 -0.9874262711739972 0.15470948252860067
1585814 -0.9875248520810846 0.154531963240732
1586139 -0.987323584320738 0.15407599426896276
1586465 -0.9876774334197366 0.1550325124778672
1586790 -0.9877633145141602 0.15472377403896517
1587116 -0.9869356050251599 0.15387731156839216
1587441 -0.9873405274062759 0.15420812641679219
1587766 -0.986920178508743 0.15430103191305808
1588092 -0.9864165184832567 0.15358194536251554
1588417 -0.9869962771048985 0.15442177336799204
1588743 -0.9868635349296186 0.15429620342110884
1589068 -0.9862623767761112 0.1536344325510433
1589394 -0.9868612456725181 0.1546563159955393
1589719 -0.9862085157147383 0.15398966642920459
1590044 -0.9863318039069903 0.15383192719377348
1590370 -0.9859353264402273 0.15341512230244866
1590695 -0.9866528904202848 0.15426494620822281
1591021 -0.986522307128672 0.1540831562188563
1591346 -0.9860029141420485 0.15407586913449745
1591672 -0.9870568574631264 0.1550958153995092
1591997 -0.9867050014046251 0.15496910748172382
1592322 -0.9867863611894164 0.15479751415484624
1592648 -0.9871463326156567 0.15521193019160157
1592973 -0.9867912795528313 0.15478225227667342
1593299 -0.9865990296510246 0.15520964871656598
1593624 -0.9872132538446162 0.15533945618875636
1593950 -0.9873680910857978 0.15490667614075254
1594275 -0.9869496437056386 0.1552915001010516
1594600 -0.9873387489599953 0.15525760118896548
1594926 -0.987093127883719 0.15494595317354098
1595251 -0.9870524744177097 0.15531440651323486
1595577 -0.9871027192734814 0.15499185936164442
1595902 -0.9867365398370133 0.1540037691827282
1596228 -0.9865491886130086 0.1547748499894277
1596553 -0.9866346932667872 0.15469818298315888
1596878 -0.9863222613754615 0.15463112224402292
1597204 -0.9866428252958959 0.156023393661929
1597529 -0.9866374574002136 0.1555833061776792
1597855 -0.9861439259198722 0.1545577272509261
1598180 -0.9869717931588262 0.15480971811241895
1598506 -0.9868405392452848 0.15490772361454153
1598831 -0.9859527484136138 0.15467330094629422
1599156 -0.9869378177040263 0.15532370331561438
1599482 -0.9864604923352432 0.15523067782031746
1599807 -0.985536965390716 0.15492026377502016
1600133 -0.9866916660066075 0.15620611469916687
1600458 -0.986443673767905 0.1556399306471214
1600784 -0.9869622422316923 0.15560069824243136
1601109 -0.9875966387629703 0.15692874734026133
1601434 -0.9869092062614199 0.15618928862119497
1601760 -0.9870350949992849 0.15588024082303678
1602085 -0.987640825868594 0.15673220835687943
1602411 -0.9868592221068726 0.15617380561411542
1602736 -0.9872726210641881 0.15602709366750123
1603062 -0.9872405212337996 0.15568699463150604
1603387 -0.9868298046816616 0.1550799712515789
1603712 -0.9869893357349717 0.15542038728298035
1604038 -0.9868657568112644 0.1553951342420209
1604363 -0.9862726284179325 0.15514730303936472
1604689 -0.9862906770727279 0.15613554301942717
1605014 -0.9869050751088589 0.15595267219520967
1605340 -0.9862323990985274 0.15582427658349668
1605665 -0.9865208286186806 0.15677901028544206
1605991 -0.986931821665412 0.15634510327156834
1605991 -0.986793421605926 0.15608665894441903
1606323 -0.9863800938505354 0.1555780853722023
1606655 -0.986172748664561 0.15558565707672203
1606987 -0.9865292844544952 0.15546747957460078
1607319 -0.986258730546927 0.15549109067955752
1607651 -0.9864592931381807 0.15622964968430123
1607983 -0.9861462997244064 0.15642150498169563
1608316 -0.9861555603052583 0.1558362342970544
1608648 -0.9867077784591962 0.156840589410545
1608980 -0.9868132516645012 0.15701252161951784
1609312 -0.985886537598066 0.15568344301139836
1609644 -0.9867616310657119 0.15630303786915034
1609976 -0.9859067495957622 0.1557632399149315
1610309 -0.9856590764683206 0.15589014184176278
1610641 -0.98645329766529 0.15627354547851863
1610973 -0.9862693697166391 0.15635080880254956
1611305 -0.9863277485473386 0.1567377046797269
1611637 -0.9872982773658522 0.1568377821375972
1611969 -0.9869442139778153 0.15684003220910553
1612302 -0.987273195935189 0.1567987472525606
1612634 -0.9870943963456059 0.15677429759988165
1612966 -0.9864825287682866 0.15558116421548188
1613298 -0.9868012156267323 0.15626006629276273
1613630 -0.9869100480563228 0.1560037668014722
1613962 -0.9860484765574689 0.1554927613650199
1614295 -0.9860554198728051 0.15698699697773147
1614627 -0.9861738557139281 0.15663141660862198
1614959 -0.9856094744490227 0.15630979529419836
1615291 -0.9866713762160544 0.15711381310383266
1615623 -0.9863504710738955 0.15695055531564508
1615955 -0.9863270631418987 0.15704207247037041
1616287 -0.9869214319972601 0.15755480556934948
1616620 -0.9869835570739955 0.15720364119961472
1616952 -0.98699124401571 0.15730877880156255
1617284 -0.9871736420333941 0.15700576135084013
1617616 -0.9868270247482405 0.15654612752466118
1617948 -0.9869837057776599 0.15733373541569415
1618280 -0.9865832844410051 0.15727026468888977
1618613 -0.9861021541581911 0.15656339908337066
1618945 -0.9861781509698658 0.1572147088528112
1619277 -0.9860281661682003 0.1575279430675902
1619609 -0.9857648010654922 0.15645005828701744
1619941 -0.9862948974911376 0.15750379426899794
1620273 -0.9858322868659712 0.15711910414385144
1620606 -0.9858646607933383 0.15697904770402105
1620938 -0.9870006045894821 0.15775601148176518
1621270 -0.986150990874571 0.15739289310126045
1621602 -0.9862966938101064 0.15784519553970555
1621934 -0.9870280676794861 0.15853981763955619
1622266 -0.9873029077377519 0.15826353038338345
1622599 -0.9864620096548774 0.15789261443406524
1622931 -0.986831346814072 0.15825904382421452
1623263 -0.9868325516481025 0.1581481712539599
1623595 -0.9856049649818467 0.15754389312283057
1623927 -0.98637510669046 0.15768293510664505
1624259 -0.9858712656432707 0.15755438386272963
1624591 -0.9852824071767509 0.15679527670912444
1624924 -0.9858860652402999 0.15778274781701163
1625256 -0.9853887231689397 0.15698255259498442
1625588 -0.9857074025032396 0.1572157234219409
1625920 -0.9856149558186132 0.15735067749152443
1626252 -0.9860843092783164 0.15742561352575432
1626584 -0.9859223411138569 0.15829545541736725
1626917 -0.9863557167117629 0.15836941793105205
1627249 -0.98642057392737 0.15810360097194717
1627581 -0.9869774839012089 0.15918126132749297
1627913 -0.9875100105518089 0.15898944176394292
1628245 -0.9861830129675363 0.1579437783877121
1628577 -0.9872354472635669 0.15884544467510908
1628910 -0.9865206816142084 0.1584613663778371
1629242 -0.9858107134419045 0.15806247879147117
1629574 -0.9867912554024667 0.15864074208567458
1629906 -0.9860494901659503 0.15818327278568664
1630238 -0.9859914818099619 0.15821163098127725
1630570 -0.9864114911200289 0.15774015151622284
1630903 -0.9858200219796078 0.15763572552613483
1631235 -0.9856028798788808 0.15816091884105984
1631567 -0.9860524990207121 0.15804792899332612
1631899 -0.9859022988237012 0.15781886706491532
1632231 -0.9864759492995823 0.15886878806531052
1632563 -0.9860465391105508 0.15901273161215682
1632895 -0.9857504797855706 0.1584283720024144
1633228 -0.9866783260217471 0.1591417852615483
1633560 -0.9864374957759923 0.15887668514036113
1633892 -0.9857321283861704 0.15911753905359088
1634224 -0.9863492416678432 0.1592113031206338
1634556 -0.9859465285925613 0.15845201283110324
1634888 -0.9857996717298421 0.1586229840603543
1635221 -0.9862562224664553 0.15847711361497127
1635553 -0.9856095265416711 0.1581053634750575
1635885 -0.9857288958591557 0.1588054960143963
1636217 -0.9857333000649785 0.1584526829703909
1636549 -0.9850336902829065 0.15791076789089162
1636881 -0.985814838544055 0.1590872952274628
1637214 -0.985612725576475 0.15885571799202627
1637546 -0.9853030167932176 0.15852561212385533
1637878 -0.9865911647666098 0.15951642845186892
1638210 -0.9866414736267467 0.1598083410199717
1638542 -0.986605740269084 0.15955288532632378
1638874 -0.9866241688134103 0.15910237555661919
1639207 -0.9863620010218485 0.15876037613153046
1639207 -0.986498977356767 0.15901252829917553
1639546 -0.9864332736612662 0.15921783199884315
1639885 -0.9862128182709795 0.15889018949527445
1640224 -0.9857039744420987 0.15893148775648777
1640563 -0.986245706841065 0.1589993708777412
1640902 -0.9858718302975156 0.15854592179244859
1641241 -0.9862627718800808 0.15928364177125676
1641580 -0.9859989592954084 0.1591099286896163
1641919 -0.9853917663498329 0.1587399121777896
1642258 -0.986253872370582 0.1596938258997926
1642597 -0.9864301435351811 0.15957391237674723
1642936 -0.9850409859756124 0.158916099807732
1643275 -0.9869668395515709 0.15969247034738665
1643614 -0.9870922812220208 0.1599243376865747
1643953 -0.9863610678864382 0.16001795162002191
1644292 -0.9868634451518055 0.15987904812767317
1644631 -0.9862981078197661 0.15943769222459078
1644970 -0.9865529066212924 0.16014407839165867
1645309 -0.9860316121395379 0.15954601647265654
1645648 -0.9857815187550171 0.15904232776990743
1645987 -0.9863773852520781 0.1598541318999387
1646326 -0.9855405639336996 0.15899735992219524
1646665 -0.9848908081461819 0.1591609841558865
1647004 -0.9845573402500365 0.15958419115994985
1647343 -0.9845837654723356 0.15964843369810952
1647682 -0.9858477070583105 0.15990465889614264
1648021 -0.9857003546681357 0.15940796708533195
1648360 -0.9855661578245658 0.1596343138052771
1648699 -0.9859869707035949 0.1605652259950405
1649038 -0.9824762850170239 0.1595193861110086
1649377 -0.9869409300672708 0.1605156920919207
1649716 -0.9853596628886051 0.1604663470466882
1650055 -0.9914502501073252 0.16141251488825334
1650394 -0.985620288546131 0.15984384334695417
1650734 -0.986446716527743 0.15975961792196552
1651073 -0.9851060306623414 0.16061933050505195
1651412 -0.9844127898423883 0.15946836514589707
1651751 -0.9846892047588055 0.16004003895818206
1652090 -0.9853222447573449 0.15988052487001508
1652429 -0.9847388313656341 0.1598171346028606
1652768 -0.9854847958432765 0.1597137007652325
1653107 -0.9843174508838697 0.15943798281086666
1653446 -0.9862002170936366 0.16059319307325923
1653785 -0.9860184703726761 0.1604557647664834
1654124 -0.9859861544242619 0.16014184914404067
1654463 -0.9865524138706242 0.1611824242303804
1654802 -0.9868480173414137 0.1611280706033837
1655141 -0.9855737025900867 0.16103982192689595
1655480 -0.9874230877261035 0.1616892711921811
1655819 -0.9860847838506392 0.16123429025578406
1656158 -0.9841600554580435 0.16033108582958364
1656497 -0.9857348605240083 0.16135073079665924
1656836 -0.9852436559495391 0.16135180827459394
1657175 -0.9852335541357276 0.16075403574045374
1657514 -0.9862780006162176 0.1609756956264832
1657853 -0.9854125810255383 0.16101092705868209
1658192 -0.9852509719299629 0.16075720834379625
1658531 -0.9854266776489617 0.16091081027987852
1658870 -0.9854905584028041 0.16046979365938538
1659209 -0.985917372347461 0.16153408465215877
1659548 -0.9859893744978803 0.16125733814132123
1659887 -0.9853087986081804 0.16111555836191557
1660226 -0.9857971587798657 0.16182216537677047
1660565 -0.985145669399347 0.16119635280541622
1660904 -0.9855184074155675 0.16082642590200316
1661243 -0.9861242270724287 0.16129730794157315
1661582 -0.9858362582415432 0.16128552274349212
1661922 -0.9856262707322828 0.16070145400598831
1662261 -0.9856658661246209 0.16084189850530747
1662600 -0.9853498999798851 0.16037741924425658
1662939 -0.9859433172476526 0.16113456821712543
1663278 -0.9854240531365379 0.16145714203783867
1663617 -0.9854527341974354 0.16122103563241166
1663956 -0.9861387281927048 0.16212239116988378
1664295 -0.9859172977900728 0.16204027598448323
1664634 -0.9850765845909601 0.1615893967176073
1664973 -0.986427417689667 0.16239463742426472
1665312 -0.9860803864110604 0.1621019574318415
1665651 -0.9859509423927184 0.1615431855968399
1665990 -0.986459661248824 0.16143513202008908
1666329 -0.9861264205063965 0.16120176754055912
1666668 -0.986170409865881 0.1613217386382273
1667007 -0.98583745955518 0.16137625521432708
1667346 -0.9851200001331684 0.16128838193324696
1667685 -0.9856500643311505 0.1622186961393881
1668024 -0.9851769656560652 0.16203399171650595
1668363 -0.9847960302443766 0.16156015885825356
1668702 -0.9851584817346474 0.16246521233222105
1669041 -0.9850239504300838 0.1616991410416402
1669380 -0.9848285470828574 0.1617694390901685
1669719 -0.9855793196432576 0.16249885873887943
1670058 -0.9855119919526636 0.16187856446735305
1670397 -0.9855538611606774 0.16240038822491568
1670736 -0.9860606195613928 0.16235276263551285
1671075 -0.9858870240021793 0.162286061733959
1671414 -0.9859442384163429 0.1629808620869263
1671753 -0.9851485184577888 0.16248663479253797
1672092 -0.9851908118109947 0.16171130909980305
1672431 -0.9856989309145735 0.16176304877918554
1672770 -0.9854949814848725 0.16185748474450906
1673110 -0.9844928782131726 0.16151792306223745
1673110 -0.9850777488625915 0.1624092367041222
1673456 -0.9856962170867256 0.16212162239531522
1673802 -0.9853231751832596 0.1618338459213251
1674148 -0.9850686013897915 0.16202011225075486
1674494 -0.9851255150756978 0.162473260144299
1674840 -0.9850106800713838 0.1617607795750562
1675186 -0.9861076321936477 0.16309399605750868
1675532 -0.9857774297619338 0.163046770398412
1675878 -0.9860130757131739 0.1630386982976337
1676224 -0.9859125746948981 0.16360320214112223
1676570 -0.9856672349409785 0.16299581296881724
1676916 -0.9858769195056133 0.16360798110798216
1677262 -0.9862785931755488 0.1626282247884794
1677608 -0.9858571821720308 0.1621833720503808
1677954 -0.9859696508197855 0.16275746349337103
1678300 -0.9856851781270582 0.16270767237588982
1678646 -0.9849970997262142 0.16230300641705536
1678992 -0.9858085114562443 0.16332237765616048
1679338 -0.9855492379449242 0.1629812359138272
1679684 -0.9851034149819884 0.1627101510875044
1680031 -0.9861768435873267 0.16281542397047605
1680377 -0.9858110549693222 0.16294130799157258
1680723 -0.986192728481761 0.16365112874818338
1681069 -0.9859376822294369 0.16347755042340176
1681415 -0.9852386930841673 0.16346109700021985
1681761 -0.9859059696851215 0.1637474413004658
1682107 -0.9849938713177893 0.16373786266722307
1682453 -0.9849375194204284 0.16343886658831094
1682799 -0.9852550286541715 0.16399682085481423
1683145 -0.9848871628441458 0.16326180122672931
1683491 -0.9847682973590219 0.1634481504420729
1683837 -0.9852606077943835 0.16337741686274532
1684183 -0.9851494648072249 0.16292149696477037
1684529 -0.9854491670024005 0.16355322116230625
1684875 -0.9851303836369302 0.16362926286677387
1685221 -0.9850435398024925 0.16308288944412072
1685567 -0.9857355744909911 0.16411073526354847
1685913 -0.9853494116475331 0.16379345887091082
1686259 -0.9854641646609381 0.1634888120806426
1686605 -0.9862719238295944 0.16419013922169523
1686952 -0.9858393212884665 0.1639368517502033
1687298 -0.9862552756204729 0.16460536834643286
1687644 -0.9855321918800929 0.16396140874106876
1687990 -0.9850905951151729 0.1632962704727882
1688336 -0.9855211908464316 0.16374335455335465
1688682 -0.9844475747500047 0.1637109567307202
1689028 -0.9847070699073407 0.16438780140069686
1689374 -0.984162995658641 0.16375310228436563
1689720 -0.984173122793501 0.1631805701605431
1690066 -0.9851317546338666 0.16388404132354967
1690412 -0.9854552150226135 0.16388886626254834
1690758 -0.9853062157242602 0.16412457440350015
1691104 -0.9861138977891605 0.16454376821811778
1691450 -0.9855736009870995 0.16454583149238883
1691796 -0.9862369085930767 0.16484682533884207
1692142 -0.9855556473070188 0.1646896973560644
1692488 -0.9851315990283461 0.1638198440446514
1692834 -0.9854481402338189 0.1647627045136733
1693180 -0.9852531564513589 0.16424670705456315
1693526 -0.9847519914417333 0.1643851303765766
1693873 -0.9856599430656141 0.1638730110645053
1694219 -0.985152797802463 0.16392124401810787
1694565 -0.9850064264646095 0.16484586375589505
1694911 -0.9847837907909671 0.1646511026519011
1695257 -0.9843429116801603 0.16413930102989618
1695603 -0.985100101430775 0.16496978473202004
1695949 -0.9846487835793515 0.16447008941550317
1696295 -0.9848387899223667 0.1648215972065728
1696641 -0.9852707384610593 0.1654004229665331
1696987 -0.985331430320552 0.165322137546904
1697333 -0.985533807349456 0.1659763150993338
1697679 -0.9856616163496967 0.165528781909704
1698025 -0.985298535533868 0.1648011143806832
1698371 -0.9859266743602159 0.16526887005747423
1698717 -0.9851117596841177 0.16479074387072107
1699063 -0.9848589479616384 0.16451478035112813
1699409 -0.9847894717679828 0.1645183200379224
1699755 -0.9849850256498845 0.1644930473860175
1700101 -0.984842439737402 0.16431439796930994
1700447 -0.9850950333056548 0.16435441415941224
1700794 -0.98489812793721 0.16443717073417422
1701140 -0.9851283773809673 0.16543029939986736
1701486 -0.9845737938187517 0.16491622929431948
1701832 -0.9848944818433091 0.16503446725314738
1702178 -0.9855636639434157 0.16592033716433005
1702524 -0.9856370829696588 0.1658649909655284
1702870 -0.9851114374084938 0.16593219349503488
1703216 -0.9858204954540211 0.16545780789153294
1703562 -0.985027233691511 0.16538684781288435
1703908 -0.9851236686558341 0.1654915375978052
1704254 -0.9847449933928493 0.16555166038179353
1704600 -0.9845902449106491 0.16494612125698513
1704946 -0.984747196181223 0.16561946426179283
1705292 -0.9846086558838383 0.1653758324351324
1705638 -0.984779574853005 0.16529434453706152
1705984 -0.9850945048081843 0.16526388366846154
1706330 -0.9849702606530791 0.16530052511600007
1706676 -0.9848507215063853 0.16550685189972425
1707022 -0.9851958003681651 0.16543012212037553
1707368 -0.9849751769612209 0.16528453301009197
1707715 -0.9853126602259978 0.16602556298893822
1707715 -0.9851987261201105 0.1660246493289517
1708068 -0.9855821077230427 0.16597246577733168
1708421 -0.9852606488191882 0.16577854247459592
1708774 -0.9855833658318325 0.1664277426727263
1709127 -0.98501766610888 0.16605226333113898
1709481 -0.9846446962042531 0.1656313442620469
1709834 -0.9849224575134645 0.1658503039152859
1710187 -0.9848502062412865 0.16567595027166637
1710540 -0.9849276504811579 0.16602492511510514
1710893 -0.9840779622564508 0.16618017689394754
1711247 -0.9839200237707517 0.16588055499438045
1711600 -0.9846644265752101 0.16647414754366732
1711953 -0.9844242376376791 0.1662057792455974
1712306 -0.9843364792724747 0.1662436643940644
1712659 -0.984709229664905 0.166778329455676
1713013 -0.9849060285345494 0.1669119190373095
1713366 -0.9852215104718092 0.16672218650521325
1713719 -0.9844455609723212 0.16635131888607463
1714072 -0.9844937476868902 0.1661242495680922
1714425 -0.9847518273096054 0.16651967353983044
1714779 -0.9845687896837084 0.1665001995796286
1715132 -0.9846551586209717 0.1666615671450253
1715485 -0.9845763431015743 0.16661151971494287
1715838 -0.9846252687601114 0.16600863883699185
1716191 -0.9845991292139966 0.16691414000428917
1716545 -0.9845773126819319 0.16699431659234398
1716898 -0.9841770577478365 0.16695529473055787
1717251 -0.9845961638891375 0.1670274575688067
1717604 -0.9847958648757288 0.1667207989601824
1717957 -0.9845786661261543 0.16702291458237858
1718311 -0.985081555703705 0.167251339259417
1718664 -0.9856235368404681 0.1672643963890831
1719017 -0.9854236937586319 0.16730098782523448
1719370 -0.9850459392951672 0.16767109642154135
1719723 -0.9851617486601506 0.16749988799138665
1720077 -0.9850551503263139 0.16734471288422928
1720430 -0.984447710308025 0.16684628878276198
1720783 -0.9841870825655572 0.1669516049956875
1721136 -0.984726884418462 0.16671808598674398
1721489 -0.9847879222576685 0.16654785630855867
1721843 -0.984312500057014 0.16670185143139996
1722196 -0.9841506195169968 0.16676630497682335
1722549 -0.9850124768831153 0.16703596687508093
1722902 -0.9849381469546464 0.16728743508878874
1723255 -0.9846839523115162 0.16725805196127125
1723609 -0.984897046141378 0.16828604809661085
1723962 -0.9848400055440905 0.16813032265794917
1724315 -0.9846932671080476 0.1678022848529396
1724668 -0.9848707922325798 0.16796438893392754
1725021 -0.985211329104249 0.16790434904996857
1725375 -0.9840156058437668 0.1675582058612229
1725728 -0.98427869706733 0.16719628905864653
1726081 -0.9834826671670309 0.16684598433212772
1726434 -0.9841103380393965 0.16692894459540697
1726787 -0.9844195163116909 0.16734050148331475
1727141 -0.9846601272121767 0.1673794923567517
1727494 -0.9844578136025908 0.16863551855296427
1727847 -0.9849904486442165 0.16895135777685777
1728200 -0.9847809315394279 0.16817412020091818
1728553 -0.9851452710113283 0.16834837112631582
1728907 -0.9843727144356288 0.1681432511659667
1729260 -0.9845197477090838 0.16750995351924206
1729613 -0.984172964694884 0.16782211364960312
1729966 -0.9845908424387372 0.1674120702697019
1730319 -0.9844336118432938 0.16762957659215547
1730673 -0.9841628749193461 0.16762646787749078
1731026 -0.9840393975271281 0.16783803982209716
1731379 -0.9846612033949868 0.16886590291421652
1731732 -0.9844897834726668 0.16884696569122298
1732085 -0.9842985262522126 0.1683437292327949
1732439 -0.9855997176127019 0.16860183771159376
1732792 -0.984969733325584 0.1682565349727838
1733145 -0.9854838763977458 0.16848861041487917
1733498 -0.9846618340420978 0.1681742704711954
1733851 -0.9843924374548174 0.1680457309668599
1734205 -0.9841923685565592 0.16829696794023302
1734558 -0.9842262284663508 0.1682508321174393
1734911 -0.9844395433029465 0.1677248585468709
1735264 -0.9850346773793495 0.16786316978329463
1735617 -0.9846241974900938 0.16798147688826442
1735971 -0.9849001501770364 0.16842738873685736
1736324 -0.9847012481916875 0.16826683668168418
1736677 -0.9843900127904558 0.16839316199709195
1737030 -0.9845104278220655 0.1686878955068112
1737383 -0.9846101917789644 0.1680103238656817
1737737 -0.9845101501562047 0.16810269087188523
1738090 -0.9845539630619494 0.16819048030616612
1738443 -0.9838069183514246 0.16767769347295094
1738796 -0.9843802561593908 0.16849658661008307
1739149 -0.9841944031496644 0.16852224007603211
1739503 -0.9841427461617477 0.16857676349204812
1739856 -0.9841681109969196 0.16910324175058028
1740209 -0.98454834341928 0.16928222380329547
1740562 -0.9843746977446779 0.1690211313714459
1740915 -0.984463027163623 0.1688099033042915
1741269 -0.9843534980974348 0.16857174977006695
1741622 -0.9841977380621907 0.16918949578472156
1741975 -0.9839563578225335 0.16874773789073486
1742328 -0.983888073494523 0.16833228542635437
1742681 -0.9836634076488345 0.16909521902117308
1743035 -0.9841698121859359 0.16862301009222813
1743035 -0.9845210448713775 0.16932567249055303
1743395 -0.9844188461537675 0.16934333499228868
1743756 -0.9842898464907535 0.16923021416764336
1744116 -0.9849913162717495 0.16940073381547704
1744477 -0.9844989612855333 0.16941313359855076
1744837 -0.9849349682149986 0.16957600750895566
1745198 -0.9840412665833483 0.16952142296139633
1745558 -0.9839553675434565 0.16963801568727502
1745919 -0.9841521377673235 0.16941753541505286
1746279 -0.9841724890913157 0.16878184154447531
1746640 -0.9841862656330052 0.16913647442455562
1747000 -0.9843529628777946 0.16869266119100135
1747361 -0.9845114802200461 0.1690134893105043
1747721 -0.9845765858464826 0.1698925661168488
1748082 -0.9844476460956757 0.17003195631746676
1748442 -0.984284378171787 0.17005629104510792
1748803 -0.9846087053234887 0.17041222459728975
1749163 -0.9843918144858552 0.16992180258698147
1749524 -0.9848915515602626 0.16994450566750383
1749884 -0.9843414967967498 0.16955696771764636
1750245 -0.9838690526721348 0.16941939342880838
1750605 -0.9842114884413159 0.16931577003324602
1750966 -0.9837690832801173 0.16986907956757494
1751326 -0.9837863866438636 0.16992915167090933
1751687 -0.984149700196927 0.1698579837886287
1752047 -0.9839264060424185 0.16987903996497064
1752408 -0.9842234955883333 0.17041099696942003
1752768 -0.9836596244483353 0.1702275600366261
1753129 -0.9838476525857421 0.16991378501252713
1753489 -0.9840383753891194 0.17039945094210648
1753850 -0.9840249635865319 0.16997624777413434
1754210 -0.9839195332835438 0.1698894238008593
1754571 -0.983905639153826 0.16974677405416227
1754931 -0.9836860906134715 0.1693830643612514
1755292 -0.9842100697507058 0.16999243440641926
1755652 -0.983871884525428 0.16965927062886366
1756013 -0.9837296102799273 0.17002978973449598
1756373 -0.984115978260239 0.1701380927531358
1756734 -0.9840013801406257 0.17041398411264494
1757094 -0.9844350072092437 0.17122568787869014
1757455 -0.9838191324378914 0.17107238346267695
1757815 -0.9839613049533986 0.17053710399419375
1758176 -0.9838196955933823 0.17070321495742669
1758536 -0.983847430468514 0.17066729456634824
1758897 -0.9839841210602192 0.17050486433688994
1759257 -0.9839165253869939 0.17093291995047308
1759618 -0.9834608610401935 0.17095883863943206
1759978 -0.9838365403395032 0.17062700256492
1760339 -0.9838311016714408 0.17161241498433868
1760699 -0.9841065224056696 0.17149405580573374
1761060 -0.9840817698426786 0.1719158449283395
1761421 -0.9843438040905508 0.17170876498021623
1761781 -0.9837501022216488 0.1707588248397227
1762142 -0.9842130360166558 0.17099593984319073
1762502 -0.9841055203980634 0.17068723586271042
1762863 -0.9837965795295225 0.1708920826303168
1763223 -0.983749828613361 0.17065109821083446
1763584 -0.9837435022585022 0.17088243406225473
1763944 -0.9840942860119056 0.17176585836362757
1764305 -0.9838939933835159 0.17159874510962383
1764665 -0.9837593455573627 0.1714828804710464
1765026 -0.9839953688243086 0.17164826460756777
1765386 -0.9838736089560155 0.17141316844667087
1765747 -0.9835942561835457 0.17119956420545085
1766107 -0.983533420961022 0.17118296948254244
1766468 -0.9838527552483912 0.17093091867792087
1766828 -0.9841458758092644 0.1713521358331887
1767189 -0.9837490302743788 0.17114042997844103
1767549 -0.9835826682949056 0.1714516805119335
1767910 -0.9838668940363192 0.17142124965086278
1768270 -0.9841180660789859 0.17136133880829035
1768631 -0.9843478165254296 0.17203695746138725
1768991 -0.9843800605068789 0.17203251013272738
1769352 -0.9847069130302689 0.17215639058292465
1769712 -0.984805792986701 0.17218150332066678
1770073 -0.9842894939312373 0.17172759186138822
1770433 -0.9840483214230733 0.17140414917213623
1770794 -0.9841130183400522 0.17179621440894724
1771154 -0.9838279386267579 0.17141803776700149
1771515 -0.9839512164793001 0.17154372640130147
1771875 -0.9832779575394208 0.1714973343914494
1772236 -0.9836624990640133 0.17183391898140732
1772596 -0.9837860787812047 0.17197164992740038
1772957 -0.9842325664413069 0.1727324463562836
1773317 -0.9841149235785722 0.17287168156073845
1773678 -0.9839230301765642 0.17266551167033764
1774038 -0.983157297435864 0.17204370659032112
1774399 -0.983898911266272 0.1725752169225271
1774759 -0.9840990997381768 0.17218243508291306
1775120 -0.9843718059333925 0.17318196832936716
1775480 -0.9842988498925774 0.172418848857386
1775841 -0.9840091319578143 0.17237982630364215
1776201 -0.9839008697753137 0.1725663119311719
1776562 -0.983998072611411 0.17269185335499043
1776922 -0.9830109795648663 0.17215802616566134
1777283 -0.9838612441655931 0.17278836801486544
1777643 -0.9837658814350906 0.17288140814155217
1778004 -0.9839044851447307 0.17285561058930546
1778364 -0.9837956039613559 0.17295435709981363
1778725 -0.9840869279422804 0.17305379391898773
1779086 -0.9838564582651025 0.17315206054541402
1779086 -0.9838959040355219 0.1731991828258986
1779453 -0.9838859115115643 0.17328514968717226
1779821 -0.9832627307807635 0.1730475019829439
1780189 -0.9835154888150892 0.17288685541084683
1780557 -0.983653590182239 0.17245072149588378
1780925 -0.9836882767107314 0.17262180422255996
1781293 -0.982971620947804 0.1724658268759188
1781661 -0.9827367005758536 0.17226966496637572
1782029 -0.9831769090591077 0.1730329349115553
1782397 -0.9831917400459547 0.1733620314498475
1782765 -0.9832332141323958 0.17362826540182538
1783133 -0.9834574360233127 0.1735865968747063
1783501 -0.9836756189361163 0.1733048122965711
1783869 -0.9836637503290812 0.17315989068107615
1784237 -0.9838131754472839 0.17328523206709553
1784605 -0.9836150005677144 0.17325870072348423
1784973 -0.9839224717111142 0.17286043852096664
1785341 -0.9839471076877648 0.17243105142258863
1785709 -0.9835213978726071 0.17269724321794241
1786077 -0.9837516563195124 0.17314787255398906
1786445 -0.9828401096358494 0.1730635449446191
1786813 -0.9840271479957342 0.17320029960238476
1787181 -0.9841837915903913 0.17360561220264373
1787549 -0.9839891303354136 0.17387879616845744
1787917 -0.9838698571257593 0.17328928902513566
1788285 -0.984063119867697 0.1733584076519042
1788652 -0.9836607051693352 0.17287188747316595
1789020 -0.9836626032921173 0.17319387722832752
1789388 -0.9832435361693412 0.17333192179670717
1789756 -0.9831444017649844 0.17339880295173757
1790124 -0.9829456009771411 0.17313502915652362
1790492 -0.9839307446161702 0.17364668639621425
1790860 -0.9838515254958415 0.17386076099396897
1791228 -0.9839947557433171 0.17416023770442843
1791596 -0.9837089256355126 0.17420027150597525
1791964 -0.9838835427889578 0.1733230772081317
1792332 -0.9834330747573576 0.1736390481646247
1792700 -0.9832626341137728 0.17337455524757658
1793068 -0.9830384212385183 0.17364329903476236
1793436 -0.9830214491344751 0.1738498675038203
1793804 -0.9832719737888723 0.17380452502521695
1794172 -0.982403410941268 0.1742239811737969
1794540 -0.9830031142096203 0.17370731591112495
1794908 -0.982741280177553 0.1737772259912621
1795276 -0.9832508056613096 0.17450691001665794
1795644 -0.9838564874159933 0.17425414983333967
1796012 -0.9838584096952692 0.1745186656786879
1796380 -0.9835133072955045 0.17461596049066183
1796748 -0.9839613072728748 0.1746415825275783
1797116 -0.9840148372298871 0.17497576219518687
1797484 -0.9836405457474665 0.17491862333972755
1797851 -0.9836757389217391 0.17509078706546594
1798219 -0.9837715722202024 0.17497410006234715
1798587 -0.983172624663356 0.17444115754032852
1798955 -0.9850966195417725 0.1760866768410826
1799323 -0.9836147890965657 0.1750115944295648
1799691 -0.9841927299997906 0.17461309671744724
1800059 -0.9783681473171082 0.17351271057960646
1800427 -0.9839184749608544 0.17423864871591982
1800795 -0.9834284956345594 0.17406300083533013
1801163 -0.9831166381601256 0.1735953226377655
1801531 -0.9835726186485789 0.17384619914667884
1801899 -0.9811911758114684 0.1732219905404939
1802267 -0.9844160212286771 0.17511004005163983
1802635 -0.9844217577313654 0.17570696201080963
1803003 -0.9823398736848146 0.17578709986363286
1803371 -0.9839596376844446 0.17594918980847543
1803739 -0.9842580151494733 0.17593095686956026
1804107 -0.9835731174776103 0.17524685841512228
1804475 -0.9834145061350354 0.1748845532625581
1804843 -0.9834982196499388 0.17481573398922476
1805211 -0.9837071987613936 0.1750312201440975
1805579 -0.9832471906847684 0.17472750370947984
1805947 -0.9826443523951373 0.17510629705345837
1806315 -0.98285597412374 0.17478325826407098
1806683 -0.9829886601801198 0.17527876630336858
1807050 -0.9832954735970114 0.17548329691641962
1807418 -0.983292062448974 0.1758574598037601
1807786 -0.9829337634377154 0.175174945898826
1808154 -0.9829627487798737 0.17551452821153496
1808522 -0.9829474414893514 0.17510382984031672
1808890 -0.982795756092922 0.17497130638922687
1809258 -0.9829108061518517 0.1753039412161832
1809626 -0.9827047212038332 0.1749870768873476
1809994 -0.9832005475284841 0.17546016379342894
1810362 -0.9837863089803854 0.17555723227627978
1810730 -0.9840181749250319 0.17566550710100248
1811098 -0.9835111995982755 0.17567077662625594
1811466 -0.98322533275271 0.17571044286113172
1811834 -0.9836952855361235 0.17581308170189286
1812202 -0.983053778541903 0.17575257485484552
1812570 -0.9832913855877449 0.17560311177059112
1812938 -0.982733414620417 0.1752736758508529
1813306 -0.9829778531961293 0.175178668519976
1813674 -0.9831440301229637 0.17529836459932654
1814042 -0.9827868547199525 0.17568395217712615
1814410 -0.9831258166043022 0.17586964438656075
1814778 -0.9822436179278186 0.17566168515972605
1815146 -0.9834816597562888 0.17639329781378132
1815514 -0.9831804365827677 0.17651582562625928
1815882 -0.982611996483202 0.17669815769259306
1815882 -0.9833083246232985 0.1765263423041068
1816257 -0.9829215242170335 0.17665749211492418
1816633 -0.9829433443636865 0.17593295967194977
1817008 -0.9830367710505816 0.17622660632100914
1817384 -0.9830819902311497 0.17571087950149583
1817759 -0.9829868530047611 0.17627517232150816
1818135 -0.9827131024506058 0.17620584107853415
1818510 -0.9829249850886369 0.17625301869429152
1818886 -0.9826828729035374 0.17648211392964452
1819262 -0.983065613282709 0.17654417206339523
1819637 -0.9831019354396366 0.1771557449593848
1820013 -0.9831461329727056 0.1769857444527186
1820388 -0.9833081860102982 0.17703254979564076
1820764 -0.983119717717925 0.17671647977010604
1821139 -0.9826935915019039 0.17605860004434232
1821515 -0.9822619005971461 0.17670082506069515
1821891 -0.9828593634827903 0.17668907433719888
1822266 -0.9824489255884822 0.17673998646651107
1822642 -0.9828103396655176 0.1771795186672158
1823017 -0.9827753353435227 0.17690913809899847
1823393 -0.9828561290477071 0.1777719800970861
1823768 -0.9828755615587922 0.1777764862164419
1824144 -0.9828539672960619 0.17772245661645938
1824520 -0.9829484112864173 0.1772249298891943
1824895 -0.9828422178925794 0.17686944887807296
1825271 -0.9826465637975321 0.1768664739410421
1825646 -0.9829830617304293 0.17679234393720958
1826022 -0.9829536556901086 0.17682725134346694
1826397 -0.9828139559427551 0.17717785094386868
1826773 -0.9828283459755477 0.17681939575167727
1827149 -0.9826608675027299 0.177561990028364
1827524 -0.983157229075574 0.17837873302479104
1827900 -0.9831548567907044 0.17799838085205283
1828275 -0.9831190014962448 0.17771604289012646
1828651 -0.9831066440036604 0.17731426461943978
1829026 -0.9830035786802053 0.17738693505246772
1829402 -0.9827037033523778 0.1772413615819234
1829778 -0.9825661605548841 0.17747888938253745
1830153 -0.9826674568763812 0.17731524263955953
1830529 -0.9827565438427228 0.17715384453663627
1830904 -0.9827995333284106 0.17796163726197772
1831280 -0.9827802446442919 0.17762252433675646
1831655 -0.9830011425160498 0.1776526879946793
1832031 -0.9830439122428741 0.1776938653240813
1832407 -0.9836432380710584 0.17708633430391715
1832782 -0.9829293497883184 0.1776971689111229
1833158 -0.9828271239561471 0.17761470875239688
1833533 -0.9825302181168858 0.1772167351764333
1833909 -0.9829273937182376 0.1775910245444119
1834284 -0.9831823256435934 0.1780284934883903
1834660 -0.9822634809221068 0.17809787240602032
1835036 -0.9829896552850034 0.1787066469124283
1835411 -0.9829059042535722 0.1786260916428458
1835787 -0.9831077517792913 0.17808699777319711
1836162 -0.9833981713180455 0.17820455131359136
1836538 -0.9825134604537454 0.17799904676757572
1836913 -0.9826453153711241 0.17801854664432293
1837289 -0.9825971767873868 0.17772850006627583
1837665 -0.9820956647742276 0.1778688907384391
1838040 -0.9826051335709722 0.17802757014423734
1838416 -0.9825996253483884 0.17835459277955473
1838791 -0.9828810058493694 0.17854499154613224
1839167 -0.9827181197284369 0.17861708373649707
1839542 -0.9825308749957655 0.1789369175293465
1839918 -0.9824809575810559 0.17856339881680341
1840294 -0.982592874387256 0.17839440966760808
1840669 -0.9824486811973886 0.1780670934743176
1841045 -0.9822588778333932 0.17783951095552006
1841420 -0.982311498739864 0.17806778922810612
1841796 -0.9820495962461903 0.1782432286689427
1842171 -0.9822231863944917 0.1782562618020504
1842547 -0.982215736545398 0.17847580878974625
1842923 -0.9827770130442093 0.17908161235363393
1843298 -0.9829402301655987 0.17940942756022393
1843674 -0.9826102136805335 0.1790886289036357
1844049 -0.9830664743545228 0.17900311178309364
1844425 -0.9831425126939835 0.17889700199930522
1844800 -0.9828333457637549 0.17874415634662635
1845176 -0.9825532504940153 0.17877630181943618
1845552 -0.9821204785673722 0.1786733326498292
1845927 -0.981637623774499 0.17906416945015516
1846303 -0.9822510286142945 0.17893854165659404
1846678 -0.9825480645165251 0.17951699552705289
1847054 -0.9825255712518831 0.17995423074019196
1847429 -0.9824587082540235 0.1795305127369798
1847805 -0.9829231854472187 0.1792243593915281
1848181 -0.9826344714909591 0.17913155775575604
1848556 -0.9826013540492097 0.17901395547263788
1848932 -0.9826934991864686 0.1791210319795488
1849307 -0.9817789285195508 0.1788896607454147
1849683 -0.9820460918818346 0.1789732637089936
1850058 -0.982192265713626 0.17895548703162803
1850434 -0.9824357179417602 0.17960945701690043
1850810 -0.9825916447267887 0.17963580223887565
1851185 -0.9827567239848496 0.1792799961700291
1851561 -0.9821492273042334 0.17942800780328913
1851936 -0.98242499055766 0.17900666419411748
1852312 -0.9816261173235372 0.17897763282462534
1852687 -0.9821673821333571 0.17943497572261113
1853063 -0.982476202553781 0.17965026417832786
1853439 -0.9818008251421727 0.1806623331856805
1853439 -0.982073152736721 0.1808544443646896
1853822 -0.9825273633288714 0.180510064794266
1854205 -0.9822702881233526 0.18016319042711523
1854589 -0.982821527389944 0.1797731857057433
1854972 -0.9822755751389219 0.17962654842540732
1855355 -0.9828832521370787 0.17957509303095187
1855739 -0.9828585896428379 0.1795289940244182
1856122 -0.982530764632653 0.1793915528717502
1856505 -0.9823242890558094 0.18010938319799427
1856889 -0.9819714209103362 0.18003210399358607
1857272 -0.9823967790953068 0.18039493261802927
1857655 -0.9826230612005559 0.18087068170654666
1858039 -0.9823772035083489 0.18059638019762314
1858422 -0.9827767154332393 0.1806184610568284
1858805 -0.9821515979066232 0.1796598191284454
1859189 -0.9822481166423238 0.17999932371043706
1859572 -0.9820604090848357 0.18004917685332322
1859955 -0.9818645615351634 0.18079501746342388
1860339 -0.982012185220438 0.18081562272275054
1860722 -0.9820498564243406 0.18064041600081338
1861106 -0.9822517330181855 0.18109684332720222
1861489 -0.9820219033112629 0.18074193548060064
1861872 -0.98248555175023 0.18054065817736314
1862256 -0.9827287673626454 0.1801746494921846
1862639 -0.9827350028222168 0.18091728632402213
1863022 -0.9829229760946152 0.1805891353243734
1863406 -0.9826695864492276 0.1810481278765556
1863789 -0.9828762575921826 0.1810940428269622
1864172 -0.9829370426639666 0.1807751239410024
1864556 -0.9823439549419765 0.18106835770446253
1864939 -0.9821135968644269 0.1809848806621238
1865322 -0.9815765391600116 0.18068655413056528
1865706 -0.9822188793048396 0.18084002099177318
1866089 -0.9822708811387565 0.18095134697426216
1866472 -0.9818946830877139 0.18068802660149388
1866856 -0.982531540525882 0.1810928783457585
1867239 -0.9818128180051868 0.18072608259076306
1867622 -0.981940942386286 0.1811941916638804
1868006 -0.9818700316401147 0.18128992387036513
1868389 -0.9817678545171836 0.18179620570339194
1868773 -0.981847240133164 0.18161442553603405
1869156 -0.9817287272992411 0.1816568941918151
1869539 -0.9821913197503489 0.18148889238243632
1869923 -0.9824040067187868 0.18160989071503014
1870306 -0.9818936708835638 0.18161671582543115
1870689 -0.9825182740197023 0.18148754434757894
1871073 -0.9822934020061725 0.18134310828929145
1871456 -0.9818648444938688 0.1814573472236165
1871839 -0.981041760581503 0.18058557860382457
1872223 -0.9816535783332584 0.18142368211747237
1872606 -0.9818903222572689 0.18110506066636936
1872989 -0.9818116749790263 0.1817545789369247
1873373 -0.9821966773525392 0.18181561958170922
1873756 -0.9819353342347638 0.1816345156071663
1874139 -0.9826249032730987 0.18172081734202897
1874523 -0.9820248056241734 0.18115437781848862
1874906 -0.9819729250088806 0.18182647051075207
1875289 -0.9819460123223522 0.18168133236312822
1875673 -0.9815046325654236 0.1815789408379674
1876056 -0.9813270058970575 0.18163410131480412
1876440 -0.9818216813553314 0.18214612681030742
1876823 -0.9819847502047839 0.18197356026346256
1877206 -0.9825386395499018 0.18242438134482988
1877590 -0.9819673719841711 0.1819001952172902
1877973 -0.9816598457930877 0.1819056221751719
1878356 -0.9818973928799095 0.18190315536008725
1878740 -0.9821200151170368 0.1817445702190141
1879123 -0.9819188472953121 0.1821839625357665
1879506 -0.9813107665615016 0.18242630333595658
1879890 -0.9815663961022856 0.1825788608549157
1880273 -0.9813538003584653 0.1821704442197155
1880656 -0.9822892809460744 0.18264163725464966
1881040 -0.9824480746667572 0.18264576019070508
1881423 -0.9818986088551498 0.1825852328433796
1881806 -0.9818091005044977 0.18225398399349918
1882190 -0.9815652974810422 0.18200594288230243
1882573 -0.981139833026727 0.18217282882713573
1882956 -0.9813481715532066 0.18249431846119946
1883340 -0.9812937049537181 0.18296371035218192
1883723 -0.981815635141823 0.18312870683969953
1884107 -0.9814925184074549 0.18288624148905228
1884490 -0.9820070936724038 0.18289369884537302
1884873 -0.9817833145475815 0.1827400561190335
1885257 -0.9818931057780032 0.1828406382284123
1885640 -0.9819138196426798 0.18289702889288262
1886023 -0.9817146955520055 0.18299456262976674
1886407 -0.9815418586166995 0.18321752106419117
1886790 -0.9812455971899481 0.18305639919092773
1887173 -0.9817133986502304 0.18357790742173943
1887557 -0.9821905403311477 0.18360612453444045
1887940 -0.9815636725682856 0.1833771442890907
1888323 -0.9819656620874945 0.18338056928049234
1888707 -0.9810768186173093 0.18257663705291252
1889090 -0.9817897092076948 0.18287910085365774
1889473 -0.9815897033670087 0.18265349217901047
1889857 -0.9813959581290304 0.18294392158009065
1890240 -0.9813522107470769 0.18359259771871522
1890623 -0.980998931427323 0.18325143456883924
1891007 -0.9815398828410465 0.18322952365790016
1891390 -0.9815294178239959 0.1836695214673372
1891774 -0.9816725922904632 0.18343286477118828
1891774 -0.9816074770689867 0.18331990494048592
1892165 -0.982032187430273 0.18343408948895745
1892556 -0.9815816720896694 0.18327052784043055
1892947 -0.981547618315152 0.1834548139945569
1893339 -0.9813952049393935 0.1834575090322968
1893730 -0.9813257533897595 0.183766246959193
1894121 -0.9811486464617253 0.18371765734135684
1894512 -0.9813111236565901 0.1836785103161029
1894904 -0.9812028074841772 0.18402187575403822
1895295 -0.981030941240593 0.18337899545448202
1895686 -0.9818590427882823 0.18349290008002378
1896077 -0.9820301110558226 0.18354509854459888
1896469 -0.9814890752615394 0.18371678481669368
1896860 -0.9815418365202161 0.1838747763879645
1897251 -0.9811425731258228 0.18351375711457174
1897643 -0.980955633200236 0.18396567013574547
1898034 -0.9814995211349614 0.1841690831680074
1898425 -0.9813311621570089 0.18415687165355007
1898816 -0.9820029669731821 0.18438116607706684
1899208 -0.9816952159717381 0.18424573746099387
1899599 -0.9818883077802892 0.18447007450491237
1899990 -0.9817311112952628 0.1842683603412354
1900381 -0.9812038263465706 0.18406248001836337
1900773 -0.9811973182746998 0.18364406803676378
1901164 -0.9808996967198703 0.184238968443684
1901555 -0.9807473935107539 0.18420134223364956
1901947 -0.9807419151782075 0.18484800703064733
1902338 -0.9814533501354938 0.18492123276698863
1902729 -0.9814096328406036 0.18499290323084552
1903120 -0.98122397511336 0.18475150444838292
1903512 -0.9815418050104486 0.1842943329423815
1903903 -0.9810334970779188 0.18455528862895818
1904294 -0.9814215914262446 0.18423553786476396
1904685 -0.9814231838539431 0.18397935074477242
1905077 -0.9814002311615962 0.18457458660956416
1905468 -0.9816778490329902 0.18453666128182805
1905859 -0.9813810410232148 0.18473367436561788
1906250 -0.9820045084335406 0.1851111443690572
1906642 -0.9816510818010197 0.18523847227906093
1907033 -0.9821161204084665 0.18564922696425806
1907424 -0.9812957485854741 0.1849449789560887
1907816 -0.9812539842763893 0.18500328264372334
1908207 -0.9813741880972663 0.18466850992204129
1908598 -0.9811167905221986 0.18517575798511215
1908989 -0.981036986179527 0.18556711857157787
1909381 -0.9810585100683189 0.18562123924736437
1909772 -0.9812415493776909 0.185267172435787
1910163 -0.9813775193097157 0.18527753003435635
1910554 -0.9816092754392802 0.18558484094223968
1910946 -0.9818978162293711 0.1857784113956582
1911337 -0.9815160309853651 0.18507050324357066
1911728 -0.9808985477730554 0.18545135811297536
1912120 -0.9808708507595352 0.1851196619849009
1912511 -0.9811459128077844 0.18518145704205255
1912902 -0.9812834838056421 0.18540645129020045
1913293 -0.9809187597819589 0.18620966822013024
1913685 -0.9810920373463738 0.18622040343553944
1914076 -0.9809557213927661 0.1856201498871843
1914467 -0.9809396998802371 0.18549736826391328
1914858 -0.9811098955086858 0.1851928426570864
1915250 -0.9814018750573175 0.18541216072955702
1915641 -0.9820930810058177 0.1854031210214022
1916032 -0.9815683873564183 0.18531513954588502
1916424 -0.9813737582647357 0.18606899340016853
1916815 -0.9805879051479478 0.18537966774027598
1917206 -0.9812924869209398 0.18604700007847255
1917597 -0.9816287110852397 0.18604946428766847
1917989 -0.9811391434009824 0.1862955512810732
1918380 -0.981201606841779 0.18646338723015254
1918771 -0.9814035925040511 0.185188250925467
1919162 -0.9811011198231621 0.186075395596535
1919554 -0.9808660911178249 0.18591207108128208
1919945 -0.9811477772896923 0.186468949459662
1920336 -0.9813020189385273 0.1866156785635787
1920727 -0.980974315108525 0.18646460133338819
1921119 -0.9807319622439684 0.18690213796199415
1921510 -0.9803330968912692 0.18606901275361956
1921901 -0.9811868060562315 0.18642289035664017
1922293 -0.9813651192697137 0.18615268299492224
1922684 -0.9809587848006164 0.18662278726134304
1923075 -0.9815205591770577 0.18682976134450158
1923466 -0.9806048434838087 0.1861447796223562
1923858 -0.9806420978233976 0.18691940585648262
1924249 -0.9806841827008004 0.18638754861465728
1924640 -0.9806781652407915 0.1867115964239261
1925031 -0.9809917873498538 0.18637093327258691
1925423 -0.9808250153666628 0.1864037540548723
1925814 -0.9810530895670548 0.1869858819474483
1926205 -0.9803188932868864 0.18635212614224708
1926597 -0.9809889801856363 0.1868276648010194
1926988 -0.9812396510434075 0.18685969996334933
1927379 -0.9807192544542173 0.1873126409740816
1927770 -0.9809910977384074 0.18756129177994244
1928162 -0.9804636804956512 0.18702438065334043
1928553 -0.9806172705259314 0.1874229336295719
1928944 -0.980945625808005 0.18687003132128274
1929335 -0.9806835927496583 0.18713756483119837
1929727 -0.9813028504303053 0.18714138461288005
1930118 -0.9807175096492724 0.18686418753068662
1930509 -0.9809396837744933 0.1870869866644458
1930901 -0.9807716287518866 0.1869509991185244
1930901 -0.9804525350113173 0.18701341318384626
1931300 -0.980812630677218 0.18733854307705164
1931699 -0.9804932290057178 0.1866561683253491
1932099 -0.9806693684227277 0.1868953536421283
1932498 -0.9810172555524403 0.18677565257398757
1932897 -0.9810452627158746 0.1872071808397775
1933297 -0.9812054366899767 0.18713425356986138
1933696 -0.9803010030619866 0.18738538775024371
1934095 -0.9804405558673865 0.1874904872122687
1934495 -0.97980983462227 0.18690557588022405
1934894 -0.9800655242340838 0.1873958691825606
1935293 -0.9800289517651368 0.18711206543733272
1935693 -0.9805257809870173 0.1876577094155093
1936092 -0.9811423457211178 0.18806319864388332
1936492 -0.9805784573193967 0.18806238426248956
1936891 -0.9810589487263468 0.1881339566786165
1937290 -0.9807256969027773 0.18750624020438147
1937690 -0.9806283549243726 0.18738523413488636
1938089 -0.9805594237839494 0.1871908889989166
1938488 -0.9804234083805791 0.18770969783974875
1938888 -0.9810646942020047 0.18834478976664892
1939287 -0.981005683555316 0.18852761534621792
1939686 -0.9809718322887099 0.18847864146547147
1940086 -0.9810043045491362 0.18802776069013802
1940485 -0.9813123975375244 0.18847745136121766
1940885 -0.9810497591295804 0.18825721433493658
1941284 -0.9809498645994009 0.18860685851574474
1941683 -0.9810505463521628 0.18831418749727938
1942083 -0.9801600417009985 0.1882179937795865
1942482 -0.9808652142754604 0.18902765480922915
1942881 -0.9800126323642361 0.18872061064445333
1943281 -0.9805377744771417 0.1891532709120251
1943680 -0.979969886454075 0.18833049289287607
1944079 -0.9808798142097551 0.18919966530475188
1944479 -0.9816200330427248 0.18867814659521565
1944878 -0.9807181655635383 0.18840945396252898
1945277 -0.9806816691165154 0.1888784438682888
1945677 -0.9803809515404132 0.18807716110201095
1946076 -0.9802502202910366 0.18828488415832006
1946476 -0.9798503778706243 0.18854236819313866
1946875 -0.9803122008833904 0.18925777940846672
1947274 -0.9798919585975003 0.1886674243440482
1947674 -0.9796002894411666 0.18894277781148802
1948073 -0.9809916747669083 0.18956173364125734
1948472 -0.9792366229199007 0.18786598434681348
1948872 -0.9773053643860825 0.18743462412991513
1949271 -0.9793193924548286 0.18866488410013854
1949670 -0.9802865042761048 0.18917924307931208
1950070 -0.9776237001305738 0.18822831880846091
1950469 -0.9813697545570481 0.1890424057098148
1950869 -0.9809293675169255 0.1898404212627556
1951268 -0.9798600839782124 0.1887192362535064
1951667 -0.9808749779907645 0.18966444483758485
1952067 -0.9803757180915561 0.18900329611828712
1952466 -0.9804419702958119 0.18928758600569667
1952865 -0.9812248209404162 0.1896206499052505
1953265 -0.9799688481931658 0.1887435047543459
1953664 -0.9801145519770598 0.18889730422383577
1954063 -0.980092503139342 0.18904040030418004
1954463 -0.9798949292230145 0.18940031864423162
1954862 -0.9804625648243578 0.18958076974661683
1955261 -0.9798625948887589 0.1890142156889624
1955661 -0.9806609296017804 0.1895113896557249
1956060 -0.9807442314015253 0.18928527734572487
1956460 -0.9803090283729424 0.18927167047682314
1956859 -0.9802969734176316 0.18975090312478604
1957258 -0.9802073883903879 0.19021832574486602
1957658 -0.9801206241084603 0.1903638721876283
1958057 -0.9798809702308844 0.18985132133690044
1958456 -0.9801282974671981 0.19025371575630895
1958856 -0.9800888102816644 0.18988110557824392
1959255 -0.9803878637280516 0.19025355377778813
1959654 -0.980769871923904 0.18985527851077555
1960054 -0.980364881089998 0.19036841352055586
1960453 -0.9808425249504386 0.1898813357823609
1960853 -0.9800357876216992 0.18937767706124045
1961252 -0.9805098765146814 0.19034758792569237
1961651 -0.9800657524666362 0.18975788244489497
1962051 -0.9801450094589564 0.19034281359490554
1962450 -0.9802445434004161 0.19046245143396232
1962849 -0.97995596088529 0.19035407227995219
1963249 -0.9803726144497592 0.19107477372201273
1963648 -0.9793523070548534 0.19000792296181002
1964047 -0.9801497704771059 0.19024135777543474
1964447 -0.9798395114756326 0.19034838038334206
1964846 -0.9797905504182931 0.1906258928331314
1965245 -0.9804271503313643 0.19042446462257961
1965645 -0.9797943903365751 0.19040588053207413
1966044 -0.9800476048678595 0.1906498491360947
1966444 -0.979733602367257 0.18982993041381938
1966843 -0.9804168919521672 0.1904308378181784
1967242 -0.9801568000828006 0.19038721239341366
1967642 -0.9798485262463866 0.1905638168759208
1968041 -0.9800277946523293 0.1904633419149809
1968440 -0.9795923481571935 0.19056659541030624
1968840 -0.9798169738317432 0.19079626894509166
1969239 -0.979509354630863 0.19004139078297275
1969638 -0.9802489096922659 0.19112777284267735
1970038 -0.9802642068738292 0.1913159968459518
1970437 -0.9799742988514676 0.19164584840588164
1970837 -0.9803895973894335 0.19118786830002335
1970837 -0.9800081206069422 0.1915049192905881
1971244 -0.9802115103738219 0.19119321923453786
1971652 -0.979773819351567 0.19095379574100113
1972059 -0.9804212189382542 0.1910485985333744
1972467 -0.9799423335743731 0.19092952266705196
1972875 -0.9800352039353601 0.19123840768079026
1973282 -0.9794242455265991 0.19093083440920702
1973690 -0.9796932155622692 0.19138598583221253
1974097 -0.9798700689774996 0.1911239811764853
1974505 -0.9797260135459097 0.1912187743512561
1974913 -0.9802127236041537 0.1912369213115737
1975320 -0.979549744284116 0.19113070441884522
1975728 -0.9799411461167903 0.1913838407841121
1976136 -0.9793880811817934 0.19132221248012468
1976543 -0.9798545414237119 0.19164815020300677
1976951 -0.9796266789745502 0.1915417573377416
1977358 -0.9797189373979582 0.19162997512268312
1977766 -0.9801454513810873 0.19190956588318872
1978174 -0.9797594529669588 0.19195980815460917
1978581 -0.9804927315147455 0.1916794536704931
1978989 -0.9796583776938447 0.19124826145734566
1979397 -0.9797925047784649 0.19140756454123808
1979804 -0.9795640925196376 0.19128449639074407
1980212 -0.9794675428881523 0.19192592557939703
1980619 -0.979788834395606 0.19169115054123154
1981027 -0.9800738479255602 0.1922760737188168
1981435 -0.9802883909117027 0.19241907629821484
1981842 -0.9799019867694343 0.19221686187534348
1982250 -0.9800148857513109 0.19235359054292184
1982657 -0.9799414322400508 0.19194539656517687
1983065 -0.9796295818343387 0.19237229922935634
1983473 -0.9795488977470169 0.19195543606695847
1983880 -0.979732714697412 0.19258251980128022
1984288 -0.9800105921171104 0.19237740853913957
1984696 -0.9798147766400601 0.19285309819346075
1985103 -0.9805229444782997 0.1932970866872721
1985511 -0.9796045874013146 0.1925016971223873
1985918 -0.9802281601854118 0.1927123685580894
1986326 -0.979549333432264 0.1916377422254723
1986734 -0.9802823631362135 0.19192377616407313
1987141 -0.9801525028367503 0.192079958566894
1987549 -0.9794580990574306 0.19215365365933867
1987957 -0.9798508407247455 0.19259347706734328
1988364 -0.9794696563382889 0.1928331327682515
1988772 -0.9800235233556664 0.19319500517051397
1989179 -0.9803045481953051 0.19292236359168846
1989587 -0.9802573242664949 0.19310810869323744
1989995 -0.9802169641289038 0.19314179770784845
1990402 -0.978966228098434 0.1919741225975763
1990810 -0.9797302327707448 0.19253781663999855
1991218 -0.979539515313354 0.19313201206977498
1991625 -0.9791582005314589 0.1931782936351049
1992033 -0.9799952510476514 0.19351299224067037
1992440 -0.9793841519679226 0.19336174026920222
1992848 -0.9799239970903906 0.19389242906495724
1993256 -0.9793545710250356 0.19296884009972753
1993663 -0.9795923906549836 0.19308452131171247
1994071 -0.9794113857619113 0.1928510195787257
1994478 -0.9795328397753355 0.1928849638291656
1994886 -0.979508264283835 0.19346836974205076
1995294 -0.9791785209043992 0.19355711438104248
1995701 -0.9797465269987816 0.19390778491466798
1996109 -0.9793184100351591 0.193386287971669
1996517 -0.9800392216599354 0.19377471093260765
1996924 -0.9794799501193143 0.19314244176774412
1997332 -0.9797542269889609 0.19325746577157957
1997739 -0.979945539543813 0.19314079682491261
1998147 -0.9797155507319152 0.1934226455374666
1998555 -0.9797467252290821 0.19380220531478007
1998962 -0.9794539275153082 0.19431729120086433
1999370 -0.979673169178645 0.1947973098396128
1999778 -0.9790966980872765 0.19405406466589398
2000185 -0.979642069058927 0.19429375589977463
2000593 -0.9798230158560741 0.19386250387622841
2001000 -0.9793698615129269 0.19389724377779188
2001408 -0.9798357734241173 0.19431344337690387
2001816 -0.9789041710338521 0.19409988750341328
2002223 -0.9795324967503408 0.1944790579658201
2002631 -0.9789465499394558 0.1941391845298195
2003038 -0.9789851610708383 0.19477785495930802
2003446 -0.9790662087960648 0.19393614574717488
2003854 -0.979583325158279 0.19423335745021866
2004261 -0.9796424411642504 0.19412752205854575
2004669 -0.9797569261054545 0.19407227245080996
2005077 -0.9801196303983867 0.19416369774384665
2005484 -0.9794206781564069 0.19433224604333993
2005892 -0.9797100228361654 0.1946081273008084
2006299 -0.9787462839569855 0.19431727470151458
2006707 -0.9793662851692517 0.19456947605053898
2007115 -0.9789810867479324 0.19428924411540394
2007522 -0.9792781039237247 0.19428651207111958
2007930 -0.9795428486767358 0.19431888601340658
2008338 -0.978781004864716 0.1943795420518032
2008745 -0.9793994597939678 0.19464230330049878
2009153 -0.9786392345098243 0.19426792369702114
2009560 -0.9788775596467358 0.1952579412121555
2009968 -0.979070240960741 0.19491449133499425
2010376 -0.9789901847059287 0.1954218321454563
2010783 -0.9789742381810377 0.19526694693918356
2011191 -0.9792299277228937 0.19509008606777348
2011599 -0.9801684161366953 0.19511972358927085
2011599 -0.9794662086820709 0.1951565643745097
2012015 -0.9797176367040079 0.19511505519441247
2012431 -0.9797811536074025 0.19513388611590113
2012847 -0.9792778991457918 0.19499829454139606
2013263 -0.979740622505484 0.19524652225359188
2013679 -0.9789136357477962 0.1951698428018228
2014095 -0.9789342964490902 0.19561123430479638
2014511 -0.978737389588787 0.19531264680524466
2014927 -0.9791430619733851 0.19570123657317978
2015343 -0.9787794220326733 0.19500374172282522
2015759 -0.9793371969321146 0.19517903422088428
2016175 -0.9795700260567686 0.19506817581889233
2016591 -0.9788495384943746 0.1953364516835472
2017007 -0.9796498262347807 0.1954185185225108
2017423 -0.9791145083438878 0.1950691264457311
2017839 -0.9790090365734191 0.19587854438056443
2018255 -0.978618824108105 0.19547319107438485
2018671 -0.9788758094311033 0.19636206077653198
2019087 -0.9786494950478618 0.19537745023286895
2019503 -0.9786466404164584 0.19582874505609135
2019920 -0.978952107499033 0.19555317373273218
2020336 -0.9781505605479355 0.19554919848592536
2020752 -0.9791005533567646 0.19566000266368488
2021168 -0.9784267745721256 0.1957567273795163
2021584 -0.9787101137051487 0.19626419114386193
2022000 -0.978228112284652 0.19545306115868288
2022416 -0.9790983318608769 0.19631934432185988
2022832 -0.9787775529795998 0.19586791671634685
2023248 -0.9795089606892626 0.1960427631182718
2023664 -0.9795966752477571 0.19621983207479166
2024080 -0.9786283236319403 0.19572220501992377
2024496 -0.9799013987818975 0.1959617041627558
2024912 -0.979789552366985 0.19659484466067786
2025328 -0.9795086316456916 0.19665879168132008
2025744 -0.9789032282200731 0.19624866815244366
2026160 -0.9793561142048521 0.19659546545918616
2026576 -0.9788052719263175 0.19561339297568728
2026992 -0.9790535202741958 0.19616171010876834
2027408 -0.9792343986878639 0.19649145610925361
2027824 -0.9788900935921693 0.1958603987362464
2028241 -0.9793373273647158 0.19610071589327205
2028657 -0.9783770944661937 0.19648484285131657
2029073 -0.9795051587009591 0.19672673422106005
2029489 -0.9781734433579606 0.19657170516719757
2029905 -0.9787582443883174 0.19692698333606337
2030321 -0.9784012025114799 0.1963666142824697
2030737 -0.9791923599428488 0.19722548519415073
2031153 -0.9795461120473741 0.19657238824054385
2031569 -0.9788685097307672 0.19681480724005607
2031985 -0.9792619363962963 0.19679902118473022
2032401 -0.9783865640087165 0.1970878748696207
2032817 -0.978614505690111 0.1971880964000442
2033233 -0.9784725712839454 0.197513810183723
2033649 -0.9793086665843305 0.19760852269675588
2034065 -0.9785486340293804 0.19711917795514877
2034481 -0.9792081780278934 0.1976741770791745
2034897 -0.9790876061218647 0.197132746221836
2035313 -0.9790719689857481 0.19741110142711432
2035729 -0.9786230993670683 0.19727212708413863
2036145 -0.9788594782303167 0.19745834568447376
2036562 -0.9792034260244523 0.19772941126113208
2036978 -0.9786465415124227 0.19769844262961495
2037394 -0.979260992406887 0.19764166702211627
2037810 -0.9782457635058068 0.19701054057091458
2038226 -0.9791006468583399 0.1978737361939892
2038642 -0.9785573718766248 0.19680794817000494
2039058 -0.9793450213852112 0.19699901441622653
2039474 -0.9789613836572741 0.19693766657251838
2039890 -0.9783395858705038 0.19737960897668977
2040306 -0.9786094889928084 0.19756506035128224
2040722 -0.9782326292003559 0.19788049017519987
2041138 -0.9784543567053077 0.1984791101194424
2041554 -0.9782718698256246 0.19796397150816375
2041970 -0.978782826448723 0.1984708448142443
2042386 -0.9785246348092915 0.19768373948116313
2042802 -0.9786820431346321 0.19765956431389475
2043218 -0.9789590490499381 0.19786034388600138
2043634 -0.9780042215514377 0.19814294158317666
2044050 -0.9783149753270591 0.19822916588640102
2044466 -0.9783658882132786 0.19841714714925726
2044883 -0.9789504828023988 0.19878449891301653
2045299 -0.9785263257889908 0.19825126584538125
2045715 -0.9789980275827476 0.19867401784067
2046131 -0.9780935655485328 0.1976682184299598
2046547 -0.9787262016258417 0.19776572459884917
2046963 -0.979013786496953 0.19806385882313637
2047379 -0.9780732879001778 0.19836912449560815
2047795 -0.9783689180546259 0.1990244711723109
2048211 -0.9783153723899467 0.1991053885883682
2048627 -0.9785305694187912 0.199306206443869
2049043 -0.9782980182450962 0.19864493481631768
2049459 -0.9791878655927069 0.19902642378549495
2049875 -0.9782661441729746 0.19840965072813244
2050291 -0.9788424829040514 0.19905559161090677
2050707 -0.9784996662698491 0.19909481974997226
2051123 -0.9781092323776015 0.19930146414771585
2051539 -0.978840683130391 0.19932127025279597
2051955 -0.9785194871775479 0.19941301656705276
2052371 -0.9789105935158696 0.19954298127030845
2052787 -0.9782560097568412 0.1991545128596297
2053204 -0.9784305256204692 0.1991794810596196
2053204 -0.9783891682963326 0.1991153469940058
2053628 -0.9781532179658071 0.19890119779465754
2054053 -0.9784507931015856 0.1989740439575874
2054477 -0.9783175044576662 0.19875390459337816
2054902 -0.9778933281590596 0.1987068499062061
2055327 -0.9785361749871723 0.1988948574986217
2055751 -0.9782691363461438 0.19916212306885836
2056176 -0.9786599793079834 0.19944691535355646
2056601 -0.9786422862867613 0.1992113571334934
2057025 -0.9787936198221113 0.19962072733249342
2057450 -0.9778027553578975 0.1990318395471715
2057875 -0.9787312044105464 0.19929583697398778
2058299 -0.9780924948502165 0.19892334753077415
2058724 -0.9790125248241148 0.19943941504909043
2059149 -0.9786715198984763 0.1991124391994761
2059573 -0.978463219229821 0.19976699823315452
2059998 -0.9788488207762948 0.19972844760604858
2060423 -0.9783943246491595 0.1995906884902994
2060847 -0.9788203896859536 0.20000080977175344
2061272 -0.978365641448428 0.19983403186255205
2061697 -0.9785399704842233 0.20032211939121763
2062121 -0.978065575771876 0.19987063822740933
2062546 -0.9779662533650559 0.200219497842158
2062971 -0.9777126384064428 0.19968185305231928
2063395 -0.9780248628649522 0.19978547911692546
2063820 -0.9784958304818996 0.19998019168840522
2064245 -0.9780950363925763 0.19977968136977967
2064669 -0.9789788197177334 0.20009183322302376
2065094 -0.9780804640457139 0.20002797793584454
2065519 -0.9786652623089447 0.20042886937116797
2065943 -0.9776959760368306 0.19998219201045728
2066368 -0.9783540205074197 0.2008206050464048
2066793 -0.977644116540579 0.20013982752508788
2067217 -0.9781095747367583 0.2005138569072511
2067642 -0.978128335092922 0.2001374209905419
2068067 -0.9783506253381444 0.20031887173542567
2068491 -0.9787549644812898 0.20016866883871237
2068916 -0.9781086725463259 0.2002246549260191
2069341 -0.9781895394074568 0.20046338302883093
2069765 -0.9773764798203527 0.2002449923612249
2070190 -0.9775177740307722 0.20093140811550297
2070615 -0.9769779806275408 0.20027963345822408
2071039 -0.978116331749502 0.20073008350474006
2071464 -0.9785902102436417 0.20017283054138382
2071889 -0.9786100793500189 0.200627940381866
2072313 -0.9782717772200803 0.20004470958281753
2072738 -0.9777258396687568 0.20109641606815476
2073163 -0.9782422530981195 0.2010773809552195
2073587 -0.9775018421976901 0.20089531438498145
2074012 -0.9783631838874317 0.20121647842728696
2074437 -0.977351796231984 0.2006020548444771
2074861 -0.9782828269823153 0.20122255531776917
2075286 -0.9784571094945588 0.2011599750622653
2075710 -0.9777701480447428 0.2007492415015621
2076135 -0.9784722840249273 0.20116329348643364
2076560 -0.9777479194803137 0.20121094708815243
2076984 -0.9781369667417273 0.20111518152945862
2077409 -0.9777808291823881 0.2010608128229823
2077834 -0.9782072741192634 0.20188726153578568
2078258 -0.9770374565831418 0.20160170861483273
2078683 -0.9782923099076937 0.2016465461014344
2079108 -0.9777472580508595 0.20131694991109422
2079532 -0.9786561055871298 0.20149528852823004
2079957 -0.9787262053469973 0.20127358528789868
2080382 -0.9780853706163615 0.20104156206786725
2080806 -0.9779114942917899 0.2013757224623661
2081231 -0.9776417802387332 0.20163422716579243
2081656 -0.9778255948425326 0.20160965247568294
2082080 -0.9775355339470895 0.20154967730050952
2082505 -0.977812655509968 0.20229364209191336
2082930 -0.9767175542074048 0.201148715291973
2083354 -0.9779303087100013 0.2019480078372539
2083779 -0.977297903775144 0.20133343302073714
2084204 -0.977851559451408 0.20193179503504294
2084628 -0.9777307536524651 0.20175035917524026
2085053 -0.9768761762137821 0.20226178718993956
2085478 -0.9773016324754967 0.20254815575528587
2085902 -0.9773609979094873 0.20228754432926002
2086327 -0.9778966395476227 0.20270824462351825
2086752 -0.9772973793030694 0.2017227018111036
2087176 -0.9780094777428109 0.2021771445479867
2087601 -0.9773396345678934 0.20167677144695023
2088026 -0.9777130569331931 0.20223542687186993
2088450 -0.9770107210786717 0.20159246746099385
2088875 -0.9773091525522279 0.20263240038053706
2089300 -0.977626244496763 0.2028077539798681
2089724 -0.9776648158352892 0.2026174306023379
2090149 -0.9773588198128912 0.20271494380858587
2090574 -0.9778992068763115 0.20241094228867026
2090998 -0.9782747827430004 0.20280014786545966
2091423 -0.9776645949315935 0.20220182534379502
2091848 -0.9781946029206078 0.20264108351638296
2092272 -0.9775658955963032 0.2024751555046743
2092697 -0.977818266241719 0.2030943717844665
2093122 -0.977300947483661 0.20245644660083895
2093546 -0.9773206378362517 0.2027852095606952
2093971 -0.977942416149749 0.20285224062511417
2094396 -0.977685925580215 0.20285820203497343
2094820 -0.9781084350668586 0.20330791592244096
2095245 -0.9775859346065674 0.20284052910173356
2095670 -0.9774650584947489 0.20337874249534232
2095670 -0.9779982682095011 0.20313183245278865
2096103 -0.9772038716560989 0.2033392116850456
2096536 -0.9772949332913764 0.2035305784804996
2096970 -0.9761882044763397 0.20317173982411083
2097403 -0.9784436222732539 0.2034220765217977
2097837 -0.9783389989205459 0.20307451388618686
2098270 -0.9789476349943304 0.20348528420532572
2098704 -0.9783079327529871 0.20341068698960685
2099137 -0.976855900941213 0.20325170036343956
2099570 -0.9771190121288986 0.2029548997264656
2100004 -0.9796971383219398 0.20423420493379268
2100437 -0.977325496216852 0.20317620959764393
2100871 -0.9774891403583099 0.20341802448107224
2101304 -0.9773757115707611 0.20311658521308104
2101738 -0.9773222840717414 0.2038009358352686
2102171 -0.9767890872946513 0.20320848178214998
2102605 -0.9778821519238167 0.20403772282834032
2103038 -0.9773876051144424 0.20366029283892376
2103471 -0.9767212797367029 0.20373811988432544
2103905 -0.9773919653067159 0.20472980037065766
2104338 -0.9771447782972532 0.20429400637124326
2104772 -0.9777060885586525 0.20444208078503692
2105205 -0.9773222735798923 0.20445767338422
2105639 -0.9781203443346816 0.2046481893403165
2106072 -0.977015598023919 0.20360760167029748
2106506 -0.976930207110993 0.20429354446750764
2106939 -0.9762371772023397 0.20333407506779594
2107372 -0.9767137361847895 0.20405391647205623
2107806 -0.9761269956080124 0.2039258321251295
2108239 -0.9769355942539218 0.2043327651432983
2108673 -0.97719015705187 0.2040743587278416
2109106 -0.9769822265993915 0.2043879900140616
2109540 -0.9775857921647854 0.2041775915642752
2109973 -0.9765391710241542 0.20367874971388764
2110406 -0.977035382178296 0.2044005081522882
2110840 -0.9764678557649559 0.20385390286591157
2111273 -0.9768747067768306 0.20456139578109722
2111707 -0.9767107386572687 0.2048817847210467
2112140 -0.9774551187332619 0.205514243051022
2112574 -0.9767241967556686 0.20428988700030468
2113007 -0.9773978549158497 0.20524574284305944
2113441 -0.9763917685611978 0.2042431323133819
2113874 -0.9772246596204934 0.20470321786544315
2114307 -0.9769824535542401 0.2040743425218982
2114741 -0.9769932249019224 0.20486360269064494
2115174 -0.9775113476035532 0.20444769444042207
2115608 -0.9772048216117425 0.205299529197726
2116041 -0.9775353477833489 0.20542428297950496
2116475 -0.9769511062743009 0.2055927349024398
2116908 -0.9779450531485664 0.20561444300228948
2117342 -0.9769948786913866 0.20522493474196354
2117775 -0.9771894660192908 0.20497719591284497
2118208 -0.976388803816303 0.20485278408191968
2118642 -0.9771527920952698 0.20577315106674254
2119075 -0.9771026926874175 0.20489332482580225
2119509 -0.9772838358787683 0.20576532464401356
2119942 -0.9776750125650191 0.2055200521417334
2120376 -0.9771069692376747 0.20563902487734828
2120809 -0.9773495141119326 0.20559368084664617
2121242 -0.9769333053630423 0.20523020306187856
2121676 -0.9774369024031324 0.20579141093969286
2122109 -0.976169788207773 0.20512021262252908
2122543 -0.976528241270113 0.2060192843097946
2122976 -0.975968461284971 0.20558342275825556
2123410 -0.9768340643564771 0.20607546298532106
2123843 -0.9759950618925276 0.20508285119064548
2124277 -0.9773154828568881 0.205951421569775
2124710 -0.9768476029935 0.20573249432990887
2125143 -0.9774071661075768 0.2059867060177141
2125577 -0.9773530121595653 0.2054714469809841
2126010 -0.9767107254760139 0.2057094098387999
2126444 -0.9774798653023913 0.20621721559990416
2126877 -0.9769164741238209 0.20632641128368504
2127311 -0.9772338622751702 0.20617264297518678
2127744 -0.9769287624760434 0.2057905643740836
2128178 -0.9775780633135673 0.20597555898053463
2128611 -0.9761831987609516 0.20580748902163026
2129044 -0.9772878249916734 0.2060210004259356
2129478 -0.9765377347129066 0.20544737698028884
2129911 -0.9768673055447389 0.20645755414944
2130345 -0.9764922714970166 0.20565228015445786
2130778 -0.976370027253259 0.2063298263450426
2131212 -0.9766022736715937 0.2060145891526011
2131645 -0.9767638416844425 0.2064397857061031
2132078 -0.9770927411912353 0.20643706157292482
2132512 -0.9764481966952369 0.20595147574919107
2132945 -0.977253027348755 0.2067022150244036
2133379 -0.9759939116519372 0.20627527465520948
2133812 -0.9769866161009193 0.20682239740043268
2134246 -0.9760296231946625 0.20671073781890598
2134679 -0.9767774367175339 0.2071873281224117
2135113 -0.9755178602376544 0.20584454574928182
2135546 -0.9767606447505699 0.20668882001598354
2135979 -0.9761223051957936 0.20597118097860853
2136413 -0.9764904065211226 0.20669359934900228
2136846 -0.9766146992300874 0.20646480823543792
2137280 -0.9762325475062265 0.20678316246041453
2137713 -0.9769450432321928 0.20711364215698438
2138147 -0.9765779328445637 0.20682816636708237
2138580 -0.9768260030803274 0.20713150344024686
2139014 -0.9763977225361786 0.20699737898299658
2139014 -0.9775028185835175 0.20654980877010376
2139456 -0.9766516079912961 0.20664791373476263
2139898 -0.9769038289855886 0.20696920512835676
2140341 -0.9764315397119745 0.20657150064945048
2140783 -0.9769228144841084 0.20732110304642512
2141226 -0.9762873607178104 0.20710439251078777
2141668 -0.9767279683874635 0.20793436027745768
2142110 -0.9759650054154573 0.20731996310067755
2142553 -0.9768837693709013 0.20770265540923982
2142995 -0.976132813783786 0.2063050381277209
2143438 -0.9768017704806712 0.2071052420258279
2143880 -0.9758386828787521 0.20687863639872178
2144322 -0.9765497568437375 0.20776297172276226
2144765 -0.9761615124946513 0.20687008282497985
2145207 -0.976284510463603 0.20772319787945578
2145650 -0.976540013445295 0.20736659564554774
2146092 -0.9761847073502704 0.20770666853963662
2146534 -0.9766341241956443 0.20767622570474045
2146977 -0.9757833941588487 0.2074167441412101
2147419 -0.9770319477576629 0.20787073232756406
2147862 -0.9762126297258675 0.20732457124405446
2148304 -0.9764946247997249 0.20836541778811718
2148747 -0.9757766126494599 0.20824230967181306
2149189 -0.9762029035048099 0.20912304003978546
2149631 -0.975657658420555 0.20791876918108226
2150074 -0.977033301725428 0.20838039701611918
2150516 -0.9762684175614235 0.20767328551295056
2150959 -0.9766054583873708 0.2081292699503125
2151401 -0.9762236312368309 0.20801632200171993
2151843 -0.9761359476516078 0.20841214044640888
2152286 -0.9758673339844545 0.2079603217122211
2152728 -0.9758695303067413 0.2088236597433388
2153171 -0.9759138682301244 0.2079825912627791
2153613 -0.9758966002129519 0.2085861899505962
2154055 -0.9763148831383206 0.20801509096287193
2154498 -0.9761884658392392 0.20867070715547242
2154940 -0.9767283397124553 0.2084481202133951
2155383 -0.9757187047662202 0.20849617783710103
2155825 -0.9765662089083158 0.20887770345139312
2156267 -0.9759432258110479 0.20874936015785828
2156710 -0.9767198599158547 0.2092930350444018
2157152 -0.9761281417130414 0.20821900062028526
2157595 -0.9763334876450234 0.20833692274153912
2158037 -0.9761514438860779 0.20834921295213693
2158480 -0.9763818506852715 0.20857860550275015
2158922 -0.9755854915064159 0.20824861066740039
2159364 -0.9758655351430506 0.20928559197425645
2159807 -0.9752764505757939 0.2086964837306466
2160249 -0.9759847260241583 0.20934710578756716
2160692 -0.9755845803340233 0.2091297024175305
2161134 -0.9766555311713813 0.20978063369692398
2161576 -0.9764006782754668 0.20890391254252413
2162019 -0.9762838312021765 0.20955318517007765
2162461 -0.976460129112844 0.20873091700097213
2162904 -0.9758856158474759 0.2095470364042495
2163346 -0.9764957251158027 0.2095120681307332
2163788 -0.9756599702511937 0.20968952683046574
2164231 -0.9764602963930448 0.2097073312542122
2164673 -0.9761186669136388 0.20941238515941957
2165116 -0.9763183641849431 0.2097182573533164
2165558 -0.975763801202388 0.20890189029323214
2166001 -0.9760967695347025 0.2094620222839071
2166443 -0.9752422213019992 0.20892175776401434
2166885 -0.976018585126864 0.20984353306343245
2167328 -0.9754054944102882 0.20934497561872364
2167770 -0.976353115397711 0.21003767405581236
2168213 -0.9756996208002536 0.20950957173620366
2168655 -0.9759467412185306 0.21013449326363115
2169097 -0.9760246917600552 0.20950406307032318
2169540 -0.9759358610126219 0.21016985276933317
2169982 -0.9762069456939245 0.2097564438389338
2170425 -0.9756410200451766 0.2103306912353636
2170867 -0.9760075912378849 0.210051200967542
2171309 -0.9755158839884325 0.21061982817891814
2171752 -0.9761138080826062 0.21021244879093828
2172194 -0.9758631635330959 0.2098709214945199
2172637 -0.9763430493161376 0.21016910936418876
2173079 -0.9753786142069113 0.2092273920390046
2173521 -0.9759774745452204 0.21029429258655802
2173964 -0.9749785466249533 0.21005857659661478
2174406 -0.9757478083807835 0.2107068921046827
2174849 -0.9754546519335421 0.21048290033429098
2175291 -0.9757980286298791 0.21073654054578206
2175734 -0.9749986000695431 0.21007260602442585
2176176 -0.9761571917404679 0.21069189601037752
2176618 -0.9762347903743823 0.21024772245439693
2177061 -0.9759390769097931 0.21083742300856798
2177503 -0.9760474767923812 0.21066300717061046
2177946 -0.9753227388097642 0.2110149469554207
2178388 -0.9756618826723487 0.2111120492725502
2178830 -0.9750929654262369 0.21128274353512674
2179273 -0.9756903610989163 0.2115832697246947
2179715 -0.975825579864731 0.21096110027804368
2180158 -0.9765269066874493 0.2113843587281265
2180600 -0.9758265526118535 0.21066766361710457
2181042 -0.9759199949497791 0.2114578279078404
2181485 -0.9749914131127029 0.21074291415786764
2181927 -0.9753893818144843 0.21131111258202676
2182370 -0.9749043845294233 0.21142794149007005
2182812 -0.9757278675920108 0.21155567664761737
2183255 -0.9754209097589507 0.2111400710196914
2183255 -0.9752209240526559 0.2111777217115595
2183706 -0.9757091652705857 0.21145005792253593
2184158 -0.9752495411443626 0.21117811939197015
2184609 -0.9758244412652365 0.21200763837956196
2185061 -0.974933579733408 0.21142935013678657
2185512 -0.9758923407534187 0.2114974804607462
2185964 -0.9746957551705789 0.21137176506236136
2186415 -0.9757990088587127 0.21173762743909755
2186867 -0.9748687624806541 0.21147285866979787
2187319 -0.976508748757338 0.2124246854657725
2187770 -0.9753731303858225 0.21170663488623132
2188222 -0.976022476162879 0.21239906528487545
2188673 -0.9752535722901896 0.21160023948392565
2189125 -0.9752871040634616 0.21216441123981478
2189576 -0.9748563245975288 0.21165086370270678
2190028 -0.9756919241368357 0.212013664066134
2190479 -0.9750934816250396 0.21181709306561153
2190931 -0.9759955667868635 0.2123251180931395
2191383 -0.9752208464023124 0.21151038624827373
2191834 -0.9754314153177448 0.21289271812663668
2192286 -0.9752364669231415 0.21207412136266063
2192737 -0.9750856070454387 0.21264631665214853
2193189 -0.9755895394508256 0.2121466003724522
2193640 -0.9751587538955928 0.21275238356319828
2194092 -0.9757469909017219 0.21236854736517796
2194544 -0.9757094284187515 0.21302298738094588
2194995 -0.9764774092651385 0.21254413718195683
2195447 -0.975574192894085 0.2130230478604362
2195898 -0.9761398135357126 0.21244643670807933
2196350 -0.9751541929987724 0.21260190928788383
2196801 -0.97550216424625 0.2125790184114737
2197253 -0.9751615402155969 0.2123367777237009
2197704 -0.9760014740923272 0.2129663009372179
2198156 -0.9755349997917295 0.21227634933979111
2198608 -0.9757971249674532 0.21345729462311128
2199059 -0.9748897554787593 0.21253415168204962
2199511 -0.9755900317102575 0.21365632297152884
2199962 -0.9747293337997988 0.21315254735473238
2200414 -0.9750999315384189 0.21332731577261854
2200865 -0.9742098588303035 0.21293560366229708
2201317 -0.9751612846830179 0.21380010583924364
2201768 -0.9743727206550128 0.21301993613630216
2202220 -0.9755712056289163 0.2140006331036459
2202672 -0.9751221009476295 0.21347815713840398
2203123 -0.9756375155412684 0.21340215064706783
2203575 -0.9745554941012093 0.21274668716909892
2204026 -0.9751814622711649 0.21307029719909568
2204478 -0.9746473334022542 0.21255270448065086
2204929 -0.9754029271456898 0.21361840485718406
2205381 -0.9753811576943018 0.2129003201531464
2205833 -0.975825062483626 0.21379140751073794
2206284 -0.9756002421949684 0.21321274400019938
2206736 -0.9749689686424932 0.21346876145694416
2207187 -0.9749924098064543 0.21306166770452456
2207639 -0.9748178993581676 0.21383228065655327
2208090 -0.9755411262149732 0.2138728722894779
2208542 -0.9746521893688181 0.21424529120773683
2208993 -0.9753408005452725 0.21441087448551666
2209445 -0.9747879319752999 0.2140821497592443
2209897 -0.9754265942714455 0.21405783540315088
2210348 -0.9746918104314289 0.21346072271886074
2210800 -0.9753954574994461 0.21397350361955028
2211251 -0.9746623451373609 0.2135522539650275
2211703 -0.9755146070524754 0.21426734828314978
2212154 -0.9745562383417832 0.21375462741699808
2212606 -0.9756839978195985 0.21475346224063935
2213057 -0.975368570492539 0.21401449811465986
2213509 -0.975632193287367 0.21502885076561434
2213961 -0.974459291160389 0.21392767699705076
2214412 -0.9749345323349716 0.21473493585049594
2214864 -0.9739957513925845 0.21389067928450844
2215315 -0.9749172795239733 0.21504993521543278
2215767 -0.9743596197400213 0.21433579318741094
2216218 -0.9751434256866128 0.21504964815978186
2216670 -0.9743289816819917 0.21455395772796315
2217122 -0.9750287375800226 0.21497780894733037
2217573 -0.9741271136435927 0.21384673097050735
2218025 -0.9750010173906204 0.21436928933539443
2218476 -0.9736850573343722 0.21318614086620494
2218928 -0.9746390807590676 0.2142981777666789
2219379 -0.974326664013058 0.21395966277236486
2219831 -0.9753993495808427 0.2153518521480862
2220282 -0.9744909779195144 0.21482216637840829
2220734 -0.9753589180893302 0.2155988082293249
2221186 -0.9748164941686052 0.2147206982774559
2221637 -0.9747461692026561 0.2153126406934674
2222089 -0.9745795979946319 0.21450355908232913
2222540 -0.9749702378847164 0.2152013686694611
2222992 -0.975139210564048 0.21497120136897863
2223443 -0.9744526087121066 0.2153251474513955
2223895 -0.975416074628152 0.21511614839392798
2224346 -0.974561461514129 0.21554930820036025
2224798 -0.9749649001350134 0.21536985323068278
2225250 -0.9745069901003376 0.21536280236639319
2225701 -0.9747117498388488 0.21493115074272295
2226153 -0.9741158379337516 0.21551949969080048
2226604 -0.9747204149169657 0.21480835094601183
2227056 -0.9740883784568012 0.21573695440931012
2227507 -0.9750851510320048 0.21616383279276102
2227959 -0.9740765846071288 0.21560011059148124
2228411 -0.9751481441849471 0.21606405067187315
2228411 -0.9753866537248813 0.21589287754500666
2228871 -0.9741234288328876 0.2153222198610851
2229332 -0.9746066788129748 0.2154901599452271
2229793 -0.9741733130606072 0.21504873778605268
2230254 -0.9753540860952139 0.21584700957025785
2230715 -0.9748679689469198 0.21527275875454913
2231176 -0.9751557510369625 0.21641185282284747
2231637 -0.9743037329140907 0.21548954101048076
2232098 -0.9749718751643541 0.21639482682063776
2232559 -0.9740905280052229 0.21578997670448338
2233019 -0.9744925592031661 0.2163927347337216
2233480 -0.9735871036710565 0.21545734232686173
2233941 -0.9743097088086774 0.21638536404003877
2234402 -0.9736142338070977 0.21593827718837802
2234863 -0.9748009317603075 0.21711007674865992
2235324 -0.9744464218603871 0.21693014498083957
2235785 -0.9748527177355997 0.21699495280573186
2236246 -0.9745601136948645 0.21579692866783162
2236707 -0.974664043194484 0.21633280864062565
2237167 -0.9742793508573692 0.21595096525301474
2237628 -0.9747140377419621 0.21677323979588595
2238089 -0.9739633601988834 0.21646700349011283
2238550 -0.974871544371979 0.2170966179730284
2239011 -0.9741682909656899 0.216363052825755
2239472 -0.9749067666966421 0.21675360347640207
2239933 -0.9740818565753604 0.21591979332135822
2240394 -0.9751267491344368 0.21673407223006877
2240855 -0.9742628565127098 0.2163473598031221
2241315 -0.9748046619929305 0.21670200146803803
2241776 -0.9743652474368816 0.21666230038745243
2242237 -0.97480923100516 0.21751847703299507
2242698 -0.9743554227831512 0.21714748687549648
2243159 -0.9745281915537967 0.21724151164508726
2243620 -0.9741123373794632 0.2163029388634259
2244081 -0.9745970043011417 0.21684049013987253
2244542 -0.9738900010882942 0.2163459046076592
2245003 -0.973928564228731 0.21730041751589105
2245463 -0.9743368751617669 0.21737273198563506
2245924 -0.9737276463361971 0.2179658550866594
2246385 -0.9739684884096385 0.2173971011242814
2246846 -0.9750975386741424 0.21777786143001698
2247307 -0.97461889564566 0.2169629599770722
2247768 -0.9747835135143125 0.21760688984259957
2248229 -0.9744941519043655 0.2170334780917693
2248690 -0.9744688684288659 0.21834718543132878
2249151 -0.9745795594403468 0.21821524469779985
2249611 -0.9728454489474426 0.2174023149912192
2250072 -0.9743474293153928 0.21848898010444537
2250533 -0.9737295600348991 0.21773850023264724
2250994 -0.9730635504365202 0.21831864037834744
2251455 -0.9742014950928509 0.21795230224501771
2251916 -0.9752698470868896 0.21833576444386615
2252377 -0.9739750000214845 0.21750860219261692
2252838 -0.9749294200735484 0.2179918306688589
2253299 -0.9733080602325049 0.21733172266872053
2253759 -0.9748372137790657 0.21809682621445567
2254220 -0.9736065728189772 0.21757145045607032
2254681 -0.9744438292429372 0.21774591297699059
2255142 -0.9734509838129148 0.21762111056581132
2255603 -0.9744979421884118 0.21825941227885132
2256064 -0.9732384429448571 0.21800339079282552
2256525 -0.9742329626737466 0.21874884639681316
2256986 -0.9733399506567325 0.2182314281051148
2257447 -0.9737665303088092 0.21899513120080474
2257907 -0.9731819230005554 0.2181970749559665
2258368 -0.973931371180621 0.21873447581922953
2258829 -0.9736135724406451 0.21829934513851168
2259290 -0.9741412879782831 0.2186780671968309
2259751 -0.9740402895165868 0.21838717969392407
2260212 -0.9741117635647725 0.2190452079836936
2260673 -0.9744487811595672 0.2188870012796562
2261134 -0.9742741683906678 0.2189503430538243
2261595 -0.9743299647530863 0.2186833901705043
2262055 -0.9746215728242675 0.21925736767863938
2262516 -0.9745739818102777 0.21853230443070754
2262977 -0.9743217013225527 0.21880200084944837
2263438 -0.9742392932610107 0.21851199267163426
2263899 -0.9735973841942186 0.21931218539983796
2264360 -0.9738333819029898 0.21888885902317856
2264821 -0.9730494133840885 0.21932640836497233
2265282 -0.9735039555246917 0.218635019954552
2265743 -0.9736893135994138 0.21970278855881337
2266203 -0.9745063377287847 0.21893174484418218
2266664 -0.9738615591877849 0.218852924603359
2267125 -0.9743881489296748 0.21923052882588936
2267586 -0.9735878906767846 0.21949444802224233
2268047 -0.9734396421165898 0.21950746192589168
2268508 -0.9730148896052536 0.21973924595505176
2268969 -0.9735833032268945 0.21972179640109646
2269430 -0.9728637508066332 0.21972471375384534
2269891 -0.973371570117543 0.21973266549828102
2270351 -0.9730193465221005 0.21949893494294487
2270812 -0.9737953506063647 0.21913046569090333
2271273 -0.97349130993942 0.2193367392690448
2271734 -0.9741895857585595 0.21937539046296411
2272195 -0.9737583230584536 0.21957583658756724
2272656 -0.9741910219006278 0.22022651562138296
2273117 -0.9732620993523661 0.219791719258587
2273578 -0.974043434011243 0.22057757256605176
2274039 -0.9731100516287151 0.21966778164267314
2274500 -0.9736018906878516 0.22031540086180487
2274500 -0.9740153457341627 0.2203417846690008
2274970 -0.9733152608817321 0.21981437132697457
2275440 -0.9736882128210479 0.22002092914613608
2275911 -0.9733834027489551 0.21962548657713488
2276381 -0.973870597954309 0.2205356344686069
2276852 -0.973651098445637 0.21983399800699502
2277322 -0.9738117124327271 0.22022289958728444
2277793 -0.9734940642500696 0.21992965668469597
2278263 -0.974267900136868 0.22028742408460386
2278733 -0.9735511941803806 0.22012755757402475
2279204 -0.9740996983848482 0.22055113907243276
2279674 -0.9735476458997631 0.22080576139114896
2280145 -0.9742783762006098 0.220666849254112
2280615 -0.9732248653002047 0.22038011674510144
2281086 -0.9739229689985711 0.22026131825652476
2281556 -0.9734466097552633 0.22023783966151236
2282026 -0.9740764054221376 0.22051654319948913
2282497 -0.9736881104408963 0.2204466874279045
2282967 -0.9739590709573768 0.22092189573589596
2283438 -0.9735272227306071 0.22093415886616663
2283908 -0.973753714993423 0.2213994064923052
2284379 -0.9729773989378244 0.2213939475089981
2284849 -0.9737767335888643 0.22141036129572855
2285319 -0.9731196395262548 0.2210082837466371
2285790 -0.9738607551221148 0.22111256344345717
2286260 -0.9731503322231235 0.22072072069016177
2286731 -0.9735633495360437 0.22131750854959437
2287201 -0.9724197009013972 0.22139902968208675
2287672 -0.9735066706664146 0.2215621525956256
2288142 -0.9735413118040598 0.22136353307715242
2288612 -0.9741791904239964 0.22164529527524976
2289083 -0.9739474196927044 0.22143675734899076
2289553 -0.9737959066920036 0.2214470346767137
2290024 -0.9733597456361096 0.22138368369402203
2290494 -0.9732652796227561 0.22168522833729712
2290965 -0.9725718070099102 0.22166161767078008
2291435 -0.9737414944829479 0.222000377994066
2291905 -0.973142064411565 0.22164733718865
2292376 -0.9733419307193064 0.2215482899426904
2292846 -0.9731372567636167 0.2216273718314325
2293317 -0.973808133098169 0.22163250043838967
2293787 -0.9734650231577531 0.22162488045306467
2294258 -0.9738865095514231 0.22209360351655372
2294728 -0.972860514034612 0.2220632481694304
2295198 -0.973380433602741 0.22249919391576314
2295669 -0.9723277482268772 0.22236912066330583
2296139 -0.9734418944182378 0.22245415325198192
2296610 -0.973490908227402 0.2224569749824855
2297080 -0.9725287988449136 0.2215710575255068
2297551 -0.9733569905478038 0.22215738038728927
2298021 -0.9726829577253616 0.22184246327997628
2298491 -0.9734629693175978 0.2224011912247056
2298962 -0.9729163947646181 0.22150939842698159
2299432 -0.973516173611238 0.22261988203974595
2299903 -0.9725321329066879 0.22187360362087127
2300373 -0.9729148715625427 0.22254587064599082
2300844 -0.9724725861793942 0.2219233391717657
2301314 -0.9730766926730746 0.22244405828033056
2301784 -0.9726022404599745 0.2218348251312787
2302255 -0.9729722888237308 0.222383803072444
2302725 -0.9724860645710773 0.22185356333486286
2303196 -0.9730126886673239 0.22278326157778677
2303666 -0.9723276975733945 0.22198402356029984
2304137 -0.9736300599822586 0.22289662306917682
2304607 -0.9730086252914717 0.222469210123303
2305077 -0.973633739132078 0.2230049867557923
2305548 -0.9724066696440807 0.22274212554565045
2306018 -0.9724383128664312 0.22372285331307107
2306489 -0.9717271380351381 0.22243603416374988
2306959 -0.9722652482187829 0.22402994771140766
2307430 -0.9716219319751126 0.22199636742217474
2307900 -0.9728854606377823 0.22376797847926966
2308370 -0.9722507200684698 0.22222190964574007
2308841 -0.9731443504135853 0.22367208569024882
2309311 -0.9721158653722166 0.2227267386794961
2309782 -0.9732342664835923 0.22383655459478977
2310252 -0.9729430817478727 0.22287492139965945
2310723 -0.9734065590618489 0.22407545306097884
2311193 -0.9721494685367007 0.2231052070916007
2311663 -0.9730914494206353 0.2241272946088104
2312134 -0.9722827170829819 0.22251174798181708
2312604 -0.9727173640763268 0.22337486686864116
2313075 -0.9715813872685392 0.22208441829054448
2313545 -0.9726733926976395 0.22323595563304063
2314016 -0.9723930283479633 0.2232840774219969
2314486 -0.9727940111895966 0.22409397219932264
2314956 -0.9722963532578459 0.22341641570732473
2315427 -0.9731910550107701 0.22423642314028533
2315897 -0.9728706964726558 0.22378680718785054
2316368 -0.9731991645068977 0.22447675769363176
2316838 -0.9725023575422453 0.2238619655923953
2317309 -0.9726458329524658 0.2243808917480477
2317779 -0.9715724270307683 0.22295951284054383
2318249 -0.9727137348126014 0.2243298339169953
2318720 -0.9715296460960275 0.22364230075279137
2319190 -0.9727990963723914 0.2244267314204897
2319661 -0.9715439879203308 0.22414633736982986
2320131 -0.9727660437998911 0.22473031807495436
2320602 -0.9717950986465007 0.22448530775625536
2321072 -0.9733995734777477 0.2247955823301478
2321543 -0.9719756003411797 0.22465133342964808
2321543 -0.9728093024637191 0.22493233568204726
2322023 -0.9716906253959372 0.22461609452657108
2322503 -0.9724107430581502 0.2251704763538102
2322983 -0.9721364091055963 0.22445265192238953
2323463 -0.9725882810328275 0.22504716440138867
2323943 -0.9723578184147971 0.2244844129711878
2324423 -0.9724285654875938 0.22457345815013208
2324904 -0.9723557517472402 0.22531765711991555
2325384 -0.9728748180792829 0.22513867074584368
2325864 -0.9726804732300631 0.22530867911511795
2326344 -0.9727889460991043 0.2250013634861829
2326824 -0.9722516839713732 0.22518799304035436
2327304 -0.9723847645246362 0.2244660002310878
2327785 -0.97164286720074 0.22507669362821225
2328265 -0.9725239224803804 0.22487642607963335
2328745 -0.9727719013099814 0.22527382421071135
2329225 -0.9726214869316856 0.22516510745295468
2329705 -0.9729709403189243 0.22569651913814992
2330185 -0.9722731145064802 0.2247804915093336
2330666 -0.972844593234234 0.2259544932555114
2331146 -0.9720873503826478 0.22491977572960453
2331626 -0.9728616888027686 0.22561232834057235
2332106 -0.9719130185220437 0.22436158997519123
2332586 -0.9728309831980495 0.22567085451679858
2333066 -0.9720519153817047 0.22503255411845055
2333547 -0.9724938270401406 0.22589121912402885
2334027 -0.9724914123941643 0.22550271444698336
2334507 -0.9728989144656311 0.22611438826383726
2334987 -0.9724292455306346 0.2255798997690455
2335467 -0.9725093801747425 0.22623231298808175
2335947 -0.9719975259712919 0.22572662821079847
2336427 -0.9725627052106345 0.22612377175878165
2336908 -0.971764926637821 0.22496201808053862
2337388 -0.9726035913228916 0.22586421888694833
2337868 -0.9711510876486761 0.22578452714162214
2338348 -0.9724480509166783 0.22654652550522472
2338828 -0.9711483981356195 0.2263658639634837
2339308 -0.9723879596691505 0.2264303595648904
2339789 -0.9717084488802455 0.22653994947659803
2340269 -0.9727238543501223 0.22661860431325567
2340749 -0.9725639155670059 0.22648089285150438
2341229 -0.9723111818753619 0.22631923555865244
2341709 -0.9715745078405437 0.22653643710927934
2342189 -0.9718427479708424 0.22632603140920796
2342670 -0.9715821388845239 0.22646802349375436
2343150 -0.9719035570360124 0.226383886369651
2343630 -0.9722182689634868 0.22693682637503
2344110 -0.9721030748227177 0.2267608883606918
2344590 -0.9724504827966095 0.22711363536557516
2345070 -0.9720960438505062 0.22685502867844226
2345551 -0.9724893957810565 0.22703597019698873
2346031 -0.9719632602769204 0.22647343050058222
2346511 -0.9723974225493002 0.2271980851287768
2346991 -0.9713666405764887 0.2265628551913955
2347471 -0.972028509272771 0.22701643128854312
2347951 -0.9714500438916029 0.22580017434091654
2348431 -0.9720039698701991 0.22725445111391687
2348912 -0.9713500504908786 0.2262356338434852
2349392 -0.9721842138547412 0.2275138769398376
2349872 -0.9719657927129635 0.22693040940678583
2350352 -0.9718740318814321 0.22728872073181292
2350832 -0.9713177133552104 0.227276793598345
2351312 -0.9728255260159641 0.22760258589736723
2351793 -0.9714048798784858 0.22732705990036514
2352273 -0.9721265670730017 0.2276902532829532
2352753 -0.9711541072491139 0.22690635815905913
2353233 -0.9718857226648069 0.22761418662529356
2353713 -0.9718994114648146 0.22734506242790245
2354193 -0.9724072467309093 0.22719538574642703
2354674 -0.9719854796484376 0.2274807556060807
2355154 -0.9723459300833547 0.22741694518463332
2355634 -0.9723304804605675 0.22792932691254428
2356114 -0.9722121548816326 0.22771369351952991
2356594 -0.9720944616447605 0.22811939946262288
2357074 -0.9721249148192475 0.22774780385462598
2357555 -0.9715709334568629 0.22808176852779669
2358035 -0.9719144594867797 0.2278848392027993
2358515 -0.9710789815185454 0.22797835629394356
2358995 -0.9713805332826947 0.22783398724637896
2359475 -0.9716456641670185 0.2279796153292826
2359955 -0.9717193049618281 0.22800909722332585
2360435 -0.9715741911321315 0.22839049652761909
2360916 -0.971574040808723 0.2283855466570446
2361396 -0.9719203954628264 0.22902240180376007
2361876 -0.9715225797776489 0.22879457173475806
2362356 -0.9719249586851508 0.22936005865556086
2362836 -0.9712202994682051 0.22822035095582524
2363316 -0.9715538816649901 0.22898750918920366
2363797 -0.9707386076528455 0.22783203585713033
2364277 -0.9711736717335581 0.2287536575779667
2364757 -0.9711767085136596 0.2276201624141426
2365237 -0.9722134438065224 0.22840375181536324
2365717 -0.971520859467168 0.22777931728737805
2366197 -0.9725089329462595 0.22913286542523711
2366678 -0.9712448881776393 0.2285330850313333
2367158 -0.9721742160542004 0.22949450058769452
2367638 -0.9714647387688413 0.22893783669504547
2368118 -0.9714743336374004 0.22895860609922722
2368598 -0.9705124928037607 0.2285524814758105
2369078 -0.9715970022696699 0.22893123685989472
2369559 -0.9708145942542166 0.22902323364692692
2369559 -0.9713615582373369 0.2292698232997276
2370049 -0.9718181927416966 0.2291038777814434
2370539 -0.9715205973242705 0.22904816734269098
2371029 -0.9714878305337344 0.22938451269625526
2371519 -0.9718386557183073 0.22996315016737398
2372009 -0.9716157016146916 0.22944995414772457
2372499 -0.9713859312277803 0.23002714263355914
2372989 -0.9712239928472227 0.22856711532028193
2373479 -0.9713511814396848 0.22974469188276592
2373969 -0.97067690951171 0.22862040423293065
2374459 -0.9713597642380807 0.22946259988793688
2374949 -0.970219225208556 0.2285022954684075
2375440 -0.971521085116027 0.2293740956930318
2375930 -0.9705721099789709 0.22911579755123404
2376420 -0.9720329222375209 0.22981709957952468
2376910 -0.9711343103696128 0.22940820080973062
2377400 -0.9719622775553636 0.23031352327230772
2377890 -0.9710835575062139 0.23006377418905163
2378380 -0.9716541830903268 0.23002584720337943
2378870 -0.9713970800619306 0.2298765567069946
2379360 -0.9712654768382509 0.22971570868096347
2379850 -0.97086801525241 0.22991501982654491
2380340 -0.971053445317763 0.22964578860293455
2380831 -0.9707725359018265 0.23006181195803058
2381321 -0.9710881728235364 0.229944005278128
2381811 -0.9712489875633612 0.23043401082262802
2382301 -0.9715388376063798 0.23010069393495813
2382791 -0.9717877199504538 0.2308715847273917
2383281 -0.9717438422550196 0.23028269800967158
2383771 -0.9716362853969835 0.23112192011382626
2384261 -0.9706613512283965 0.22981142097738927
2384751 -0.9710440211672671 0.23066998360276378
2385241 -0.97018777832809 0.2299860035163674
2385731 -0.97113374057166 0.23086854155077674
2386222 -0.9710206190896893 0.2303056412614481
2386712 -0.9713571745661935 0.2308307232765128
2387202 -0.9705395355474885 0.2306287649805112
2387692 -0.9715690630477131 0.2312927377768401
2388182 -0.970789526778482 0.23105082580172373
2388672 -0.9716534717088355 0.23137026641595962
2389162 -0.9708471252013658 0.23138502039187894
2389652 -0.9709463711865155 0.23077438111638218
2390142 -0.9707286909209623 0.23086942500528732
2390632 -0.9708262269533702 0.2304139942678597
2391122 -0.9706064231037606 0.23079614789588956
2391613 -0.9707326322068154 0.23069817276905802
2392103 -0.9711515437123945 0.23116294587677771
2392593 -0.9708696308066795 0.23097721624587234
2393083 -0.970885429983614 0.23118313420079858
2393573 -0.9714816993026155 0.23144458962724576
2394063 -0.9704551280366491 0.2310754194305181
2394553 -0.9714154526264711 0.2313344540560597
2395043 -0.970050311452099 0.23102171672998628
2395533 -0.9708593881931041 0.23132318362486914
2396023 -0.969997388472167 0.23122787486580648
2396513 -0.9709207084861466 0.23134657844216974
2397004 -0.9705191414044372 0.23112517406092264
2397494 -0.9702534685337922 0.23141434585632226
2397984 -0.9719835765733597 0.23145090497652093
2398474 -0.9705565659222583 0.23147744427232458
2398964 -0.9703536746748856 0.23281677014513433
2399454 -0.9699355868311725 0.231223699632919
2399944 -0.9681335408877088 0.23164661601321193
2400434 -0.9704629588447141 0.2317113176141206
2400924 -0.968199117215352 0.2321082741336259
2401414 -0.9705229579074187 0.23166531176077684
2401904 -0.9716029833840688 0.23307262128294395
2402395 -0.9708224677513101 0.2325104184482371
2402885 -0.9712853048043212 0.23279969963739955
2403375 -0.9698033241561517 0.23113733914720072
2403865 -0.9711386990154073 0.23232054935741994
2404355 -0.9699530362391946 0.23208487560204022
2404845 -0.9712212246298272 0.23315341694451483
2405335 -0.9700211302818514 0.23305139239399247
2405825 -0.9714595791094975 0.2328709872921776
2406315 -0.9702633082640535 0.23206164785861616
2406805 -0.9708659715220834 0.23232683743202553
2407295 -0.9699219932973135 0.23215813947848454
2407786 -0.9704669491162254 0.232389912197291
2408276 -0.9702291110723509 0.23309016788459594
2408766 -0.9706641924619162 0.2329094030419343
2409256 -0.9709132387891214 0.2330992325945367
2409746 -0.9707773594917081 0.23312792343952446
2410236 -0.9706939032133483 0.23358802806828882
2410726 -0.9706447276000718 0.23299310968397896
2411216 -0.9703903219291707 0.23337884983477902
2411706 -0.9696642830699315 0.23270040877414178
2412196 -0.9702303523415919 0.23334418916823577
2412686 -0.9695680543987061 0.23207982458962642
2413177 -0.9707242922620266 0.23296281142595304
2413667 -0.9695192667851914 0.23239620034592395
2414157 -0.9710018111155834 0.23336680248537986
2414647 -0.9703935266991159 0.23335419468288024
2415137 -0.9708927813707766 0.2337431764532355
2415627 -0.9701139393584804 0.2336129141592924
2416117 -0.9707566815834964 0.23368694318795438
2416607 -0.9694265483448591 0.23340720432507495
2417097 -0.9700727729862336 0.23345931547436372
2417587 -0.969876750872524 0.23358781267462533
2418077 -0.9704031882856592 0.23353825117222285
2418568 -0.9702068573657621 0.23370745201467108
2418568 -0.9698404724505677 0.2330303549833979
2419068 -0.970575398936836 0.2338651575839885
2419568 -0.9694800782653226 0.23379007300163357
2420068 -0.9704424833547985 0.2342159435766773
2420568 -0.9697665704805074 0.23386693713070594
2421069 -0.9702941032053858 0.2343514617044465
2421569 -0.9696474906091178 0.2341881177992171
2422069 -0.970370946388903 0.2346371023541284
2422569 -0.9707723250029991 0.23478179968303467
2423069 -0.9707790361730068 0.23507744351890514
2423570 -0.970595437376874 0.23466660097779057
2424070 -0.9700233184248277 0.2341877726667327
2424570 -0.970213297805653 0.23496781236970973
2425070 -0.9698682755357186 0.2340897249454209
2425571 -0.9701166264167145 0.23508432403223692
2426071 -0.9692869789723066 0.23377837122639716
2426571 -0.9701539248543423 0.23426104217178767
2427071 -0.9692568157006776 0.23394074155348146
2427571 -0.9701610117307717 0.23455238616726176
2428072 -0.9691397000720293 0.23382526614511703
2428572 -0.9697288163392214 0.23446291610674522
2429072 -0.9694490980774906 0.23479821415092433
2429572 -0.9702665079105925 0.23481443443366853
2430073 -0.9700509797796801 0.23494839360804018
2430573 -0.9702525075696239 0.2349452183516864
2431073 -0.9701941133726103 0.23491328179715845
2431573 -0.9701260055827033 0.2343825851917095
2432073 -0.9706897777462881 0.23513902568203449
2432574 -0.9700436362118712 0.23482687888360532
2433074 -0.9710942771791342 0.2361952392808333
2433574 -0.9701645143063661 0.2353606483967711
2434074 -0.9707302526703 0.23589057134596372
2434575 -0.9696148697031388 0.23515038898154353
2435075 -0.9699398361331417 0.23562271239328794
2435575 -0.9691559137682939 0.23510763886292008
2436075 -0.9695254910362706 0.23535159455721452
2436575 -0.969048379304717 0.23521395681285645
2437076 -0.9696523169359232 0.2352163588420393
2437576 -0.9696218936127353 0.23535655491522653
2438076 -0.9692766791691999 0.23464339660197658
2438576 -0.9695408011836187 0.23520365168382595
2439077 -0.9697422421891555 0.2346936892296858
2439577 -0.9700087108216494 0.2355521089110075
2440077 -0.969889660637604 0.23549841147538783
2440577 -0.9696790956393716 0.23633314471065098
2441077 -0.9700956730223205 0.23558794038788472
2441578 -0.9701196629393076 0.2364660526135285
2442078 -0.9697172774031265 0.2359177388494519
2442578 -0.9698341826846193 0.23639404906249287
2443078 -0.9698264513854136 0.23552337555441757
2443579 -0.9700276820502935 0.2367853690303145
2444079 -0.968619014685206 0.23555157748063515
2444579 -0.970175349768371 0.2359053177414665
2445079 -0.968647986433211 0.23563124523848145
2445579 -0.9699006541860059 0.23615214341605734
2446080 -0.968809809896686 0.23555888634873298
2446580 -0.970241525600487 0.23566268949506497
2447080 -0.9694123680537174 0.23539289044268552
2447580 -0.9695264727298578 0.23596485252831914
2448080 -0.9696766578891365 0.23607059118670207
2448581 -0.9694501180797744 0.23633301746586394
2449081 -0.9700238836692888 0.23674563602763793
2449581 -0.9698525695985126 0.2361022254174407
2450081 -0.969994023612441 0.23741934371779005
2450582 -0.9696410261932596 0.23629766781023012
2451082 -0.9699325560875406 0.23681607740715524
2451582 -0.969570670369219 0.23648359866327975
2452082 -0.9701050832562002 0.23688856241599968
2452582 -0.9692845258670707 0.23645212952840933
2453083 -0.9702316928337956 0.23708568140858485
2453583 -0.9691953624993028 0.2371781375299027
2454083 -0.9692817664922826 0.2370704671457925
2454583 -0.9690731772073671 0.23715661847195973
2455084 -0.9689830187938487 0.23665408847826916
2455584 -0.9688336694673586 0.23726942805434337
2456084 -0.9690738574420182 0.2367368927514983
2456584 -0.9692615025804477 0.23754731821060526
2457084 -0.9690325898517309 0.2368495085817335
2457585 -0.9694810946066578 0.23779595745560883
2458085 -0.9683671440611392 0.23687617272386893
2458585 -0.9698945699313822 0.23770486292196283
2459085 -0.9694737424335006 0.23752829158665198
2459586 -0.9698480574301075 0.23744614490748941
2460086 -0.9691998018575982 0.23763556621494566
2460586 -0.9699333841856251 0.2376629252220763
2461086 -0.9692639906045436 0.23745288834526576
2461586 -0.9692104416499582 0.2377443796089452
2462087 -0.9694172089092485 0.23769499606019237
2462587 -0.96887396193764 0.23726326732292852
2463087 -0.9689115984665375 0.23797520627710872
2463587 -0.9692006700529399 0.23743703338674815
2464088 -0.9689576020749447 0.238416729991383
2464588 -0.9689884591664989 0.23728048207704597
2465088 -0.9695544850714468 0.23738354850493035
2465588 -0.9684978430800432 0.2369449852482688
2466088 -0.9692077733954402 0.2379559513874524
2466589 -0.9687014498041285 0.23811313228804634
2467089 -0.9694447730055985 0.23806454971036364
2467589 -0.9689212050667503 0.2382304447063444
2468089 -0.9694528119696053 0.23838400224821937
2468590 -0.9693939332733738 0.23868195491993363
2468590 -0.9693698051795248 0.23884799507915894
2469100 -0.969011120466535 0.23800774978162917
2469611 -0.9695761370308986 0.23910420350289147
2470121 -0.9692571036439156 0.23806831972676562
2470632 -0.9698994062286087 0.238696600802378
2471142 -0.9691073433253471 0.23918020286810074
2471653 -0.9696343729327562 0.23904136793254152
2472163 -0.9691447876322097 0.23885845897709923
2472674 -0.9689923482473208 0.23904683703403085
2473185 -0.9688200979915729 0.23871650322083313
2473695 -0.9690045087328893 0.23849381704494926
2474206 -0.9688282416413916 0.23903893491800293
2474716 -0.9688786866899444 0.23817108078470287
2475227 -0.9692996236894577 0.2390580212904111
2475737 -0.9685601613319842 0.23795455972627977
2476248 -0.96939870205984 0.23876388881011867
2476759 -0.968077123364118 0.2384622123799822
2477269 -0.9690111289009914 0.23905273266561208
2477780 -0.9686074074842527 0.23942962853054803
2478290 -0.9693072689414292 0.23993129618117487
2478801 -0.969546717436573 0.2397679882196436
2479311 -0.9695397525095015 0.23959944569211553
2479822 -0.9694704341709385 0.24002697496291958
2480333 -0.9691259513577625 0.239120776395324
2480843 -0.9690735287105224 0.23988733668475645
2481354 -0.9681658811002746 0.23906316694238
2481864 -0.9689223808024781 0.23959392667230575
2482375 -0.9686873528421396 0.23914160401693318
2482885 -0.9687048573282804 0.2395280240671265
2483396 -0.9681467366155955 0.23934034120064215
2483907 -0.9682581422121999 0.23961410526512666
2484417 -0.968154439518301 0.239618147588688
2484928 -0.9683488484796229 0.23952412875345527
2485438 -0.9686091963068799 0.24005237199096843
2485949 -0.9683278700474209 0.23959533061074567
2486459 -0.9689622889862413 0.24027232959475667
2486970 -0.968535758946846 0.23977928966925155
2487481 -0.9692441131946175 0.24022771519111424
2487991 -0.9680023218930177 0.24023879006246388
2488502 -0.9686321202215084 0.24049117240039322
2489012 -0.9680306561618564 0.24050685263603672
2489523 -0.9680535252581337 0.2399258807318809
2490033 -0.9686089965635808 0.24037833564721972
2490544 -0.9689634477763998 0.23961684050317164
2491055 -0.9691096892812708 0.2403780691397531
2491565 -0.9683544820042963 0.23947930293756084
2492076 -0.9690243970293608 0.24048213770698215
2492586 -0.9684998000766276 0.24059493650913852
2493097 -0.9693694226701746 0.2409052194533055
2493607 -0.9692075171034535 0.24112580975974782
2494118 -0.9688837662372921 0.24118015317856847
2494629 -0.968761332680025 0.24133697325333128
2495139 -0.9686469884205926 0.24050549812001376
2495650 -0.96848928219393 0.24143738554419605
2496160 -0.968176319870176 0.24050847523023192
2496671 -0.9680563212146961 0.24121907830920977
2497181 -0.967284289148426 0.240337359217371
2497692 -0.9679214560358449 0.24068289507471094
2498203 -0.9677447492603936 0.24042990544332388
2498713 -0.9682207789011983 0.24069256310047393
2499224 -0.9679711502236744 0.2407584941835708
2499734 -0.968307545604902 0.2411314431838876
2500245 -0.96828978684089 0.24167358966090075
2500755 -0.9685820347951615 0.2409523464170071
2501266 -0.968797145805283 0.24174537960005743
2501777 -0.9687563522118476 0.2406387308727202
2502287 -0.9690247301314613 0.24187621099375617
2502798 -0.9679652952911911 0.24183373978528383
2503308 -0.9687819552667509 0.2422001928855091
2503819 -0.9673686269947434 0.24151967189467466
2504329 -0.9684968274306409 0.24210460783625679
2504840 -0.968171450345361 0.24234790748734023
2505351 -0.9682145316275279 0.24217359516425185
2505861 -0.9686183510667847 0.2424711240082478
2506372 -0.9681957287987751 0.24192139892929712
2506882 -0.9681581406146719 0.24238934093225017
2507393 -0.9678985236629025 0.24147468894576443
2507903 -0.9679014704091992 0.24176628774230285
2508414 -0.967232275164018 0.2416836323797683
2508925 -0.9683055898089299 0.24183151951148343
2509435 -0.9669543712964127 0.24097209979462095
2509946 -0.9676202551722644 0.24222725577545934
2510456 -0.9674635917442356 0.24240203486014794
2510967 -0.9678150389004638 0.2423101866958343
2511477 -0.96856637417721 0.24234510462723327
2511988 -0.9681401520277627 0.24184493877892896
2512499 -0.9684998646573223 0.24326322370942569
2513009 -0.9685326929456042 0.2425397237019674
2513520 -0.9685417867322801 0.24271905969802682
2514030 -0.9681873649961756 0.24260509755753484
2514541 -0.9684596862791536 0.24285294793264395
2515051 -0.9680627711665297 0.24279597290716307
2515562 -0.9681694404129094 0.24309860179465498
2516073 -0.9673872316315569 0.24251229881318975
2516583 -0.9680072628218515 0.24312479870952344
2517094 -0.967966372371784 0.24289209058121106
2517604 -0.9678302096602325 0.2428809349350489
2518115 -0.9678030863609074 0.24293240676308583
2518625 -0.96728005969249 0.24219181790746808
2519136 -0.9677629099900563 0.24275302274790575
2519647 -0.9670550790667639 0.24244547840243025
2519647 -0.9666971246700016 0.24290535818317066
2520168 -0.9675009074359827 0.24299796916092362
2520689 -0.9674432118609932 0.24307013917794015
2521210 -0.9680684158761469 0.24348082241994
2521731 -0.9680816434468238 0.24342103920206284
2522252 -0.9681486059654792 0.24358258700304283
2522773 -0.9679941680518025 0.24403383885265967
2523294 -0.9681737123568614 0.2437084880313756
2523816 -0.9682374563704906 0.2444460274509275
2524337 -0.9676947216832276 0.24348996886336555
2524858 -0.9681942773545108 0.2439023013041013
2525379 -0.9671168492379416 0.2438046698629627
2525900 -0.9677605856622772 0.24424170805229892
2526421 -0.9675401737748417 0.24401022126610283
2526942 -0.9676326041722203 0.2437863183993181
2527463 -0.9674596246228755 0.24429270300270534
2527985 -0.9674277994483346 0.24340932458125064
2528506 -0.9674425365681293 0.24399983613869175
2529027 -0.9667470832099692 0.24338821093227958
2529548 -0.9675102679425349 0.2438674560540918
2530069 -0.9671654396772439 0.2438487738739893
2530590 -0.9675496392121284 0.24393849608134052
2531111 -0.9678981198092481 0.2443958614570738
2531632 -0.9677330161870807 0.2444186837579942
2532154 -0.9680724819784247 0.24491805545128803
2532675 -0.9678750876173987 0.24430532661278076
2533196 -0.9680186256773997 0.24480272319691182
2533717 -0.9678208005037093 0.24465088212027686
2534238 -0.9680957506500916 0.24482235842085745
2534759 -0.9676667440912707 0.24499720616301005
2535280 -0.967953616580282 0.2453794261469115
2535802 -0.9677256277105148 0.2450745208738317
2536323 -0.96772930528348 0.24514325132147005
2536844 -0.96743431749893 0.24546768124202545
2537365 -0.9675714960002509 0.2449043793511118
2537886 -0.9677128762528772 0.24506008197388876
2538407 -0.9667913800055132 0.24479007276056433
2538928 -0.9673106409086002 0.24504637836547774
2539449 -0.9665633396012643 0.24446953637481705
2539971 -0.9667797948889669 0.24483794770063882
2540492 -0.9673916820424926 0.24461195644542946
2541013 -0.9670017060516467 0.24481405598964234
2541534 -0.9672373411391775 0.2451982977188949
2542055 -0.966920782006495 0.24452067780771927
2542576 -0.9675995340279119 0.2450322125780186
2543097 -0.9672758696357374 0.24469015760602153
2543618 -0.9678119310666399 0.24544009623814284
2544140 -0.9674328468497299 0.2453805874742897
2544661 -0.9675739331225539 0.24574062371965183
2545182 -0.9675432209430073 0.24620849938734077
2545703 -0.9674420097163472 0.24595591625620025
2546224 -0.9675167711366432 0.24645819297193036
2546745 -0.9677226423318402 0.24624689000660138
2547266 -0.9681082180641027 0.24654619029417857
2547788 -0.9670420105596592 0.24591223579364896
2548309 -0.9669389354304374 0.2459255821943028
2548830 -0.967579666430287 0.24644250031412715
2549351 -0.9664181495791706 0.24619212451075265
2549872 -0.9674671160896255 0.24650575913061173
2550393 -0.9665478263556073 0.24495216406100792
2550914 -0.9664240022458939 0.24497281994037043
2551435 -0.965981625366174 0.24513693697720396
2551957 -0.9670770093133562 0.24577373535570074
2552478 -0.9663658832604557 0.24599206061387946
2552999 -0.9671836864843993 0.24614163608579176
2553520 -0.9671461870072496 0.2461483402584847
2554041 -0.9672587094537413 0.24590565127341818
2554562 -0.9673431124902656 0.24596588997459026
2555083 -0.9674944922021766 0.24593099950967934
2555604 -0.9673198356669179 0.246159779583188
2556126 -0.9675390816992044 0.24603064516115639
2556647 -0.9678192095544239 0.24643422761349618
2557168 -0.9669234412457691 0.2470786383747479
2557689 -0.9671092085875724 0.24761222915458622
2558210 -0.9664608828261749 0.24743319422065127
2558731 -0.9670245260100937 0.24696372058352736
2559252 -0.9671596007553614 0.24752931893882435
2559774 -0.9669209669666313 0.24669681408914745
2560295 -0.967066047352053 0.24728481254842524
2560816 -0.9666775618559653 0.24683890222404103
2561337 -0.9673674222602161 0.24678133899448462
2561858 -0.966615464507217 0.24671350845964313
2562379 -0.9668935851396386 0.24663240316245258
2562900 -0.9664211527495173 0.24651029009160455
2563421 -0.9664957918113399 0.24679442120951067
2563943 -0.9669436692991413 0.24724179881064248
2564464 -0.9664333250069101 0.24699379557021434
2564985 -0.9670518348907756 0.2474027578791865
2565506 -0.9666910180689293 0.24726383225600176
2566027 -0.967163571627538 0.24731412513317677
2566548 -0.9672040569449202 0.2477748352252455
2567069 -0.9669979591918586 0.24830666950418312
2567590 -0.9668388670122028 0.24834604115337447
2568112 -0.9669875179714394 0.24822439212314237
2568633 -0.9671500621649795 0.24865962136951414
2569154 -0.9671816929439003 0.2476533720139449
2569675 -0.9669671516915818 0.24822004409198092
2570196 -0.9661641605512495 0.24758961287287148
2570717 -0.9663958569703884 0.2477120535484617
2571238 -0.9660053146142553 0.247957120860284
2571760 -0.9661356144147982 0.24809196001471426
2571760 -0.9662977034812721 0.24820235932556486
2572291 -0.966525684846886 0.24784343176522522
2572823 -0.9667451067967407 0.24814181729715948
2573355 -0.9662643032453432 0.24787857214066036
2573887 -0.966445340990467 0.2480819266848354
2574419 -0.9660499388094665 0.2482071461574302
2574951 -0.9666969955721906 0.24819286056899348
2575483 -0.9665594146962384 0.24859121629771264
2576015 -0.9668288582592939 0.24811343803869423
2576547 -0.9670838472056899 0.24831137561211572
2577079 -0.9664166826092087 0.24834868083025335
2577611 -0.9667622430996415 0.24879159446326274
2578142 -0.9667264443792458 0.24863465968923873
2578674 -0.9668382790586778 0.24905815094867725
2579206 -0.9667904055044112 0.2493787128100075
2579738 -0.966098163153575 0.24861957632780055
2580270 -0.9664153662409407 0.24900466624948886
2580802 -0.9657458128154258 0.24831242923856095
2581334 -0.9659410065500966 0.24861972748740682
2581866 -0.9656465956129618 0.2486983771705131
2582398 -0.9655598514254157 0.24851828516185992
2582930 -0.9657058279926886 0.24917826654066355
2583462 -0.9656399906143708 0.2485644178477398
2583993 -0.9660092045201247 0.2487998507336962
2584525 -0.9656226401420728 0.24858064821190085
2585057 -0.9661046283995401 0.24888593984731272
2585589 -0.9657609051553891 0.24882319156926563
2586121 -0.965973220984034 0.24953559156485275
2586653 -0.9660455472654227 0.24984542487521338
2587185 -0.9662592057531513 0.24934906249578187
2587717 -0.9666457137059679 0.24998946539987077
2588249 -0.9658910586438934 0.24987432382547442
2588781 -0.9666840969402734 0.2501194666433822
2589313 -0.9663081832486128 0.25009461733504385
2589844 -0.9662017348348366 0.2506114458096702
2590376 -0.9661130136566752 0.25013326931491514
2590908 -0.9661158805508694 0.25017671875501324
2591440 -0.966030598228925 0.25026989836115804
2591972 -0.9659181735691221 0.2498399124667147
2592504 -0.9660038146521857 0.24967595121106528
2593036 -0.9653811176340844 0.24977645028946488
2593568 -0.9656523801853973 0.25001294628074044
2594100 -0.9656432840460082 0.25022045289830636
2594632 -0.9660748621421905 0.2499836998739669
2595164 -0.9658903860862167 0.25000706412492063
2595695 -0.965765334859564 0.24948660547704404
2596227 -0.9656958165659345 0.24964446516853314
2596759 -0.9651532984321035 0.2495399443684793
2597291 -0.9652942600495596 0.24990985098760257
2597823 -0.9651993857179323 0.2501847861849056
2598355 -0.9655483246108768 0.24967482759706602
2598887 -0.9660354169673505 0.24998974156873738
2599419 -0.9655096156427042 0.24969187850829647
2599951 -0.9655114079252185 0.24987566973937905
2600483 -0.9655056752189256 0.2501334890967553
2601015 -0.9653610593001962 0.250158332812308
2601546 -0.9652172233763121 0.2506224169087963
2602078 -0.9653642148726609 0.250655710673256
2602610 -0.9658793393104939 0.2506096827759931
2603142 -0.965388212087121 0.25057198788028906
2603674 -0.9651838250909749 0.25073972537547506
2604206 -0.9651567131522043 0.25098618646526083
2604738 -0.9655020660543102 0.25096223921166844
2605270 -0.9651841730003847 0.2515527150138312
2605802 -0.9654380664129886 0.25110582576240653
2606334 -0.965779962139842 0.2511733994898161
2606866 -0.9651760375840184 0.2508989431503857
2607397 -0.9651463520356603 0.2513103720887915
2607929 -0.965333242913225 0.2507708627862978
2608461 -0.9651958710262978 0.2510104402767218
2608993 -0.9651625953492159 0.2515152187294692
2609525 -0.9653114835810724 0.25148644511903545
2610057 -0.9659271239230818 0.25118371984016014
2610589 -0.9652851614097206 0.2509744500030876
2611121 -0.9653410607230238 0.25131754013603436
2611653 -0.9656057693328667 0.2513516958703965
2612185 -0.9657618169808249 0.25108298049625616
2612717 -0.9656991683464505 0.25213293761212413
2613248 -0.9655417187247044 0.2516976842702511
2613780 -0.9660974301308637 0.251848259402621
2614312 -0.9657038483512788 0.2516641379509917
2614844 -0.9661039826383825 0.25204279834009
2615376 -0.9657142893552487 0.25179533127850134
2615908 -0.9658486145224294 0.2522602596360032
2616440 -0.9658705083200955 0.2521706263752937
2616972 -0.9655684643803177 0.25212003785325904
2617504 -0.9659935088456578 0.2525591617177394
2618036 -0.9655955782420399 0.25236285363235955
2618568 -0.9656561228386153 0.25251863254337
2619099 -0.9654404279538857 0.2529624431293487
2619631 -0.9655284876450063 0.2527010945153816
2620163 -0.9657693065267479 0.2530130085895025
2620695 -0.9655232669417775 0.25245120970156326
2621227 -0.9657941813084204 0.25272485330321204
2621759 -0.9652987384784798 0.25262656225202107
2622291 -0.965492098819605 0.25271189539209665
2622823 -0.9646213722918853 0.2528003765255151
2623355 -0.9654484502475723 0.25309946920040327
2623887 -0.9653635788736968 0.2536699370913973
2624419 -0.9655811395730318 0.25355001718015524
2624951 -0.9655554852122198 0.25372919507458236
2624951 -0.9660118929075787 0.25421037995122625
2625493 -0.9651118951696275 0.2533029375997841
2626036 -0.9651405446904984 0.25383377841723537
2626579 -0.9648009360263164 0.25342957513825354
2627122 -0.9649599322718504 0.2536489085869792
2627665 -0.965179093090998 0.25356568451029315
2628208 -0.9652205753052875 0.25387535711382214
2628751 -0.9655272310849837 0.2538617597127076
2629294 -0.9648145346502335 0.25340849623796363
2629837 -0.9651946836686943 0.2534148888160304
2630380 -0.9652635037042259 0.25394296860255483
2630923 -0.9649103084465682 0.25375427814495405
2631465 -0.9650879953914817 0.25424832903678607
2632008 -0.964951451460207 0.25425057872364504
2632551 -0.9652668513114102 0.25388942412682997
2633094 -0.9649235309544442 0.25410793932256853
2633637 -0.9646307508672499 0.25367785213888117
2634180 -0.9646115575116434 0.25365430828411933
2634723 -0.9648451670289 0.25359602132488446
2635266 -0.9648259697232227 0.2537626515910197
2635809 -0.9645509605553835 0.25363015330736643
2636352 -0.9648951081758319 0.25396906611733183
2636895 -0.9641519111200321 0.25399059490011044
2637437 -0.9645030476898733 0.25353177819862627
2637980 -0.9644879282861882 0.2540405651838551
2638523 -0.9646583975124257 0.2539048775168176
2639066 -0.9644760948496135 0.2544548440411281
2639609 -0.9643308479310587 0.2540375404990347
2640152 -0.9645487101273149 0.2544039780205922
2640695 -0.9642711241686117 0.2544971869500222
2641238 -0.9644626615485427 0.2543523887768856
2641781 -0.9646857500196615 0.25435856993297407
2642324 -0.9643521505415616 0.25438769198129435
2642867 -0.9650702509957677 0.2545090064598456
2643409 -0.9647216562557023 0.25420205073755364
2643952 -0.9644586874948429 0.2542226822334213
2644495 -0.9646872993237959 0.25424283201230713
2645038 -0.9644434203249324 0.254159768295143
2645581 -0.9646197604694584 0.254457658391578
2646124 -0.9639220378629493 0.2545887413391048
2646667 -0.9649117077928003 0.2549388649026336
2647210 -0.9645741102020804 0.2550380195228519
2647753 -0.9653102860352207 0.2547234012887475
2648296 -0.9648399016063478 0.25498331202756724
2648839 -0.9651394158192818 0.25475766596530797
2649381 -0.9651654859965169 0.25496885770092914
2649924 -0.9649679532318202 0.2546116161606219
2650467 -0.9649600556676636 0.2552038406199633
2651010 -0.9651768060498954 0.2552268924000995
2651553 -0.9644979928663765 0.2553296563922753
2652096 -0.9647876463717434 0.25535585480345085
2652639 -0.9645530530549222 0.2556002492102263
2653182 -0.9647213475259492 0.255681983332064
2653725 -0.9649493872467172 0.25582334802921
2654268 -0.9647499644485089 0.25599900866002134
2654811 -0.9651224599864181 0.2559312202037624
2655353 -0.9648068009599318 0.2557243034130263
2655896 -0.964724720630006 0.2562658135343123
2656439 -0.964966749724122 0.2562551739712153
2656982 -0.9645731373171907 0.256396294223171
2657525 -0.9644770781421839 0.2565210514544331
2658068 -0.9646545344130427 0.256918658176638
2658611 -0.9643322143939034 0.2563694917107704
2659154 -0.9639447038336122 0.25617141963865736
2659697 -0.9646939385164804 0.25646229456795755
2660240 -0.9642487048937075 0.2562802766155465
2660783 -0.9644510135093276 0.25715739858002307
2661325 -0.9647434953597548 0.25699359233416397
2661868 -0.9641779575614619 0.25712467146304424
2662411 -0.9642981544644234 0.25724925728360337
2662954 -0.9640838162423642 0.2574008196830623
2663497 -0.9643451967275094 0.2569253891600771
2664040 -0.9644129232636176 0.2570052673158164
2664583 -0.9644977566066191 0.25686109956611125
2665126 -0.9642673594242676 0.25699221380151976
2665669 -0.9639226977668087 0.2567788762189253
2666212 -0.9641042648710789 0.25656631586717166
2666755 -0.9644103737334545 0.25631787855599875
2667297 -0.9638484519957681 0.2569063041518906
2667840 -0.9638742908219393 0.2572444627116298
2668383 -0.9635568203970404 0.25705168713877596
2668926 -0.9637646594102153 0.256909731235391
2669469 -0.9638384599868689 0.25721961746729705
2670012 -0.96386353592612 0.2568539146842147
2670555 -0.9636076719086777 0.2568585948978328
2671098 -0.9634687005963906 0.25694754574115947
2671641 -0.963530971869963 0.25709463158832174
2672184 -0.9632879713479756 0.25734824588884025
2672727 -0.9640474963312767 0.2576846693152935
2673269 -0.9634665154501763 0.25746225959865304
2673812 -0.963566401078414 0.2572695572592633
2674355 -0.963452088611339 0.25750183874330906
2674898 -0.9634794567471907 0.25702441446970836
2675441 -0.9633490247920401 0.257566309757754
2675984 -0.9632102747322963 0.2569075535353581
2676527 -0.9638254310775239 0.2572975547651909
2677070 -0.9632651266129195 0.257500167670339
2677613 -0.96388565027069 0.2574906258231504
2678156 -0.9642290350253284 0.25741536322877945
2678699 -0.9640382367128593 0.25773646131239514
2679242 -0.9642973767730251 0.2576487853695726
2679242 -0.9642366653422014 0.2575031751092578
2679796 -0.9637596751667609 0.25811946563257243
2680350 -0.9638530628027642 0.2581010782820808
2680904 -0.9642480332164114 0.2584564635094365
2681458 -0.9637700383127077 0.25875215811463903
2682012 -0.963995281692329 0.2581045191520657
2682566 -0.9638864955766785 0.2583352376389829
2683120 -0.9636419792300532 0.2583006746261443
2683675 -0.9641133345062279 0.2585102195465667
2684229 -0.9640863570249516 0.2584328262686555
2684783 -0.9644615517459884 0.2584709413405689
2685337 -0.9637358503535826 0.2585497842056672
2685891 -0.9638332375511197 0.2583744521699036
2686445 -0.9642160575905332 0.2582909147449662
2686999 -0.9633135148087271 0.2584816195832447
2687554 -0.9635723194155706 0.25864666977741735
2688108 -0.9636410191826114 0.2587329350763632
2688662 -0.9630000508535393 0.25916623604096006
2689216 -0.9636027294556843 0.25858821542651844
2689770 -0.9637170690368089 0.25894047827659816
2690324 -0.9637035682485025 0.2590273919613872
2690878 -0.9633559084144039 0.25943960265328
2691433 -0.9634501764183427 0.2595554421447909
2691987 -0.963838475359728 0.2596347237889571
2692541 -0.9633919432185748 0.2592333037715258
2693095 -0.9641667201275202 0.25933838389715136
2693649 -0.9635200669617837 0.2596978729895817
2694203 -0.9638128570413692 0.25975708409182635
2694757 -0.9634793942015616 0.2599260320859493
2695312 -0.9636011340009325 0.2606469783151235
2695866 -0.9638445538434076 0.2608410364443284
2696420 -0.9637083458091613 0.26075869602545276
2696974 -0.9633842852770682 0.26038957394584533
2697528 -0.9636157691583133 0.260720690507035
2698082 -0.963336898941728 0.26086659599133066
2698636 -0.9636524819254425 0.26094861059422825
2699191 -0.9633980139950684 0.2612582520468929
2699745 -0.9630237246875372 0.2606027020481761
2700299 -0.9638971862766407 0.2608925033857515
2700853 -0.9635861369251993 0.260810110180168
2701407 -0.963614689435695 0.26103275508391344
2701961 -0.9638423765137234 0.2607375307982088
2702515 -0.9635137786910456 0.26077426757079347
2703070 -0.9637895814216841 0.2608403149108787
2703624 -0.9629664368989521 0.2606625284463866
2704178 -0.9628675611706848 0.2604442012164434
2704732 -0.962817307949344 0.2601393832588445
2705286 -0.9633007223082174 0.2605273442609214
2705840 -0.9621089705020428 0.2605619766886093
2706394 -0.9624356327669574 0.26080233905057376
2706949 -0.9626850750452479 0.26047710072626984
2707503 -0.9626486941005648 0.26096059585426834
2708057 -0.9629417630006335 0.26044170572445197
2708611 -0.962092417120137 0.26039094856355877
2709165 -0.9625142695875232 0.2608136499791137
2709719 -0.9625384584756713 0.26063865848424295
2710273 -0.9627882375527766 0.2609001035652716
2710827 -0.9634382168706137 0.2608454816411717
2711382 -0.9623891711199573 0.2609571848741928
2711936 -0.962316221551452 0.26082235979412494
2712490 -0.9624248034771494 0.2604505991600552
2713044 -0.962526698610308 0.2610077707764764
2713598 -0.9625817744886169 0.26169038865119276
2714152 -0.9625235952442006 0.2617802810838483
2714706 -0.962428744482045 0.26132241703997733
2715261 -0.9625505309363278 0.2614925281701071
2715815 -0.962818148283659 0.2612240909059636
2716369 -0.9626270041487583 0.26150366683748516
2716923 -0.9622795115424955 0.2611582590643681
2717477 -0.9630609371867558 0.26164979269980015
2718031 -0.9630552050621901 0.2616038069557085
2718585 -0.96335090460372 0.2614928650252714
2719140 -0.9632589294480935 0.26176733654648754
2719694 -0.9626968748572569 0.26112618369875895
2720248 -0.9626726107373926 0.26177862500327037
2720802 -0.9626919334592158 0.2616905991789571
2721356 -0.9626006226647265 0.2616547989916928
2721910 -0.9629514668620415 0.26229422790508805
2722464 -0.9624144539479998 0.26184725962084426
2723019 -0.9632945339377074 0.261980120830977
2723573 -0.9625149158837173 0.2621528781873857
2724127 -0.9623142059424112 0.26261911849145253
2724681 -0.9625041015263058 0.262496446554573
2725235 -0.9626920211611412 0.2624253658261161
2725789 -0.9627347553387868 0.26218729871340374
2726343 -0.9630477756368498 0.2626168468544566
2726898 -0.9629163284958359 0.2629199630756158
2727452 -0.9627004369079537 0.26267903300245143
2728006 -0.9628759873177134 0.26269251022533824
2728560 -0.9622809063578686 0.2626750897833553
2729114 -0.9622793142109632 0.26271478917474816
2729668 -0.9623452183274305 0.2633000865705818
2730222 -0.9630248825053208 0.26304386044604616
2730777 -0.9630450037003898 0.26315564268914404
2731331 -0.9631657274446156 0.2631844579864262
2731885 -0.9622909438539643 0.26313960018175103
2732439 -0.9622859715491316 0.26358909778638484
2732993 -0.9627106675990064 0.2632334847171953
2733547 -0.962762636284394 0.26346236307874715
2734101 -0.96275898425783 0.2636443550218417
2734656 -0.9618755156694925 0.26359269743995084
2734656 -0.9618084667416933 0.26360085737017325
2735221 -0.9625062656372638 0.2639811657160227
2735787 -0.9618327527752232 0.2638160973449496
2736352 -0.9624761768428575 0.2639401697061595
2736918 -0.9626926399886444 0.2638817079050331
2737484 -0.9620675622254271 0.2637988566369958
2738049 -0.962285941922557 0.2638124176413519
2738615 -0.9626292669951231 0.2636233224969654
2739180 -0.9624108449732551 0.2636609167344571
2739746 -0.9630515974257388 0.2638829750167871
2740312 -0.9621031508683294 0.2635008503689267
2740877 -0.962389138453833 0.2640074615353416
2741443 -0.9624483218548495 0.26382765140177844
2742008 -0.9625417403592899 0.2640104533770472
2742574 -0.9624184937610156 0.2637890544604511
2743140 -0.9619256516414325 0.26417807232126833
2743705 -0.9621388342509336 0.2642089504615267
2744271 -0.9621784255425012 0.26460597868935104
2744836 -0.9621629618345897 0.2640394741446488
2745402 -0.9617479049820407 0.2639650084870325
2745968 -0.9611641519406506 0.26354235510293433
2746533 -0.961289167000031 0.2641477891912393
2747099 -0.9616848536946216 0.26411882187027763
2747665 -0.961356618275095 0.26390309557801966
2748230 -0.9619798844257125 0.2642893139972398
2748796 -0.9613995707763751 0.2642268901741519
2749361 -0.9612281802238551 0.2645625781079136
2749927 -0.9616602157494435 0.26452723745638
2750493 -0.9613280687566401 0.26437990922152754
2751058 -0.9619066368351478 0.2644555549100355
2751624 -0.9614173032610505 0.26426041208266543
2752189 -0.9620245025066259 0.2645835977440335
2752755 -0.9622486133256135 0.26448570597247834
2753321 -0.9618200439883726 0.2645059591720873
2753886 -0.9620513767751027 0.26480762189359197
2754452 -0.9613991168487193 0.2647093907286055
2755017 -0.9617185901638776 0.2653830834572361
2755583 -0.9623675528781322 0.2654181289998387
2756149 -0.9619985713804635 0.265140116347621
2756714 -0.9621734534317508 0.2651829725544784
2757280 -0.9616556009498004 0.26482567621784914
2757846 -0.9619801389390849 0.2651661616190155
2758411 -0.9620111244708565 0.2654715003606477
2758977 -0.9618544631215836 0.26524686841582484
2759542 -0.962249303378296 0.2657384530181791
2760108 -0.9617069123875452 0.26557656642257726
2760674 -0.9615857897945559 0.26572801417458736
2761239 -0.961504865040408 0.26572706303958465
2761805 -0.9614402478653591 0.26623594834462505
2762370 -0.9615276114802879 0.26638354963304073
2762936 -0.9615679359689068 0.26641665203785503
2763502 -0.9620975657456036 0.26607182415939706
2764067 -0.961549489479015 0.2659039829808804
2764633 -0.961809785607914 0.26613014148538056
2765198 -0.9617009246075192 0.2661373095779929
2765764 -0.9614986605620442 0.26660005323705177
2766330 -0.96132710939338 0.26716781785538163
2766895 -0.961885807615965 0.2667011374261216
2767461 -0.9617534953359795 0.2667668554022736
2768026 -0.962359604659937 0.2665059040305093
2768592 -0.9616685123948954 0.2663843352615458
2769158 -0.9622415161882593 0.2671424675376459
2769723 -0.9616146888922906 0.26686193723476564
2770289 -0.961637677834759 0.26673136312620616
2770855 -0.9615974788453783 0.26739698989120037
2771420 -0.9615096769362828 0.266555111047576
2771986 -0.9613045122353915 0.26736325630723873
2772551 -0.9613325855640619 0.2667433235427368
2773117 -0.9619637373701013 0.2671821561567561
2773683 -0.9621869027600872 0.2671840681002415
2774248 -0.9620315849879776 0.26713949610133736
2774814 -0.961785562062522 0.267527844402115
2775379 -0.9619666462124117 0.26751953608362533
2775945 -0.9616727688630929 0.26661593971772224
2776511 -0.9621524300565352 0.2670600528073208
2777076 -0.9609642858350292 0.26708071140594913
2777642 -0.9613182991407655 0.2673269618248134
2778207 -0.9614641904193814 0.2672957678123918
2778773 -0.9621632112624201 0.26748064457703347
2779339 -0.9619800453709857 0.2669330918803961
2779904 -0.9607855294685442 0.2671517923225402
2780470 -0.9610301168233774 0.26784522127046895
2781036 -0.9616380600047031 0.26784317682989617
2781601 -0.9612724672449552 0.26772574170875935
2782167 -0.9616478740520381 0.2673222197184841
2782732 -0.9609637891064808 0.2673105495422995
2783298 -0.9608666286070918 0.26809118989299946
2783864 -0.9611404897684234 0.2676138554431616
2784429 -0.9606733661114156 0.26755635263494615
2784995 -0.9611468790164531 0.26787644338289857
2785560 -0.9608360854071284 0.2672331320622721
2786126 -0.9609007638699294 0.2682055524713861
2786692 -0.9607853156805217 0.2681645894461252
2787257 -0.9603213513043481 0.2677867478820011
2787823 -0.9604203328068556 0.26802143484494845
2788388 -0.9596309586512954 0.2681176627052379
2788954 -0.9605693420702027 0.26848498069012827
2789520 -0.9610247087777295 0.2684821052389298
2790085 -0.9607577948705767 0.267992072672204
2790651 -0.9610117637789781 0.26853201968423085
2791217 -0.961276651107205 0.26857551782732353
2791217 -0.9612006991650373 0.2685417890322857
2791794 -0.9612752709129534 0.2687466852595068
2792371 -0.9617945366472077 0.2688104003852687
2792948 -0.9612853806201602 0.2687441089841939
2793526 -0.9613938310975597 0.26867751142060275
2794103 -0.9613043934585452 0.26867567898622385
2794680 -0.9610390456208562 0.26911514709182044
2795258 -0.9608787585262581 0.2694019606759939
2795835 -0.9602852002151308 0.2687397336366256
2796412 -0.9606137526399781 0.26976598649209155
2796989 -0.9609488199956626 0.2694692553662288
2797567 -0.9609077835311881 0.2695165674217168
2798144 -0.9606424651623137 0.2699942634684513
2798721 -0.9609008699510703 0.26987923527174634
2799299 -0.961507623422589 0.2699712512024669
2799876 -0.9617202534486277 0.269366722868339
2800453 -0.9606644239145669 0.2694001436271542
2801030 -0.9611467839599324 0.26978974330405125
2801608 -0.9609785619479477 0.26962436926518646
2802185 -0.9607739147795425 0.2694535305926372
2802762 -0.9609344730985886 0.2697727051793428
2803340 -0.9608585998976747 0.2699450918383128
2803917 -0.9608999962994288 0.2698605667740543
2804494 -0.9606706706611267 0.2696720559359234
2805071 -0.9604585316179886 0.26924856305387035
2805649 -0.9603076862185748 0.2700131396678928
2806226 -0.9606798000601864 0.26999766186197144
2806803 -0.9607947572390065 0.27031026594374824
2807381 -0.9611477107939241 0.26999657351841466
2807958 -0.9602296118977387 0.26978454717840306
2808535 -0.9604956737096855 0.2701181120460863
2809112 -0.960529386351091 0.2701873443719716
2809690 -0.9598886304619546 0.2699472160588439
2810267 -0.9602436627850139 0.2703208769432756
2810844 -0.9603366063414529 0.27032853420649916
2811422 -0.9602893663729568 0.27058094610864497
2811999 -0.9607099230936237 0.27063769597899184
2812576 -0.9602612332608091 0.27034175047031306
2813154 -0.9602618076187966 0.2707635479075766
2813731 -0.9602938349533845 0.27074346055865295
2814308 -0.9606838933458777 0.2710170741477937
2814885 -0.96086398551497 0.2706904583158436
2815463 -0.9601064025266792 0.27051694334144977
2816040 -0.9602620614304795 0.2710318532931154
2816617 -0.9601161752052018 0.2708738354459525
2817195 -0.9598187978773378 0.27070443350084306
2817772 -0.9597224001098897 0.27111001600305223
2818349 -0.9604558332180256 0.27148712702129896
2818926 -0.9604558809872107 0.2712100806356436
2819504 -0.9606778405286744 0.2710990012363872
2820081 -0.9607524788285041 0.27104833820458124
2820658 -0.9594435601320015 0.2710268048050258
2821236 -0.9599642856491166 0.27191823800728726
2821813 -0.9602391492998243 0.2720173295424649
2822390 -0.960221932107769 0.2717822763708128
2822967 -0.9611408228278226 0.27220161611610855
2823545 -0.960802298041701 0.2716525076041712
2824122 -0.9604982183727081 0.2715414096019424
2824699 -0.9602914680291975 0.2713428880730187
2825277 -0.9599909306382807 0.27146446405810964
2825854 -0.9602013458618108 0.27172637434060287
2826431 -0.9602417888519346 0.27169499481137377
2827008 -0.9606604435443894 0.27166811370379135
2827586 -0.9602590972538727 0.2713779492103614
2828163 -0.9589267570077127 0.2714175554050817
2828740 -0.9595437491115005 0.27217829440983854
2829318 -0.959665348748504 0.27224354372339715
2829895 -0.9599913444316638 0.27234520733019174
2830472 -0.9598994792028525 0.27202547189122744
2831050 -0.9600772710318433 0.2713752167553895
2831627 -0.9601266725885406 0.2720307631647248
2832204 -0.9597032425707889 0.27222231632417254
2832781 -0.9594520250610491 0.2719914684403207
2833359 -0.9596457411440724 0.27291610648525066
2833936 -0.959494956630814 0.27288880446228825
2834513 -0.9595686218841121 0.272688699353814
2835091 -0.9597473918976401 0.2723055436407468
2835668 -0.9597268150334015 0.27276288127104364
2836245 -0.9596786832829931 0.27280671525463096
2836822 -0.9596306550539199 0.27280801940059285
2837400 -0.9601926918329186 0.27312112797419913
2837977 -0.9598700456604576 0.27300303945991006
2838554 -0.9601404189230642 0.27231817075953535
2839132 -0.9601258433278697 0.2728122187939015
2839709 -0.9597806931566797 0.2723824674447047
2840286 -0.9590061335549639 0.27237257409883253
2840863 -0.9594805379516005 0.2732887032682878
2841441 -0.9596828566353858 0.273594297904045
2842018 -0.9599979753554284 0.2734006704686152
2842595 -0.9598707316376682 0.2734528692318563
2843173 -0.9588882524663199 0.27357181187357305
2843750 -0.959386515405525 0.2741481693135592
2844327 -0.9593162994651641 0.2738047745897876
2844904 -0.9588551348342913 0.27352641889039836
2845482 -0.9591870942640033 0.2739900556168824
2846059 -0.9598101504480799 0.2737642090807065
2846636 -0.9597033936961383 0.2738436590484904
2847214 -0.9599136453381956 0.27377291174287716
2847791 -0.9595918089742659 0.27349352155993684
2848368 -0.9600651056079691 0.2745374037551765
2848946 -0.9599755759060592 0.2749058694543051
2848946 -0.9589717346610449 0.2735129193556388
2849535 -0.9598205899375766 0.2739428427467798
2850124 -0.9593823998613289 0.27402129396783464
2850713 -0.9593127241655788 0.2744161894008816
2851302 -0.9594761840703534 0.2741773051182648
2851892 -0.9585188332963407 0.27342801388403853
2852481 -0.9594300958833861 0.2742258098560951
2853070 -0.9592328842427017 0.2739498581450666
2853659 -0.9597807933763385 0.2739675880065896
2854249 -0.9591765106988507 0.2739126615164902
2854838 -0.9592956875767248 0.27392928137638156
2855427 -0.9595923120835966 0.2745229208157037
2856016 -0.9594985981502565 0.27456887464805274
2856606 -0.959191308122398 0.2748094527294752
2857195 -0.9594681897711012 0.2750596156529697
2857784 -0.959428096665408 0.27485709620028664
2858373 -0.959094075921605 0.2743972252261061
2858963 -0.9590008758649673 0.27532840188633223
2859552 -0.9588371278253452 0.2750143069794243
2860141 -0.9589253697600422 0.2751910783367089
2860730 -0.9589701683252976 0.2754820565612079
2861320 -0.9590418147387607 0.27521763893203727
2861909 -0.9586705170752057 0.27531926511116217
2862498 -0.9589690223497039 0.2748929252309221
2863087 -0.9585019238581222 0.27517407338141625
2863677 -0.9588646976406792 0.27581367742332275
2864266 -0.9592398364071703 0.2754220337752767
2864855 -0.9586881584691335 0.27523729533762475
2865444 -0.9585940437148879 0.27576917520153715
2866033 -0.9592721557800995 0.27525172140714055
2866623 -0.9589984678839073 0.27529316931423076
2867212 -0.959343693498615 0.27605200465537955
2867801 -0.9593868276332103 0.2757898515785823
2868390 -0.959347798409066 0.27610508379807897
2868980 -0.9591494574217417 0.27585240530960586
2869569 -0.9585455764889828 0.27595110072880363
2870158 -0.9585952732577732 0.27671711988017045
2870747 -0.9587300069574796 0.27657299822352227
2871337 -0.9586141804271818 0.2759264338378409
2871926 -0.9586350676308713 0.27647528756781825
2872515 -0.9590192683607777 0.27666362377300374
2873104 -0.959310306389002 0.2765800103075066
2873694 -0.9594059206806055 0.2766539397059671
2874283 -0.9586320923324864 0.27656170085851595
2874872 -0.9593198252078502 0.2772300789921633
2875461 -0.9587974684276751 0.27646659491635894
2876051 -0.9589377716880881 0.27652566207229223
2876640 -0.9587613771231631 0.2765885641362101
2877229 -0.9588158518456347 0.2766206056502061
2877818 -0.9584746118186442 0.2769096453151325
2878408 -0.958944894412188 0.2766867012390513
2878997 -0.9583456290326549 0.2764975222466475
2879586 -0.9592924443569805 0.27698977521612667
2880175 -0.9590071676956822 0.2763090887955643
2880764 -0.9583188426685229 0.27620475588436016
2881354 -0.9583558011036682 0.27694614465933437
2881943 -0.9582882695245787 0.27686597133089325
2882532 -0.9583973907664752 0.27738033085043623
2883121 -0.9588686148769934 0.27711378648869894
2883711 -0.9574765387944337 0.2765505436448207
2884300 -0.9581202228850528 0.27736197646880034
2884889 -0.9580424299247642 0.2774095100177118
2885478 -0.9579819966919806 0.277128603093346
2886068 -0.9582938077286643 0.27796763164949095
2886657 -0.9581586014981148 0.2774588931013373
2887246 -0.9587746771076561 0.2771036080285941
2887835 -0.958302955820811 0.2769597648382859
2888425 -0.9582487963165783 0.27754718249147237
2889014 -0.9580206613235058 0.27793230091564647
2889603 -0.9581804275202426 0.27779531761845555
2890192 -0.9578684127915897 0.27741961457273234
2890782 -0.9587330577766594 0.2780917798694519
2891371 -0.9583883644179397 0.27791556216740754
2891960 -0.958462013940421 0.27797046105272877
2892549 -0.958078190819469 0.2784057653624112
2893139 -0.9580582268812763 0.2782994569772292
2893728 -0.9588576170293898 0.27871042174583993
2894317 -0.9588869421852184 0.27823769894894174
2894906 -0.9574775639980194 0.27797705330989286
2895495 -0.9584789124731447 0.2785940518780487
2896085 -0.9585212312199974 0.2783717630937318
2896674 -0.9588161328706752 0.27848534261292873
2897263 -0.9586833918196053 0.2789078661543064
2897852 -0.9582585717852274 0.2783497588517297
2898442 -0.9585447438089157 0.27859060230935295
2899031 -0.9582400948110562 0.27886053808865924
2899620 -0.9569622935509496 0.2782075653835014
2900209 -0.957834316198482 0.2792687632986854
2900799 -0.9580589207151636 0.27905430673622705
2901388 -0.9576548906724238 0.2785027628602598
2901977 -0.9577451877036688 0.27895153006384416
2902566 -0.9583293899541554 0.2786856071249605
2903156 -0.9581487729117534 0.2787147123198135
2903745 -0.9581137654642381 0.27862322528515954
2904334 -0.9574921926775897 0.27820285452475046
2904923 -0.9580727483470255 0.2792783442471784
2905513 -0.9579161494023335 0.27913873974585546
2906102 -0.9569842329618289 0.27859592692783214
2906691 -0.9574190004868974 0.27939591505266426
2907280 -0.9573482809181462 0.2791609464321395
2907870 -0.9580669629402961 0.2793538161624113
2907870 -0.957722396874834 0.2793040571744741
2908471 -0.9576945615561052 0.2789447362943718
2909072 -0.957613520336261 0.2797201882993958
2909674 -0.957851768050864 0.27947348559886276
2910275 -0.957732778925542 0.2795671049705849
2910877 -0.957738336471801 0.2797547455361577
2911478 -0.9576019499564129 0.279337535029461
2912080 -0.9577394217986867 0.28000006023189833
2912681 -0.9577492304113051 0.27995420072149935
2913282 -0.9571384547673507 0.2797475090672292
2913884 -0.9575347155920839 0.2805099936181811
2914485 -0.9575398423889045 0.28000056139029483
2915087 -0.9572913795498296 0.28033547054490576
2915688 -0.957643979284451 0.2807631078482482
2916290 -0.9577375174811256 0.28066120698387964
2916891 -0.957864908180952 0.28015562338553895
2917492 -0.9576008600954409 0.2806074485058712
2918094 -0.9575876886746394 0.2803505146812213
2918695 -0.9575711236559589 0.28051685000419296
2919297 -0.9577000188814259 0.28060142811265326
2919898 -0.9573970964191522 0.2805710626845675
2920500 -0.9576019391115722 0.28083430608636567
2921101 -0.9573376282146764 0.2802493163843573
2921702 -0.9571202697011874 0.28101670762774283
2922304 -0.9569533172023804 0.2808052443751181
2922905 -0.957180573454153 0.28055879441975307
2923507 -0.9575850698289152 0.28041436686085613
2924108 -0.9570496224777084 0.28131158186639066
2924710 -0.9570002456384556 0.2808540744630601
2925311 -0.9572630341340971 0.2804192985841194
2925912 -0.9570565187468186 0.28136860349307913
2926514 -0.9573918038696541 0.2810077858773904
2927115 -0.9574590245248653 0.28118292000656364
2927717 -0.9574802638879304 0.28106173042461574
2928318 -0.9572793678987201 0.28111171752397524
2928920 -0.9572265062562247 0.28154422242354843
2929521 -0.9569975454082577 0.28160480721002784
2930122 -0.9568648565891626 0.2814048962745362
2930724 -0.9572122140707937 0.28227947980384077
2931325 -0.9569442134443672 0.28157330443606154
2931927 -0.9573028260544952 0.2810278947050133
2932528 -0.9575301136900319 0.2817408020451485
2933130 -0.9571433150850596 0.2816231532161782
2933731 -0.9569453620273736 0.2817309004582588
2934332 -0.9567187269737252 0.2820856484523064
2934934 -0.9570331061312886 0.28181898073269906
2935535 -0.9572571827068677 0.282352848729397
2936137 -0.9571043069142515 0.2822447996015452
2936738 -0.9568004510929249 0.28215197522189656
2937340 -0.9573069113580123 0.28251975593241074
2937941 -0.9572690375555167 0.2823840144299286
2938542 -0.9573347258535002 0.2823079280696042
2939144 -0.9575819344224974 0.2826428829971672
2939745 -0.9573387939084135 0.28225958047282207
2940347 -0.9569823646808595 0.28268595829147103
2940948 -0.9568124415016026 0.2823704237541894
2941550 -0.9564547053554883 0.2826751504908792
2942151 -0.9566190465052229 0.28316879209658713
2942752 -0.9570726234199942 0.2831357754468334
2943354 -0.957003594859941 0.2825472251074995
2943955 -0.9567726324197081 0.2829396034411505
2944557 -0.9568681318145058 0.2827280324989535
2945158 -0.9570749662460843 0.2828578235858814
2945760 -0.9571914434858728 0.2831031715482438
2946361 -0.9568310376206912 0.2828469453065078
2946962 -0.9568579645202585 0.2832444177117001
2947564 -0.9565600098553759 0.28272265904843147
2948165 -0.9554981009841389 0.28170866911618486
2948767 -0.9568040875992332 0.2837772720042725
2949368 -0.956917529470446 0.2834024153994332
2949970 -0.9563846066741769 0.28354454125965767
2950571 -0.9566675147516976 0.28413992575091596
2951172 -0.9566570270122242 0.28348009411173763
2951774 -0.9565978647747825 0.28356469941202034
2952375 -0.9566114583990404 0.283248963178869
2952977 -0.9568914045843823 0.28378825903882887
2953578 -0.9569603475758405 0.2838571395924368
2954180 -0.9567391648893199 0.2838041281858864
2954781 -0.9561312715146542 0.28358905737496765
2955382 -0.9568651429697786 0.2840658152835456
2955984 -0.9563818635107669 0.28420021059754214
2956585 -0.9562530462284141 0.2835670691996389
2957187 -0.9568869095107614 0.2847014849026385
2957788 -0.957000542994163 0.28404553601958726
2958390 -0.956368424137677 0.28401571491194444
2958991 -0.9565429022286787 0.2841618549009019
2959592 -0.9564922977679726 0.2845028317042379
2960194 -0.9566291481859543 0.28404875831672016
2960795 -0.9564499907278023 0.28456468868555873
2961397 -0.9566450193845103 0.28429865572891433
2961998 -0.9569821923994273 0.28461753883374147
2962600 -0.9570652520495841 0.2846546090932667
2963201 -0.9562045426310934 0.28417659149569585
2963802 -0.9567337236203727 0.2846395123141856
2964404 -0.956641260437628 0.2849975103146667
2965005 -0.9562476319066766 0.28452711248115115
2965607 -0.9566362185916558 0.2850417728351503
2966208 -0.9561277488181641 0.2846120365071938
2966810 -0.9562778713517743 0.28496823409168587
2967411 -0.955696212079361 0.28541031982926635
2968013 -0.9561498692471418 0.28486038902551925
2968013 -0.9564351283521143 0.28538668048969645
2968626 -0.9559847637694345 0.28524392873072235
2969240 -0.9564110416920101 0.28487282966582456
2969854 -0.9564038012359896 0.2850422022318608
2970468 -0.9563718444834068 0.28497053274161444
2971082 -0.9566134387576595 0.2852005245656158
2971696 -0.9561476233884277 0.2856661820307119
2972310 -0.9563291015652137 0.28537771433919257
2972923 -0.9560651329900896 0.2850212210114433
2973537 -0.9564680138335161 0.2858625810496489
2974151 -0.9561041726841957 0.28504279990797543
2974765 -0.955944969496559 0.2851212349472162
2975379 -0.9562969471029678 0.28576087319687304
2975993 -0.9562279969466838 0.2855868403319811
2976607 -0.956119942790245 0.28558498743153143
2977221 -0.9558112444668844 0.28592223594497107
2977834 -0.955367143391699 0.2859625079624009
2978448 -0.9561082663868479 0.28605592670157803
2979062 -0.9558684017128545 0.2860706726358651
2979676 -0.9558541232265795 0.2858523859112769
2980290 -0.9562065660221724 0.28605218527110376
2980904 -0.9564190127977474 0.2860982011915899
2981518 -0.9555463391774283 0.28589729814271636
2982132 -0.955454939444332 0.28636948401149437
2982745 -0.9559178671463266 0.28628848591802913
2983359 -0.9551316934905592 0.28607829124860085
2983973 -0.9557186179926712 0.28671772764185294
2984587 -0.9556071122849351 0.28667117821543153
2985201 -0.955778337469398 0.2865105819307676
2985815 -0.9555641078516277 0.28717572937709024
2986429 -0.9555460183207009 0.2870600717603762
2987042 -0.9551069376165316 0.2866229950100111
2987656 -0.9558991775087398 0.28716328790704804
2988270 -0.9557238134995222 0.2865837801285432
2988884 -0.955156432802028 0.286253097546313
2989498 -0.9555780048990143 0.2869579223421888
2990112 -0.955499209046152 0.28675470537852193
2990726 -0.9554202848485022 0.28663623615500444
2991340 -0.9550721497470908 0.2871235515853585
2991953 -0.9552932486054619 0.28678280386297184
2992567 -0.9556967678023295 0.28649250241000646
2993181 -0.9553518134471719 0.2869674569805889
2993795 -0.9548187779082964 0.2868960405541417
2994409 -0.9560876076742564 0.2873487482197229
2995023 -0.9556207812695555 0.2878399663271271
2995637 -0.9554758389548789 0.28767794008217423
2996251 -0.9553118586582012 0.2875401571360235
2996864 -0.9550791959536732 0.28832938718102463
2997478 -0.9554281077707288 0.2875720948930539
2998092 -0.9552395138987579 0.287285291615541
2998706 -0.9552534554646774 0.28788824903050986
2999320 -0.9557009390729801 0.28763828304229866
2999934 -0.9545692166426646 0.2874662089729928
3000548 -0.9560750823941088 0.28819776037057515
3001161 -0.9560200733179338 0.28818262833565006
3001775 -0.9557985040043459 0.28818858801778785
3002389 -0.9560316421786528 0.28847268439918483
3003003 -0.955370266760774 0.2880549724006089
3003617 -0.9555026941026737 0.2882792200890409
3004231 -0.9552077434438528 0.2883008186875373
3004845 -0.9547975488777372 0.28853326434347254
3005459 -0.9555189217706437 0.28852691452684204
3006072 -0.9555484761589297 0.28872600016365907
3006686 -0.9546486889667196 0.28819344554718024
3007300 -0.95506035382998 0.2886776358349104
3007914 -0.9552378152928616 0.2885900607427747
3008528 -0.9547889768276913 0.2881964288430791
3009142 -0.9554520893494801 0.28918396819300574
3009756 -0.9552821963204323 0.28900219225684604
3010370 -0.9549065621941882 0.28858177200466634
3010983 -0.954967031983458 0.288685042612562
3011597 -0.9548279001059337 0.28888312624815266
3012211 -0.9547454286531729 0.288633950266286
3012825 -0.9550357913847338 0.2897131336259181
3013439 -0.9550295873881481 0.28944857571502336
3014053 -0.9551813698201895 0.28920722525896947
3014667 -0.9552907443475125 0.289721574201668
3015280 -0.954878490947287 0.2895888216531368
3015894 -0.9546599062448908 0.28899719502115917
3016508 -0.9553521136885554 0.2900291027746383
3017122 -0.9548530377463558 0.2896131418157305
3017736 -0.9548113159650741 0.2892697057367936
3018350 -0.9552360872506336 0.2898553931028614
3018964 -0.9548436978509087 0.28923387733755235
3019578 -0.9545063145887615 0.288824319174342
3020191 -0.9549302845718964 0.2898860095307669
3020805 -0.9548315341269933 0.28973487425911804
3021419 -0.954760023368778 0.28936066277398886
3022033 -0.9546156892690577 0.28993954416514206
3022647 -0.9547912433085668 0.2898838899667659
3023261 -0.9544519239645939 0.2895189886984276
3023875 -0.9550959272195485 0.2903190448535221
3024489 -0.9547612815698204 0.29016721676684654
3025102 -0.9542881629527402 0.28986958698895104
3025716 -0.9543954483257279 0.2905507808511019
3026330 -0.954480035243701 0.2902021151197319
3026944 -0.9543926151580054 0.29009676372372023
3027558 -0.9548173371977604 0.29064664381217264
3028172 -0.9546758766640295 0.2906157726808714
3028786 -0.9548032552025932 0.28999492157560064
3029400 -0.9548610148784714 0.2907564020234322
3029400 -0.9547433394239228 0.29080048621841803
3030026 -0.954392375657926 0.29056169883250715
3030653 -0.9547390545577505 0.2911880015867514
3031279 -0.9547098886288301 0.2909311728966707
3031906 -0.9537463341070813 0.29088972874137653
3032532 -0.9547958878761506 0.291478628407355
3033159 -0.9543657352583523 0.29136604827435064
3033785 -0.953646715615643 0.29075110201085164
3034412 -0.9545225180706366 0.29150073693844036
3035039 -0.9544301064660745 0.29133024136035146
3035665 -0.9542082485288981 0.291484730385788
3036292 -0.9545837581784993 0.29164918333043105
3036918 -0.9544415229182635 0.2918234895196838
3037545 -0.953923719245688 0.2912926366821322
3038171 -0.9541350494376089 0.29181334057819897
3038798 -0.9540885051982332 0.29197704260043467
3039424 -0.9536455115858918 0.29145286438552653
3040051 -0.9544523007609741 0.2921070470620287
3040678 -0.954489410925206 0.2920827438446575
3041304 -0.9539574492140451 0.29128699293388494
3041931 -0.9546483764023175 0.29205642367829754
3042557 -0.9546433241349725 0.292321681430475
3043184 -0.9542652785502362 0.29252210284122376
3043810 -0.9545982854101623 0.2925450443006461
3044437 -0.9540198639256695 0.2923347090955755
3045064 -0.9540924382357358 0.29213375696894167
3045690 -0.9544302487599485 0.29260742623666947
3046317 -0.9541518905238665 0.2926216512924848
3046943 -0.953797124280818 0.292053839351665
3047570 -0.9544828165352067 0.29234308988093893
3048196 -0.9545622428190922 0.29264566990387325
3048823 -0.9535592168251301 0.2920271881435046
3049449 -0.954523643338735 0.2925421484933988
3050076 -0.9544103045815409 0.29273755583390687
3050703 -0.9537437765619963 0.2925152841257128
3051329 -0.9544996458136578 0.2932327527328277
3051956 -0.9540922929875421 0.29295808899810427
3052582 -0.9536280372057598 0.29295269732055595
3053209 -0.9539599514246978 0.2932760051812534
3053835 -0.9538167593255004 0.2930595771285009
3054462 -0.9535364840945288 0.29321895128308323
3055088 -0.9543601491398668 0.2930906679514179
3055715 -0.9540771012655956 0.2930334844491097
3056342 -0.9534936741388783 0.2933601841941386
3056968 -0.954013652441284 0.29329003455669767
3057595 -0.9535725024620981 0.293751684693658
3058221 -0.9532921076389288 0.2933540552810341
3058848 -0.953668622556213 0.29404548792330065
3059474 -0.9533454766163834 0.29378403705532874
3060101 -0.9540321959530625 0.2938113494838639
3060728 -0.9538250152793971 0.29385782052787757
3061354 -0.9535186517727595 0.2934773509316407
3061981 -0.9535760050755819 0.29317683825490554
3062607 -0.9536437593037757 0.29425248864615783
3063234 -0.9535814856832634 0.29402420012532776
3063860 -0.9539584320153034 0.2944365588809906
3064487 -0.953747973267137 0.29426332599818616
3065113 -0.9533042861855312 0.29392625242393905
3065740 -0.9530011409866804 0.29369232324597166
3066367 -0.953520366731003 0.29435650010169545
3066993 -0.9533388905889233 0.2938540469869684
3067620 -0.9530687204807771 0.29303895814699804
3068246 -0.9530594640540762 0.29431054773187443
3068873 -0.953021039085742 0.29423014021769983
3069499 -0.9529051247367688 0.29400202840839335
3070126 -0.9534274485633945 0.29519604930816284
3070752 -0.953236221292525 0.2948041986891618
3071379 -0.9530773655246296 0.294217785974828
3072006 -0.9534687553204546 0.2945870291441578
3072632 -0.9535593174549292 0.29449221463601405
3073259 -0.9528952905637409 0.2940705410526473
3073885 -0.953429311005686 0.2946223583937812
3074512 -0.9532746832048381 0.29464960682312513
3075138 -0.9522580891635137 0.29411040314823506
3075765 -0.9528649666688467 0.2949909236726449
3076392 -0.9531205690934725 0.29520933725378334
3077018 -0.9529736228273229 0.295090343614211
3077645 -0.9536148041395491 0.2959465557798241
3078271 -0.9533208008488383 0.29618953576660006
3078898 -0.9529450485987897 0.2957633193888303
3079524 -0.9533167097878045 0.29563731626417034
3080151 -0.9527097221107446 0.29538979574023405
3080777 -0.9530066751199607 0.2954991212969195
3081404 -0.9532026025368538 0.2953970966702251
3082031 -0.9531127124858251 0.29538770270074766
3082657 -0.9528441280558637 0.2948804957228232
3083284 -0.9533315374016095 0.29540583080836463
3083910 -0.9525996726440285 0.2956603567707794
3084537 -0.9529862911221113 0.29573553362029564
3085163 -0.953070969637415 0.296097662274771
3085790 -0.9525063313734231 0.2959806717827652
3086416 -0.9523513950092172 0.29548416793149834
3087043 -0.9528582569589028 0.29611604857035495
3087670 -0.9521205495470147 0.2963282616832426
3088296 -0.9521853139729203 0.295787870575275
3088923 -0.9530834170692719 0.2962527942683459
3089549 -0.9528933515474964 0.2963437493247033
3090176 -0.9523858522553502 0.2957103888509211
3090802 -0.9528508285020865 0.29603318007416607
3091429 -0.9524503409491059 0.29616136655207714
3092056 -0.9527676451618657 0.2961524710485951
3092056 -0.9525287982911127 0.296311562987317
3092695 -0.9520938564060899 0.2962485190881796
3093335 -0.9530417055699516 0.29666577072876654
3093974 -0.9522675402477166 0.2964515582022889
3094614 -0.9515018409355462 0.29609593784971977
3095253 -0.9523782033134038 0.29705381584411095
3095893 -0.9523178053862654 0.29706590381038556
3096532 -0.9522225068555988 0.296777122866418
3097172 -0.9533005025061243 0.2971867195494051
3097811 -0.95281859210069 0.29729257516368285
3098451 -0.9522508803185291 0.29664480345942734
3099090 -0.9527163962847945 0.29727594499831095
3099730 -0.9526156897045593 0.2973845367014488
3100369 -0.9527981543680697 0.2967346155836416
3101009 -0.952614677035433 0.296594186327769
3101648 -0.9523340089473623 0.29691425842691554
3102288 -0.95213795149858 0.29707913864634855
3102927 -0.9522164523098822 0.2970370598155209
3103567 -0.9523520062002635 0.2978973072198043
3104206 -0.9519334455630506 0.29777687072461767
3104846 -0.9516853301723831 0.29740717229710995
3105485 -0.9522071194470114 0.29812967345299957
3106125 -0.9521760810746838 0.2981939598967323
3106764 -0.9522431586619472 0.2978611394998491
3107404 -0.9529467336690334 0.2983478660832544
3108044 -0.9525570306649129 0.29829966737678554
3108683 -0.9521774208765905 0.29760334950428785
3109323 -0.9523371122631351 0.2982220342710575
3109962 -0.9517667082062438 0.29819261566574196
3110602 -0.9518737546093254 0.29779349883978123
3111241 -0.9523768206975419 0.2983208394861886
3111881 -0.9524124655931128 0.29833948331716537
3112520 -0.9515595399276943 0.2982061738431377
3113160 -0.9523624012910049 0.29876946967675666
3113799 -0.9518818296531301 0.29921656799561525
3114439 -0.9518641093503737 0.2988564188458443
3115078 -0.9521386574109452 0.2989772806673512
3115718 -0.952283689353918 0.29918193152392747
3116357 -0.9518054834076229 0.2990740716259599
3116997 -0.9516572604571422 0.2986555895165183
3117636 -0.9523512860714002 0.29943783369281407
3118276 -0.9517296189137936 0.29921238759692237
3118915 -0.9515363589049034 0.2984997924342419
3119555 -0.9521933950227877 0.29880925573798006
3120194 -0.9521595420802461 0.2986080717024333
3120834 -0.9519050954850089 0.2989253365404568
3121473 -0.9520032044858413 0.29971224907938243
3122113 -0.9516426957361055 0.2999232372238046
3122752 -0.9512362132576668 0.2989086045076266
3123392 -0.9518856253819934 0.2993868067326253
3124032 -0.9521210125840144 0.299682842107027
3124671 -0.9513801769613471 0.299200136046408
3125311 -0.9519786876679208 0.29949965757660063
3125950 -0.9513966580767513 0.2997059881080417
3126590 -0.951715737130616 0.29890153565857114
3127229 -0.9517680650506297 0.2995420644006007
3127869 -0.9517592812186625 0.2994946137351918
3128508 -0.9514632593816874 0.2988391401359474
3129148 -0.9512764305637542 0.2994558933846618
3129787 -0.9516155005830486 0.3001611206062593
3130427 -0.9511066593509874 0.2995444700428943
3131066 -0.9516734810932523 0.3001203084892609
3131706 -0.9517936314252483 0.3005021068180076
3132345 -0.9515101186615209 0.3001709841896355
3132985 -0.9520427975309292 0.30046432370598997
3133624 -0.9518841505499298 0.30042234896430925
3134264 -0.9518823780899763 0.30030006317716307
3134903 -0.9519445798228412 0.30042435330588846
3135543 -0.9521606783178319 0.30046960792843336
3136182 -0.9516010983560433 0.30071682606579125
3136822 -0.9516755110122195 0.300141310025225
3137461 -0.9522554265967204 0.3010883714376765
3138101 -0.9515115569172554 0.30034313738413204
3138740 -0.9513130459593423 0.29983321780839567
3139380 -0.9516602795058243 0.3005320444598418
3140020 -0.9510890493616385 0.30106006289771114
3140659 -0.95088258284926 0.300489843920828
3141299 -0.951405232964032 0.3010851985352686
3141938 -0.9510763633222049 0.30099023588166735
3142578 -0.9507501025932689 0.3004392336625726
3143217 -0.9512845957279001 0.30091865702510784
3143857 -0.9514305408377711 0.30137884356188444
3144496 -0.9509441929179862 0.301354180948769
3145136 -0.9510801689025983 0.30102886190773265
3145775 -0.9516575388437363 0.30205948189003506
3146415 -0.9509632406706893 0.30129142376891505
3147054 -0.9505638862027199 0.30039842514044585
3147694 -0.951215618701762 0.3015681518033581
3148333 -0.9506232719914821 0.30116194131220236
3148973 -0.9497247262297982 0.3004117698377872
3149612 -0.9513002098031372 0.30202453054845857
3150252 -0.9503689267509576 0.3022869242637874
3150891 -0.950630275281106 0.3020237212215316
3151531 -0.951003282238797 0.302376519285238
3152170 -0.9509524520100369 0.30253201408017805
3152810 -0.9514587576889642 0.3014122135789304
3153449 -0.9516900217810853 0.3017353307261478
3154089 -0.9511654505833297 0.30191770303226334
3154728 -0.9510009578590763 0.3013014966530561
3155368 -0.9513624721298062 0.3019203396387698
3156008 -0.9509568572368725 0.30191312447588403
3156008 -0.9507234838020127 0.302371866899069
3156660 -0.9508251703451033 0.3022666900479119
3157313 -0.9503458359305077 0.301547489624274
3157966 -0.9505508227568458 0.3018017489591927
3158619 -0.9506436637264922 0.30306978265384665
3159271 -0.9503765853484122 0.30306478454477326
3159924 -0.9507366276449647 0.3026749763490159
3160577 -0.9510175605342813 0.3031488979483183
3161230 -0.9506565760763059 0.30302165373296175
3161882 -0.9506170346534166 0.3021944985233371
3162535 -0.9508924417551903 0.3025480748295333
3163188 -0.9510074318823929 0.3025523753358744
3163841 -0.9508974960032006 0.30248365285900736
3164493 -0.9508472559601833 0.3025378920933935
3165146 -0.9508397593217542 0.3030164142430274
3165799 -0.9500625446827385 0.3029041190095358
3166452 -0.9502202451045723 0.30283029665651406
3167104 -0.9507185109889543 0.3037018550519396
3167757 -0.9507017874448773 0.3038984104286818
3168410 -0.9505304528160111 0.30357902819713684
3169063 -0.9507959939514569 0.3035216462158107
3169715 -0.9506652267856633 0.3037660014345259
3170368 -0.9504494113463943 0.3036514670819601
3171021 -0.9504367030352245 0.3031398818656438
3171674 -0.9506455793407603 0.3042735992760926
3172326 -0.9501489900200425 0.30390228285887094
3172979 -0.950149694412075 0.3034091237678065
3173632 -0.9502765765350246 0.3042864149278821
3174285 -0.9503269494322079 0.3041002562460071
3174937 -0.9501014573271215 0.30381639474455685
3175590 -0.9504038476097412 0.303750689459683
3176243 -0.9509041475777288 0.30416391734373993
3176896 -0.9502160405779048 0.304750388361372
3177548 -0.9498058179547317 0.3044490639553095
3178201 -0.9503950262825303 0.30519540936337125
3178854 -0.9505174579700826 0.30490160428775476
3179507 -0.9500563375950789 0.3045056457889804
3180159 -0.9506803806225583 0.3047503899435048
3180812 -0.9502258274629867 0.3043816471343679
3181465 -0.9497907495730321 0.3044841843985248
3182118 -0.9502877353605932 0.3041807423119834
3182770 -0.9503084007430629 0.3050334056040718
3183423 -0.9498574682304103 0.3044890010499457
3184076 -0.9496430263519903 0.30400443051403114
3184729 -0.9502905991787055 0.30479509985715864
3185381 -0.9499252845311751 0.3051564209732923
3186034 -0.9497182812297574 0.30447498881878693
3186687 -0.9498130832683334 0.3049799584110077
3187340 -0.949826721982211 0.30477146102242525
3187992 -0.9496574983703856 0.3048112436550897
3188645 -0.9507878891543867 0.305519462607946
3189298 -0.9501967513127654 0.30584339041285297
3189951 -0.9498552800880038 0.30582519983851253
3190603 -0.9500298982961727 0.3052000920892196
3191256 -0.9498732622416607 0.305710689093056
3191909 -0.9494946221993668 0.3059113307816078
3192562 -0.9497061275033517 0.3055506114441576
3193214 -0.9489068965746758 0.3055587219940912
3193867 -0.9497121481892631 0.30523953242215707
3194520 -0.9498505900425085 0.3058384949956361
3195173 -0.9494061160513485 0.3057362197342993
3195825 -0.9491371345707865 0.3053464881277187
3196478 -0.9497568934582353 0.3063252532944174
3197131 -0.9494894863908175 0.3059162196997386
3197784 -0.9494603656555336 0.3053429673876046
3198436 -0.9502925118164165 0.30588495262809007
3199089 -0.9496759164699005 0.30610889297270555
3199742 -0.9497529191566694 0.306012134451217
3200395 -0.9500809167014056 0.30680384084998363
3201047 -0.9498253550350824 0.3069401847031702
3201700 -0.949504702000722 0.3067331312102111
3202353 -0.9497410518536109 0.3064178159124962
3203006 -0.949682346552108 0.3067476017218574
3203658 -0.9488344848086111 0.30657655599383593
3204311 -0.9494607568219465 0.30652172070061096
3204964 -0.9496435573272678 0.3072262058556877
3205617 -0.9488021134120369 0.3067425609993629
3206269 -0.9489353986472787 0.30612814454018705
3206922 -0.9502656794759717 0.3072594431375689
3207575 -0.9498333754392052 0.30749945341812057
3208228 -0.9498449191205323 0.3073255887760957
3208880 -0.9504314061351108 0.3072399281564206
3209533 -0.9496971610590601 0.30686347493155586
3210186 -0.9488605535445797 0.3071708161376456
3210839 -0.9493482832162774 0.30720181971904137
3211491 -0.9491341824200288 0.30771795243731986
3212144 -0.9483803461777248 0.30776362718733197
3212797 -0.9492533578945004 0.3073999195186549
3213450 -0.9491642148770265 0.30778346212489827
3214102 -0.9487211275284892 0.30772401614562483
3214755 -0.9482032450690344 0.30678062178119625
3215408 -0.9492027868121741 0.3076986006314829
3216061 -0.949312815183933 0.30791024886012336
3216713 -0.9491848909208623 0.307530012068033
3217366 -0.9495813544520676 0.30769777213656685
3218019 -0.9495475357962017 0.3081412284171703
3218672 -0.948493158544871 0.3083751948885003
3219324 -0.9491057194048842 0.3077135993360121
3219977 -0.9493879119256088 0.3083993764557577
3220630 -0.9489092669702678 0.30872290497848215
3221283 -0.9483717626673794 0.307917955610066
3221283 -0.9484969733506615 0.3085356824546663
3221949 -0.948489522868667 0.3080378616374454
3222615 -0.9492312253499184 0.30850218916980426
3223281 -0.9489694050547071 0.30847730295792597
3223947 -0.9487230809062771 0.30838361902338574
3224614 -0.9491397371839033 0.3082815130457844
3225280 -0.9485797966777519 0.3086267647750472
3225946 -0.9486325385574264 0.3085968712873482
3226612 -0.9484860290056512 0.3081762171502348
3227279 -0.9489503952491654 0.30890645644213305
3227945 -0.948763779120327 0.3087637515993352
3228611 -0.948551530193169 0.3086556946288801
3229277 -0.949063415478799 0.30890573534835897
3229944 -0.9485381402014438 0.3094782502687024
3230610 -0.9486199179154323 0.30910009806877464
3231276 -0.9482819082973182 0.3082824211090457
3231942 -0.9487661630797748 0.30885745227899175
3232609 -0.9488536583744149 0.3088202632941803
3233275 -0.9483749554379666 0.3094783412029649
3233941 -0.9481867620207531 0.3092127572527158
3234607 -0.9487575624826275 0.30984841554518655
3235274 -0.9479038337015379 0.3099195854972908
3235940 -0.9481027262150005 0.30921332313784283
3236606 -0.9482932072249471 0.30972743570256006
3237272 -0.9484248779855547 0.3099491160349903
3237939 -0.9480941172612116 0.3098137558289689
3238605 -0.9485899005209344 0.3098317465364589
3239271 -0.9484906845106676 0.3100036391848302
3239937 -0.947885561903122 0.310232533667037
3240603 -0.9479279547817931 0.3100061957683739
3241270 -0.94817866295664 0.3105486408902369
3241936 -0.9486840683226738 0.3104043052661298
3242602 -0.9480538013877597 0.3099639930120332
3243268 -0.9483885266050006 0.30992442518235197
3243935 -0.9482737259947465 0.31075815049630245
3244601 -0.9479832272493187 0.31066370994154724
3245267 -0.9478908873798865 0.3101973796169399
3245933 -0.9482476562413923 0.3110664360529632
3246600 -0.9484571132271322 0.3105633956507302
3247266 -0.9474546163460832 0.31044218044195426
3247932 -0.9479050151016856 0.31069854149453463
3248598 -0.9481333446480059 0.3111199477127095
3249265 -0.9478611639308977 0.3109363105203715
3249931 -0.9480202509408875 0.3099400405277568
3250597 -0.9484017629576251 0.31054262538868344
3251263 -0.9485079689372693 0.3114800616713572
3251930 -0.9479297156458063 0.3112171271302237
3252596 -0.9488722053827899 0.31146823518697303
3253262 -0.9486805599514673 0.31143853479188016
3253928 -0.9488660813911303 0.31107144040003765
3254595 -0.9482952812846467 0.31097845273978186
3255261 -0.9474867774493683 0.3112092128287079
3255927 -0.9478433344306076 0.3110052867092656
3256593 -0.9484154669336999 0.31172580132491967
3257259 -0.9473617424136817 0.3116376638882423
3257926 -0.947065989079875 0.3110978346725903
3258592 -0.9481647767685533 0.3113875328821374
3259258 -0.9480617504659159 0.3116406619604538
3259924 -0.9479219183453683 0.3113614465011305
3260591 -0.9484106587887156 0.3113533922603957
3261257 -0.9486171424408786 0.3119331699657595
3261923 -0.9476552474802674 0.31208217914324676
3262589 -0.9473280646188923 0.31170213263133
3263256 -0.947907104565502 0.31292153872636674
3263922 -0.9480058378816898 0.3128064252028078
3264588 -0.9474678497012647 0.3123819891582552
3265254 -0.9478600389770101 0.31236247946488854
3265921 -0.9475235500173347 0.31266051074399054
3266587 -0.9471809998219172 0.3121519593004322
3267253 -0.9472704853324925 0.31204178536217764
3267919 -0.9479880960067127 0.31277466565959183
3268586 -0.9477476553561325 0.3125053913304544
3269252 -0.9470176505490333 0.3123642706013248
3269918 -0.9475096678963465 0.3122501896038823
3270584 -0.947144532821116 0.3126787811954452
3271251 -0.94705131224821 0.31277685559776136
3271917 -0.946842121579182 0.3119077957430509
3272583 -0.947996380384759 0.3125064887846981
3273249 -0.947871655743852 0.31322322265502295
3273915 -0.9469116468660724 0.3130102557657269
3274582 -0.9476707022041992 0.3135619345500438
3275248 -0.9475016102786669 0.31359780266167375
3275914 -0.947123200233833 0.31362808633248973
3276580 -0.947689333059744 0.31286322129318306
3277247 -0.9482147832906759 0.31353958506191754
3277913 -0.9476674998204475 0.31374627754303325
3278579 -0.946680545023104 0.3134975225159846
3279245 -0.9475588346086105 0.3136031207214839
3279912 -0.9473708289522098 0.31369634810383135
3280578 -0.9468317865008264 0.3135623076733834
3281244 -0.9470329138670759 0.3132844460654515
3281910 -0.9474338867914016 0.3137545168940709
3282577 -0.9477281173239791 0.31399046217711707
3283243 -0.947483243847116 0.31375671072006234
3283909 -0.9480740359213934 0.31387967257774624
3284575 -0.9477007881692717 0.3142384156944661
3285242 -0.9469570286420035 0.3142508242283442
3285908 -0.9468598031756911 0.3139166473997511
3286574 -0.947848390820201 0.3145067632464435
3287240 -0.9473295502828512 0.3146854393843498
3287907 -0.9464381503580146 0.31397379513468693
3287907 -0.9474539921731027 0.31453055389686563
3288587 -0.9473832166510796 0.3142629297198176
3289267 -0.9468673455519756 0.3140012746003022
3289947 -0.9465644655232895 0.313845011425099
3290627 -0.947069975990403 0.31448174994139905
3291307 -0.9464945644933622 0.3147153877051857
3291987 -0.946228511927938 0.3140734611415946
3292667 -0.9472758309026922 0.31472459069308795
3293347 -0.9471545889964094 0.31512086303131626
3294027 -0.946812933707128 0.3148910771684848
3294707 -0.9466376853803098 0.31403460153209933
3295387 -0.947314084432859 0.3154462413689103
3296067 -0.9470986170095906 0.315172151380236
3296747 -0.9469324189761402 0.31552212081132786
3297427 -0.9473081009288259 0.31509024325894913
3298107 -0.9465656012076097 0.31551766497914924
3298787 -0.9460970336810854 0.3156829250000625
3299467 -0.9458993533867465 0.31489209983862276
3300147 -0.9473829835044637 0.3156165935010843
3300827 -0.9456952308758911 0.315151042816263
3301507 -0.9456233289874073 0.3151534855984121
3302187 -0.9455764105959437 0.31464631869853377
3302867 -0.9466028900368914 0.3157927293827336
3303547 -0.946600573742776 0.3159991284843977
3304227 -0.9458620855443487 0.3154145705654569
3304907 -0.9469218404257631 0.31528062722638667
3305587 -0.9468662970267447 0.31597136031627976
3306267 -0.9466589770554432 0.31611466376538117
3306947 -0.9464578930534314 0.3158583303046992
3307627 -0.946895742178867 0.3163702064955452
3308307 -0.9467716020906376 0.31619626715947385
3308987 -0.9460566824417794 0.31638206604104335
3309667 -0.9460155119252068 0.3157523600162163
3310347 -0.9467439992281589 0.31708973059793133
3311028 -0.946566270700288 0.316765333808703
3311708 -0.9462019410286304 0.31616847696355516
3312388 -0.94647971145925 0.31618171904560616
3313068 -0.9459575143198323 0.3166063053088452
3313748 -0.9456709510780787 0.31639228521834284
3314428 -0.9456706918696334 0.3165834187253084
3315108 -0.9463841666805065 0.31732467792333635
3315788 -0.9466326575607447 0.3171348209704715
3316468 -0.9461604833727904 0.3167111299884244
3317148 -0.9463741763862797 0.31602111720987597
3317828 -0.9462456681724414 0.31712535429718486
3318508 -0.9461828550289121 0.31739160429503543
3319188 -0.9454820573932136 0.31692068944179286
3319868 -0.9459968429963652 0.31714230089996254
3320548 -0.945931854755376 0.3173525729357743
3321228 -0.9460743096005958 0.31746837226839236
3321908 -0.9456809358307194 0.31775500800842643
3322588 -0.9453306282078116 0.31708155533855464
3323268 -0.946399785082157 0.3178502486317165
3323948 -0.9457707618105309 0.31773183344593675
3324628 -0.9453816442340381 0.3176391328607109
3325308 -0.9453739560325889 0.3171480328532442
3325988 -0.9462534185603806 0.31857768810600223
3326668 -0.9456629854193301 0.31846865191880847
3327348 -0.9450542301146604 0.31806159708745413
3328028 -0.9457741711393355 0.31760859870306807
3328708 -0.9455568526081304 0.3180332224709639
3329388 -0.9457389561965961 0.31842817315138994
3330068 -0.9450302364789939 0.3179895671876469
3330748 -0.9460416026084707 0.31794874340041607
3331428 -0.9458620849736397 0.318429840231327
3332108 -0.9456453555672899 0.3188400205456033
3332788 -0.9455427665086749 0.3181339699508811
3333469 -0.9458081649607221 0.3183907625062195
3334149 -0.9459535993441524 0.3187844709396489
3334829 -0.9451312239096045 0.3184944376537152
3335509 -0.9453257079795967 0.31841612358653626
3336189 -0.9462542994736394 0.31878273243711086
3336869 -0.9460612172699743 0.318906507739572
3337549 -0.9454055359092124 0.31878633309979887
3338229 -0.9457014243491867 0.3187917071985915
3338909 -0.9462328529277765 0.3193862987018419
3339589 -0.9454640162880015 0.319653420549319
3340269 -0.9446256007116148 0.3188976709335296
3340949 -0.9455837067650988 0.3186520806358834
3341629 -0.9454209260798413 0.31960475572669866
3342309 -0.944805410276751 0.3192211917259827
3342989 -0.9452370571752438 0.31941095545577686
3343669 -0.9460314531323559 0.31960320179537605
3344349 -0.9458059994267087 0.3200319284844076
3345029 -0.9452147959368472 0.3199499009579925
3345709 -0.9447332762763309 0.3191340061765765
3346389 -0.9456466439140878 0.31965971193614273
3347069 -0.9456082929799138 0.31979241569099726
3347749 -0.9448979591278092 0.31986280527718214
3348429 -0.9452087465791731 0.3196380540371115
3349109 -0.9456271702956285 0.32077759595017524
3349789 -0.9454814906113371 0.32056895741818275
3350469 -0.9445074922159294 0.3202209430567131
3351149 -0.9452892106640921 0.31979531491895813
3351829 -0.9456408209657037 0.32080518154954274
3352509 -0.9452636850909935 0.32051415262619276
3353189 -0.9445914901401239 0.3199061648999155
3353869 -0.9453589877894367 0.3200506140085976
3354549 -0.9452527027682359 0.32070151966984584
3355229 -0.9446518231816647 0.32109819493820874
3355910 -0.9445937761977269 0.3205250410923662
3355910 -0.945192328525398 0.32031890485191516
3356604 -0.9452915301001964 0.32144535251458606
3357298 -0.9448974569468602 0.3205174641581093
3357992 -0.9440929186181887 0.32091051277015226
3358686 -0.9453276118519628 0.3207288908621033
3359380 -0.9449198311296395 0.32174997857890014
3360074 -0.9444638511254404 0.32162724011928806
3360768 -0.9443588476545116 0.32109909139035714
3361462 -0.9447969995751218 0.32142023682044507
3362156 -0.9446156065422924 0.3217887804303108
3362851 -0.9441282460455598 0.3213643428606261
3363545 -0.9441822958467183 0.3211425052734733
3364239 -0.9448066280130227 0.3211922004425956
3364933 -0.9444882735147665 0.321578819812282
3365627 -0.9441823887973863 0.3219428866508761
3366321 -0.9440384183492269 0.3217098033133729
3367015 -0.9448306769926512 0.32214627980704746
3367709 -0.9444317544951674 0.32218641620362515
3368403 -0.9438162222262759 0.32197610779656904
3369097 -0.9433344217623825 0.3215298507536895
3369792 -0.9443314648390372 0.32215395909038264
3370486 -0.9438357753063659 0.3221984600557117
3371180 -0.9430834323751611 0.3222733491401521
3371874 -0.9434332931673814 0.32182603916008506
3372568 -0.9442571575237901 0.32327064729164207
3373262 -0.9437057489232602 0.3232409140376617
3373956 -0.9432781167932741 0.3225893817376582
3374650 -0.9437566121465906 0.3224891419102158
3375344 -0.9439221795623568 0.32313138837586797
3376038 -0.9436634557620852 0.32308735168142155
3376733 -0.9427009033582565 0.3225948543784345
3377427 -0.9436578439668908 0.32264950526115277
3378121 -0.9437885940383023 0.3235172178268197
3378815 -0.9435154653198391 0.3234449336071202
3379509 -0.943246500541741 0.32322197046346846
3380203 -0.9439685198126564 0.3229214974387705
3380897 -0.9438660110176182 0.32345368443938216
3381591 -0.9431980126976226 0.32325127921380603
3382285 -0.943096617301006 0.32262730831752967
3382979 -0.9437066858276187 0.32274506547128556
3383674 -0.9438159886115496 0.32359108637149087
3384368 -0.9432985717169144 0.32349156260595724
3385062 -0.942650729247584 0.32262725766296424
3385756 -0.943014591327917 0.32298074563656803
3386450 -0.9430351740860242 0.32301634060682216
3387144 -0.9428496081254722 0.3232027816122941
3387838 -0.9430437609082325 0.3224909992618576
3388532 -0.9443009762133334 0.3232947639283935
3389226 -0.9435973085573656 0.32366217242223017
3389920 -0.9431425158008084 0.32326671563144543
3390615 -0.9432989079384861 0.32325248703213344
3391309 -0.9439411242233577 0.32383224789135345
3392003 -0.9434437453940231 0.3235018287820993
3392697 -0.9427466094058748 0.3232056274915147
3393391 -0.9436476201537635 0.32434428189951103
3394085 -0.9429584777138741 0.32378677272900913
3394779 -0.9438834110776153 0.32378097872484224
3395473 -0.9441460912733539 0.32437381138703497
3396167 -0.9435847906389394 0.3240790897421798
3396861 -0.9425246082643752 0.3235772291561268
3397556 -0.9437436934219368 0.3237476484656186
3398250 -0.9441029116272012 0.3245626275692691
3398944 -0.9433030805328055 0.3243672895962529
3399638 -0.9429228922824638 0.32418510119626953
3400332 -0.9435077012173659 0.3240059941275155
3401026 -0.9435684148993779 0.32470879696396676
3401720 -0.942972893779515 0.32411537543348573
3402414 -0.9427559302672368 0.3242034371911814
3403108 -0.9437406211789247 0.324239449136002
3403802 -0.9437668977690961 0.32490424412106805
3404497 -0.9429531665292064 0.32556284219951565
3405191 -0.9427298626074266 0.324519898587259
3405885 -0.9437416097071668 0.3248952688926064
3406579 -0.943750609958265 0.3247410934993783
3407273 -0.942825084670687 0.3246700611137633
3407967 -0.9425080116506757 0.3242880105856573
3408661 -0.9435706066982652 0.3253324174658869
3409355 -0.9431036974442155 0.325475154597379
3410049 -0.9427880245214975 0.32511232624766273
3410743 -0.9426470754286459 0.32476204509474116
3411438 -0.9434034717345279 0.3256691597855624
3412132 -0.9432332133644362 0.32551981284201265
3412826 -0.9428042488920082 0.32546699354362724
3413520 -0.9432895211680803 0.3253868031692205
3414214 -0.9440171124472331 0.326044308268231
3414908 -0.9432087814946586 0.32587350324792647
3415602 -0.9422218433061476 0.32550024042744324
3416296 -0.9428054474348986 0.32538611335362394
3416990 -0.9429558260032731 0.32608659098701076
3417684 -0.9427658933707612 0.3260278290451479
3418379 -0.9429069401368896 0.32610554070773023
3419073 -0.942670297897411 0.32556322921737707
3419767 -0.9430474378064648 0.32630775664919964
3420461 -0.9427622580291655 0.3263958884440048
3421155 -0.9429884995578822 0.3261346759869041
3421849 -0.9429049352574806 0.3261796185976009
3422543 -0.9425621153819399 0.3259760296016178
3423237 -0.9427680624774295 0.32671732921484586
3423931 -0.9416993142694098 0.32640833222939725
3424625 -0.9432802332871543 0.3266918130345353
3425320 -0.9430423937448588 0.3269205729126253
3425320 -0.9419139314142542 0.32700633324599493
3426028 -0.9427222079533444 0.3269372242188288
3426736 -0.94338900694538 0.3274501569357157
3427445 -0.9427657775133872 0.32710032070256445
3428153 -0.9421600144616873 0.32617756452112084
3428862 -0.9423712926741084 0.3261695406244982
3429570 -0.9432083961929516 0.32714411143188493
3430279 -0.9426313378338682 0.32762344801948473
3430987 -0.9420495594583668 0.327460286811768
3431695 -0.9424777198144534 0.32717048720892533
3432404 -0.9430641767346254 0.32768150691562675
3433112 -0.942290800866406 0.3274309472245
3433821 -0.9416942691557513 0.32752969693071754
3434529 -0.9416572684117427 0.3267741427137002
3435238 -0.9425395620643816 0.3275250232711611
3435946 -0.9423770839837985 0.3274975626264277
3436655 -0.9422923822761471 0.3278727624108048
3437363 -0.9415456132757084 0.32722332707203444
3438071 -0.9426268118221749 0.32765692668600266
3438780 -0.9428337036429095 0.32797912478141056
3439488 -0.9423052785516404 0.32801070297970997
3440197 -0.9418740108746805 0.3272032489152822
3440905 -0.9430036086500159 0.32798578326619265
3441614 -0.942892453506663 0.32850524821109767
3442322 -0.9424660153316756 0.3289872173448624
3443031 -0.9422802767098661 0.32864557954631657
3443739 -0.9423326892119046 0.32863398524963977
3444447 -0.9428813984280193 0.32860309873139554
3445156 -0.9419281939734028 0.32815907247285575
3445864 -0.942065812934037 0.327956339778177
3446573 -0.9419624489024307 0.32802134462580806
3447281 -0.9419962706495656 0.32848462154695546
3447990 -0.9417127622123966 0.3284532626241014
3448698 -0.9418074499872245 0.32807953263629164
3449406 -0.9415262586143835 0.3280095793111028
3450115 -0.9415080727394645 0.3283039617160165
3450823 -0.9412114432457797 0.32859319487331295
3451532 -0.9411207081917891 0.32838706014602415
3452240 -0.9417850489421248 0.3287127671725122
3452949 -0.9413816305312909 0.32904243328779437
3453657 -0.9417200760580323 0.32936994174039785
3454366 -0.9410654147887603 0.3292612072435761
3455074 -0.9411240041738123 0.32915499924078484
3455782 -0.9416275208301255 0.3289249070170722
3456491 -0.9420384721952905 0.32984937751577154
3457199 -0.9419213253828922 0.33034710192067374
3457908 -0.94184230607939 0.3294605292124237
3458616 -0.9422897049909161 0.3297829855717298
3459325 -0.941759166063721 0.33013744477802903
3460033 -0.9411974964378227 0.32994512389655806
3460742 -0.9411257606088889 0.3293125120701984
3461450 -0.9419772584836031 0.32960537258774364
3462158 -0.9423876822388487 0.33010917350935437
3462867 -0.9420741999310847 0.33011652506713773
3463575 -0.9423161851250463 0.32991664035838036
3464284 -0.9416832608419826 0.33028417320205616
3464992 -0.9417478849282556 0.3303700840130479
3465701 -0.9415336264027849 0.3299786119746081
3466409 -0.9419509851130277 0.33028376537856535
3467117 -0.9413725465272391 0.32997368795003934
3467826 -0.9410896151936358 0.3308098640911452
3468534 -0.9416875308621399 0.3303971687763737
3469243 -0.9411339862547261 0.3313345567144462
3469951 -0.9415303474371643 0.3308626552789901
3470660 -0.9413593941983522 0.3307407343556785
3471368 -0.9406562629277291 0.33006053845198435
3472077 -0.9413802592506402 0.3301379801050637
3472785 -0.9418662568721334 0.3308547837376891
3473493 -0.9415442808735338 0.3318422431619583
3474202 -0.9404286426416967 0.33094557291384524
3474910 -0.9414698305868466 0.3310607000192793
3475619 -0.9412811338990168 0.33117865037955796
3476327 -0.9410532089781711 0.33190452396126974
3477036 -0.9400069264486155 0.33074681475320516
3477744 -0.9418836964319433 0.3313854265564943
3478453 -0.9416908337246963 0.3312109584367738
3479161 -0.9412570552777877 0.33180801891067124
3479869 -0.9406953723038161 0.3316623172002024
3480578 -0.9411960863521266 0.3317191055990834
3481286 -0.9414916637906234 0.33209872701895354
3481995 -0.9411520213511587 0.3321044578266315
3482703 -0.940336940763085 0.3315448153788869
3483412 -0.9404275994074319 0.3311731715257982
3484120 -0.9411853186601344 0.3319299590717024
3484828 -0.9413104980063343 0.33237337059484956
3485537 -0.9404290318884267 0.3320575762994363
3486245 -0.9405530482393817 0.33212805636719545
3486954 -0.9416148049573027 0.33254115306126214
3487662 -0.9414877742956381 0.3329480614546428
3488371 -0.9407860861310748 0.33177233905041165
3489079 -0.9404852216874372 0.33252023423416
3489788 -0.9412261832127131 0.3325241370411242
3490496 -0.9411916314510901 0.33375822358626267
3491204 -0.9406578475287363 0.33334137191062363
3491913 -0.9400066697709055 0.3327360433811936
3492621 -0.9406200261795307 0.33281183263815906
3493330 -0.9408862423867768 0.33332453852077604
3494038 -0.9402894037760272 0.33315920720293307
3494747 -0.9392625366554024 0.33274764095169385
3495455 -0.9406557744802941 0.33334099690933916
3496164 -0.9409987990809945 0.3336622397816547
3496164 -0.9410098122227403 0.33342924242695626
3496887 -0.9407400904614864 0.333283192678916
3497610 -0.9401003995225482 0.33306765555461537
3498333 -0.940149781421848 0.3327264234906563
3499056 -0.9403531974645043 0.33333909644789267
3499779 -0.9409286300250904 0.3334551523317369
3500502 -0.9414082741453826 0.33392600560588664
3501225 -0.9404773766461452 0.3336966134885617
3501948 -0.939642329906523 0.3333318745566003
3502671 -0.9403593847634115 0.33399821991320766
3503395 -0.9406947958045788 0.33410601314846317
3504118 -0.9401811891831174 0.33360593618520806
3504841 -0.939328741199769 0.33329238591215277
3505564 -0.9397134244908445 0.3334544806271324
3506287 -0.9402531561198244 0.3338370118556382
3507010 -0.9398975795548027 0.33428797628983453
3507733 -0.9396444648791048 0.33434768284850386
3508456 -0.9394998178958704 0.33373656481982755
3509179 -0.9397854895363114 0.33394074609274726
3509903 -0.9406002139900271 0.33443714235450145
3510626 -0.9396635642374364 0.33460022626332575
3511349 -0.9398412575476435 0.33492469578621437
3512072 -0.9398777960232412 0.33497494879391837
3512795 -0.9404145413463358 0.3351888009523998
3513518 -0.9402917292494927 0.33507035635202975
3514241 -0.9395682395791688 0.3346799777213771
3514964 -0.939008432055574 0.33407732798400325
3515687 -0.9399505170076861 0.3346641638640271
3516411 -0.940437129595185 0.33495968977556945
3517134 -0.9403693949157218 0.33506473010765087
3517857 -0.939748370660833 0.33495649021438123
3518580 -0.939996534361971 0.3352512040610787
3519303 -0.9403651475842563 0.33532544140677795
3520026 -0.9398477179937679 0.3354022238331134
3520749 -0.9395018287355029 0.33518998255466975
3521472 -0.9390653519215199 0.3345661842550175
3522195 -0.9397045567982693 0.33492197345152697
3522919 -0.9398397154571412 0.335039344576236
3523642 -0.9397844005324514 0.33563412189021746
3524365 -0.9392255622621208 0.33611947307375
3525088 -0.9395833543954888 0.3358175748091731
3525811 -0.9394639640560609 0.3358208750928486
3526534 -0.9401026606078486 0.3359182205558497
3527257 -0.9391791840684581 0.3355827721836289
3527980 -0.9386970430803308 0.3353728269669892
3528703 -0.9395232402219114 0.33598527653929827
3529427 -0.9398048003331474 0.3361348962377836
3530150 -0.9388162568923182 0.3357513419876546
3530873 -0.9394069711515446 0.3361079016224337
3531596 -0.9399962817536736 0.3366955377461958
3532319 -0.9396300872793882 0.3372344945117978
3533042 -0.939102879311375 0.33639953938694267
3533765 -0.9385887610078668 0.33623820803106247
3534488 -0.9397059387407876 0.3362671123448118
3535211 -0.9397813069084393 0.33712004789892314
3535935 -0.939291628206207 0.3372293777306074
3536658 -0.9386643711103075 0.3370586971988137
3537381 -0.9396526831411653 0.33695048649020437
3538104 -0.9393614213737007 0.33694292422996364
3538827 -0.9387359430773614 0.33693893823035037
3539550 -0.9382329612457028 0.3370101439283325
3540273 -0.9392438177292517 0.33706323328802695
3540996 -0.9398878884433428 0.33734174430358477
3541719 -0.9397500870756458 0.33731432532968897
3542443 -0.9392182331252747 0.33696021259396075
3543166 -0.9382146553164172 0.33685963876614866
3543889 -0.9390275624157741 0.33717082484083116
3544612 -0.9389764251367072 0.33737046296820294
3545335 -0.9387051093177949 0.3371809358573038
3546058 -0.938074249545624 0.3369233209938152
3546781 -0.9386089196862829 0.33708467430949746
3547504 -0.9390994055329654 0.3375532899958913
3548227 -0.9385697515047309 0.33801612238714696
3548951 -0.937975479872157 0.3377446328797094
3549674 -0.9385249270712149 0.3379119739292005
3550397 -0.9387439502649761 0.3378639350445766
3551120 -0.9389212359545269 0.3384094259843964
3551843 -0.9384834584189856 0.338619972832147
3552566 -0.9376277115273951 0.3384985437617221
3553289 -0.9383995616687082 0.33861398803478343
3554012 -0.9383950698244166 0.3384971076677868
3554735 -0.9384898435777644 0.3382992116969632
3555459 -0.9383515859680744 0.3381395389201945
3556182 -0.9386236821120019 0.3381326693842579
3556905 -0.9389115780936469 0.3385256585098054
3557628 -0.9386747763327128 0.3389839746479009
3558351 -0.9377860485622199 0.3386770019557572
3559074 -0.9382856371948909 0.33875210981391396
3559797 -0.9379948187140759 0.3388832411709935
3560520 -0.9386504316634483 0.33889419263109405
3561243 -0.9380907720296847 0.3386391974364506
3561967 -0.9376516354495834 0.338574845305066
3562690 -0.9385422004372044 0.338925348976045
3563413 -0.9391743724357472 0.33935751873567976
3564136 -0.9387048419351248 0.3394750822018053
3564859 -0.9385462637641586 0.3395666049557092
3565582 -0.9384927332097467 0.33962380988682006
3566305 -0.9388679151021889 0.33946114810336964
3567028 -0.9385890045172648 0.3398787314093923
3567751 -0.9371956463524808 0.3394245268379938
3568475 -0.9377378277184052 0.3392335561641706
3568475 -0.9378640899630135 0.33958060652371025
3569213 -0.9379428573926555 0.33995115795380454
3569951 -0.9378803905128318 0.3394825507789123
3570689 -0.9383703142467122 0.3399349120616634
3571427 -0.938236043379113 0.33983158927415397
3572165 -0.9378961907960996 0.34022563999594513
3572903 -0.9374694820306763 0.34034238347165346
3573641 -0.9378106128781498 0.33994545024657286
3574379 -0.9385835177122764 0.34050562137943763
3575117 -0.9388278696262451 0.3403491760863379
3575855 -0.9383525969240532 0.3405361623262952
3576593 -0.9379165724724063 0.3403960137140904
3577331 -0.9380367787236864 0.34042901772889916
3578069 -0.9383620915419807 0.34069711735921476
3578807 -0.9379282931036959 0.3407572728939549
3579545 -0.9372135128047773 0.3406382890925743
3580283 -0.9370624377194872 0.34116485593273205
3581021 -0.9376960422766133 0.34094859430969693
3581759 -0.9382847587777873 0.3410361196092365
3582497 -0.9378994782441586 0.3414880923334498
3583236 -0.9371499816594006 0.3410654651245074
3583974 -0.9364882079245518 0.34062787745912454
3584712 -0.9373035837886963 0.34124513582003935
3585450 -0.937897882200971 0.340913085533725
3586188 -0.937894145775566 0.34140310027688836
3586926 -0.9373364704500734 0.3414519437667507
3587664 -0.9373045722752125 0.34153131426840305
3588402 -0.937488698389839 0.34158107063948323
3589140 -0.9380859437217957 0.3414264959451219
3589878 -0.937535374026285 0.34179936349018164
3590616 -0.9375650396120464 0.34145774168599
3591354 -0.9376007573128982 0.34169345625093256
3592092 -0.9375855233739325 0.342177694564944
3592830 -0.9374528058309025 0.34258528994834075
3593568 -0.936423430599342 0.34279158079330535
3594306 -0.9365292497252111 0.34270998840964695
3595044 -0.9365779357404366 0.34229093990725046
3595782 -0.9368139333813316 0.34209113313006523
3596520 -0.9367667937648712 0.34265099282617273
3597258 -0.9365353398485884 0.34194442234818423
3597997 -0.936577460447278 0.34185062440519637
3598735 -0.9370054368772521 0.34219401072080313
3599473 -0.9374947692134992 0.3425094807876107
3600211 -0.9370782690137465 0.34279603365770744
3600949 -0.9362044845254224 0.3425884132516006
3601687 -0.9364957241014765 0.34237616746120264
3602425 -0.9371068677039184 0.34291502635026544
3603163 -0.937312369227277 0.3431130782750979
3603901 -0.9372961793601923 0.3437994903093512
3604639 -0.9372185022124863 0.34383369195308067
3605377 -0.9368447411333848 0.34357584146097625
3606115 -0.9366213217931337 0.3442651439635991
3606853 -0.9374452791752502 0.34401797844537474
3607591 -0.9366168821798153 0.3439141677643649
3608329 -0.9358460844399387 0.34277805939461453
3609067 -0.9370417779263034 0.3429996840800729
3609805 -0.9371735302894291 0.343329694214425
3610543 -0.9366621483199838 0.34366078296898145
3611281 -0.9364003370541393 0.3436192962658285
3612019 -0.9363891930263717 0.3433564303840992
3612758 -0.9368681594583389 0.3435498748492309
3613496 -0.9373603312277012 0.34336234734744764
3614234 -0.9367523240962098 0.344395497257334
3614972 -0.9362487539529204 0.3439811633466296
3615710 -0.9366141023208775 0.3437376004927179
3616448 -0.9365110512567892 0.3441775137889675
3617186 -0.9368008411824054 0.34427125427303495
3617924 -0.9363884565564272 0.344608930342519
3618662 -0.9355572980450186 0.3440706613319541
3619400 -0.9358450846969968 0.34425373139030363
3620138 -0.9367637513409259 0.3438384524522811
3620876 -0.9366745190314968 0.34448718354781044
3621614 -0.9364353037804236 0.3449081068119997
3622352 -0.9360586269087361 0.3451675376520973
3623090 -0.9362806642890773 0.3449388183580176
3623828 -0.9368933933946089 0.34454070994404945
3624566 -0.9363126958419222 0.34522968902994294
3625304 -0.9354461631376356 0.3446533449526079
3626042 -0.9360263992054874 0.34488606006095207
3626780 -0.9365725037777035 0.3451355466089038
3627519 -0.9371286621381258 0.34498263825108794
3628257 -0.9364997820815759 0.34561252984587215
3628995 -0.9358458502828382 0.3452483608075713
3629733 -0.9358828228829468 0.3453926265741126
3630471 -0.9363456809252864 0.34552166382028
3631209 -0.9363466481500022 0.3454633248719105
3631947 -0.9359407915536926 0.3450856301170508
3632685 -0.9352676684767617 0.34558898593221454
3633423 -0.9355140360199077 0.34622108165929144
3634161 -0.9359353519338114 0.34599880885285844
3634899 -0.9360000343373825 0.34615722788317344
3635637 -0.9353129932345561 0.3464775998744512
3636375 -0.9354721182409823 0.34604926696628974
3637113 -0.9360074369132645 0.3463824172306852
3637851 -0.9367063376551826 0.34629321246812617
3638589 -0.9364145910372768 0.34697275939922084
3639327 -0.9357503394815369 0.3465298666965809
3640065 -0.935892285280677 0.34654847465420235
3640803 -0.9363815823641184 0.34701804526933583
3641541 -0.9368088824383208 0.3467155718789459
3642280 -0.936160614785481 0.3468926636932036
3642280 -0.935803709838866 0.3463704844579818
3643033 -0.9354350687200537 0.347081968189292
3643786 -0.9353566431613664 0.3467968455589731
3644539 -0.9353266137447179 0.3470442460723417
3645293 -0.935882190440765 0.34699730866795336
3646046 -0.9354484339496782 0.3471387362625215
3646799 -0.9342450132998302 0.34652953225849814
3647553 -0.9349651728165489 0.3467811942373385
3648306 -0.9354653555915448 0.347281526896207
3649059 -0.9361809013929079 0.34681002171490055
3649813 -0.9356149115115537 0.34757460773455223
3650566 -0.935027777514785 0.3473604793890289
3651319 -0.9348214563364371 0.3475314584080387
3652073 -0.9353386145858592 0.3476504280026865
3652826 -0.935915176055163 0.34750248767945174
3653579 -0.9351637436970845 0.34770343490093525
3654333 -0.9349303403416824 0.34773828054934214
3655086 -0.9346500909926283 0.34759465661472316
3655839 -0.9351026680121951 0.3480145282367317
3656593 -0.9350935683291705 0.3473059663896004
3657346 -0.9353130471827679 0.3478258763769736
3658099 -0.9345086790013817 0.34752936159592945
3658853 -0.9349819034688781 0.34812847344382036
3659606 -0.9356717700989687 0.3481814513387722
3660359 -0.9355097014485168 0.3480663704228449
3661113 -0.9356980347082173 0.34847531435934065
3661866 -0.9344244842328965 0.3484918466621888
3662619 -0.9342433626064491 0.3485077229610037
3663372 -0.9348067411244404 0.3485014310672755
3664126 -0.9348245926325589 0.3483824038680323
3664879 -0.9348976318614688 0.3480158440072242
3665632 -0.934535172495537 0.34828733733860007
3666386 -0.9344268309593293 0.34804414271315426
3667139 -0.9345107425224589 0.34820492221030963
3667892 -0.9349798090989431 0.34828366065582034
3668646 -0.9351305434339069 0.3482453416776435
3669399 -0.9348286864896639 0.3489237252404797
3670152 -0.9350885763081636 0.3492542621643608
3670906 -0.9352756492594517 0.34918103294499775
3671659 -0.9351328494034427 0.3497259308732128
3672412 -0.9357624005757325 0.34989686780324897
3673166 -0.935265004828052 0.35004390634988897
3673919 -0.9342848469499925 0.3494098659798477
3674672 -0.9342122368534604 0.348805297559887
3675426 -0.934143714283122 0.3490861553644923
3676179 -0.9340518787966569 0.34901083122934434
3676932 -0.9346728788317977 0.34948881726054637
3677686 -0.9344900206828637 0.3496247434504067
3678439 -0.9349397742747867 0.3498613772282972
3679192 -0.9342634240087767 0.34969055931314436
3679946 -0.9343984925805126 0.34953830474831193
3680699 -0.9348717667318214 0.350294565685753
3681452 -0.9347539042441504 0.3502541067283612
3682205 -0.9348053477541133 0.3510347777750286
3682959 -0.933691034383 0.35098407475282906
3683712 -0.934148225275049 0.3505399390936015
3684465 -0.9339805740202204 0.35052491180215417
3685219 -0.9349947515855149 0.3501171788397235
3685972 -0.9343144430750171 0.35045835173948353
3686725 -0.9339586117782759 0.3502052855328123
3687479 -0.9339143247499093 0.3499328630951878
3688232 -0.9342882298098383 0.3505752871386765
3688985 -0.9348188676711258 0.35031265464012395
3689739 -0.9344454392457602 0.35130932921436836
3690492 -0.9333308994261921 0.3503455938870977
3691245 -0.9338351512859473 0.3508975588471956
3691999 -0.9339930400102221 0.3512863253000077
3692752 -0.9339527089011694 0.35104173580745773
3693505 -0.9338782071545069 0.351648243298944
3694259 -0.9334536536396781 0.35127658185065425
3695012 -0.9336215477641469 0.351113222974871
3695765 -0.9336424355692675 0.3516640727658294
3696519 -0.9339160970357883 0.3515815325264319
3697272 -0.9341290368760492 0.35162689452169393
3698025 -0.9343080950088315 0.3514600914311081
3698779 -0.9338232292421904 0.35165169094195897
3699532 -0.9339967121491072 0.35208291288824894
3700285 -0.9343550820131394 0.3522510797976085
3701038 -0.9345348149057336 0.35229810197444494
3701792 -0.9343326338357743 0.35260091882811107
3702545 -0.9334897436481039 0.35205490842746073
3703298 -0.9334628732756658 0.3522228142092559
3704052 -0.9332271278061398 0.35234875701991897
3704805 -0.9338818942864492 0.3523644437818488
3705558 -0.933386729597183 0.3522464343680946
3706312 -0.9323095823950552 0.35177800000678516
3707065 -0.9334119692158849 0.3522056788401345
3707818 -0.9333281502637185 0.35268258463542274
3708572 -0.9335704798140775 0.3525047454259178
3709325 -0.9338185853371501 0.3527993679748698
3710078 -0.9328792235112388 0.3528313179801954
3710832 -0.9329923438350581 0.35315515510066564
3711585 -0.9331875593052219 0.3531787925568054
3712338 -0.9332281827784188 0.3530097067153197
3713092 -0.9332904469817201 0.3522748810303032
3713845 -0.9328526408204969 0.35269321986767116
3714598 -0.9326566974418848 0.3528607865567529
3715352 -0.9328579601926984 0.35353975143464134
3716105 -0.9328648852204119 0.35370217941478815
3716858 -0.9331574670357263 0.35323582683346194
3717612 -0.9331689673969694 0.35360086395514373
3717612 -0.9333475229026177 0.3537138707438266
3718380 -0.9337527396393928 0.3538581735051827
3719149 -0.9341763336756562 0.3536964459922839
3719918 -0.933435770568123 0.35413720775387136
3720687 -0.9323586225043035 0.3538523335835742
3721456 -0.9326079901341265 0.35452397626046106
3722225 -0.9322295169768166 0.3540788755096241
3722994 -0.9326720345275038 0.35372811918128483
3723763 -0.9329834146251171 0.3537641562484961
3724532 -0.9328787699595292 0.3539644980436419
3725301 -0.932307251524278 0.3538841382189471
3726070 -0.9325641547281589 0.35458475909679504
3726838 -0.9329608988996406 0.35454589122307256
3727607 -0.9333903155622333 0.3544568626711212
3728376 -0.9334461056732832 0.3549488259201657
3729145 -0.9328296280473426 0.3544252607363259
3729914 -0.9332379641235307 0.35508914241498557
3730683 -0.932424882317601 0.35521375875645655
3731452 -0.9326631191022694 0.3552051979191642
3732221 -0.9323242216592624 0.35474767782135225
3732990 -0.9325422722414428 0.3553346645986256
3733759 -0.9317650829813763 0.3548085857926714
3734528 -0.9323628688173005 0.35521081706215324
3735296 -0.9320714912934764 0.3548108322737614
3736065 -0.9321209135127235 0.3550266780560137
3736834 -0.9324237675652388 0.3553409079281466
3737603 -0.9320179959978525 0.3553102294476374
3738372 -0.9320899176431939 0.35475370063258105
3739141 -0.9321021039726999 0.35530633053794164
3739910 -0.9321244969873748 0.3553574999347995
3740679 -0.9326780841942434 0.35526772383167254
3741448 -0.9321049193721263 0.35605080102936726
3742217 -0.9316485048064927 0.35586730846871706
3742986 -0.9322638701576478 0.35595166112300874
3743754 -0.9321063382145156 0.3559927805104775
3744523 -0.9320155138137675 0.3558807760869839
3745292 -0.931930067758831 0.3559688775493922
3746061 -0.9318294896591891 0.35600681360074493
3746830 -0.9313155479154689 0.35550953753448583
3747599 -0.9318118639087274 0.35608381411229184
3748368 -0.9322137846065701 0.35644513599471844
3749137 -0.9319521136106318 0.35607735045127703
3749906 -0.9314455255756848 0.356375730111363
3750675 -0.9316169024205355 0.35685033911017666
3751444 -0.931724260746334 0.3572108949558971
3752212 -0.9313034009208874 0.35727279288565844
3752981 -0.9319103183823022 0.35710021567587585
3753750 -0.9321528653997322 0.35681943768667984
3754519 -0.932061257318596 0.3569921041261327
3755288 -0.9313130413758496 0.35668163818095694
3756057 -0.9320519510188631 0.3572306291877366
3756826 -0.9320901779802475 0.3571825199804658
3757595 -0.9317552580753725 0.3571661585739405
3758364 -0.9318984693734969 0.3568574550540865
3759133 -0.9315678521902113 0.35744600926261344
3759902 -0.9314762189695001 0.3574306760477941
3760670 -0.9316642355275878 0.35764593108201354
3761439 -0.9313466713043614 0.35783838357190745
3762208 -0.9310587130749639 0.35789082749897994
3762977 -0.9311676051849908 0.35801081988939
3763746 -0.930840669449294 0.3581994850016613
3764515 -0.930516205633047 0.3582315534399142
3765284 -0.9307360952316563 0.3583466958666544
3766053 -0.9311517544649646 0.35803762460739463
3766822 -0.931996363518098 0.3581015476620168
3767591 -0.9319572088340072 0.3583977943577774
3768360 -0.9311546468868501 0.35780385650996893
3769128 -0.9314001167839755 0.3583890144074345
3769897 -0.9310480223381657 0.35884365303891547
3770666 -0.9315332920873126 0.3584511570463432
3771435 -0.9317111314729288 0.3588328381328084
3772204 -0.9317332599536906 0.3588684179920667
3772973 -0.9309365213792837 0.358471026730792
3773742 -0.9308124043292684 0.35907687318021475
3774511 -0.930778941661792 0.3592681193057783
3775280 -0.9315592086916199 0.3592925299419752
3776049 -0.9312474338195842 0.3591111386814401
3776818 -0.9311770623255657 0.35894031157690653
3777586 -0.931297749389981 0.3589691254742024
3778355 -0.9312219136279805 0.35948148793089185
3779124 -0.9315304094324236 0.35949530389565787
3779893 -0.9313541613325064 0.3596428871295636
3780662 -0.9313411101326698 0.35969319836979874
3781431 -0.9300781243420725 0.35964722279416234
3782200 -0.9306237344780595 0.3597667297802696
3782969 -0.9304265335268407 0.35979609986745537
3783738 -0.93066573554678 0.35953497030220927
3784507 -0.9310588020508505 0.35954134852713676
3785276 -0.9305600638061172 0.36030592978587206
3786044 -0.930305207673301 0.35991820466422614
3786813 -0.9303799696540485 0.3600618773028493
3787582 -0.9302275972370325 0.36068906828864317
3788351 -0.9305537861594939 0.3601542017859977
3789120 -0.9302787950509938 0.3605185101071051
3789889 -0.9308361128892498 0.3607546303769545
3790658 -0.9309173998941042 0.36080175056921604
3791427 -0.930849069349217 0.3606840039522106
3792196 -0.930375156620977 0.36023053673032485
3792965 -0.9303273716046562 0.3604925189871037
3793734 -0.9303934823665063 0.3605497105749072
3794503 -0.9297395075205012 0.36054781518081436
3794503 -0.9302652338162729 0.3603251807633089
3795287 -0.9301555103090868 0.3608983835940628
3796072 -0.9292246083453128 0.3607268075047807
3796857 -0.9299237655679966 0.3615312225345641
3797642 -0.9297955856890502 0.36195224359210376
3798427 -0.9296358949826606 0.3615604857913427
3799211 -0.9296846558233411 0.3612775593366596
3799996 -0.9300860558468904 0.36171382880974196
3800781 -0.929762715515815 0.3617206275795436
3801566 -0.9304532428129999 0.36175043089573805
3802351 -0.9299872111101563 0.3618270289752505
3803135 -0.929735393775163 0.36118972040374936
3803920 -0.9298187324155182 0.36173009185076643
3804705 -0.9299006864758121 0.3616693107601967
3805490 -0.9295830584900426 0.36193355279794026
3806275 -0.9296699720240099 0.362222789271225
3807059 -0.9294176666224251 0.3623431110769575
3807844 -0.929640049011972 0.3624511971325103
3808629 -0.9295802300506852 0.36271057637354237
3809414 -0.9293204566535277 0.3622881893362573
3810199 -0.9289809539127115 0.3625236752122274
3810983 -0.9289182757900696 0.36308145457487684
3811768 -0.9287161160725902 0.36359939848824013
3812553 -0.9295095672257199 0.36324605332203563
3813338 -0.9290773700017756 0.36279553052331015
3814123 -0.9292904108893952 0.3626603684392763
3814907 -0.9289626616908282 0.36292321050400317
3815692 -0.9291146559007584 0.36256824827419054
3816477 -0.9295549563750498 0.3633571163907392
3817262 -0.9287451712926345 0.36296986901737066
3818047 -0.9289674518506745 0.36332714550891493
3818831 -0.9288033201988223 0.36300660611589225
3819616 -0.9291325682562342 0.36371253254445857
3820401 -0.9289827883592132 0.36354733360689373
3821186 -0.9296654504282562 0.36404998029577035
3821971 -0.9290461951335326 0.3642875031033689
3822755 -0.9293809028293802 0.3639088204850705
3823540 -0.9288284586066569 0.36412009459577177
3824325 -0.92869183883317 0.3639993672468519
3825110 -0.9286094832309681 0.3638879265191926
3825895 -0.928706420826447 0.3642760149739324
3826679 -0.9285216345819605 0.3641234651134693
3827464 -0.9291332748305676 0.3639148452917622
3828249 -0.9289382083890785 0.36387401146536735
3829034 -0.928618982841712 0.36428968424456704
3829819 -0.928413880433474 0.36431522452389326
3830603 -0.9291691099871959 0.36457290166006423
3831388 -0.9289564409610743 0.36471551331891916
3832173 -0.9291636733233503 0.3648186431630101
3832958 -0.9286749701082259 0.36448244671908314
3833743 -0.9283913975726045 0.36494948749388245
3834527 -0.928425884761267 0.36476028231540436
3835312 -0.9283049556306228 0.364918721575002
3836097 -0.9286120947081685 0.3644351608733856
3836882 -0.9282468210507304 0.36519667427029584
3837667 -0.9284904683153516 0.36534035650520713
3838451 -0.9287518860787541 0.36601749064670036
3839236 -0.9286020308579012 0.36656851544677893
3840021 -0.9282655712157437 0.3658569679685478
3840806 -0.928679451269281 0.36552627355431655
3841591 -0.9279399379318166 0.36577636799803975
3842375 -0.9283657235234088 0.3657677176790055
3843160 -0.9277445107049963 0.3658686259393332
3843945 -0.9275022289844419 0.36604168276517973
3844730 -0.9275764034315296 0.3658983963752291
3845515 -0.9276876748833561 0.3658109780477585
3846299 -0.9281269498095402 0.3661658851059615
3847084 -0.9280489373473269 0.3660958099258473
3847869 -0.9281462975889281 0.36637797912048886
3848654 -0.9281677891259733 0.3663751407362163
3849439 -0.9282266055747689 0.3664337343013229
3850223 -0.9281206061932004 0.36628777341453245
3851008 -0.9283591441283447 0.36668110310854884
3851793 -0.9273547684246456 0.3663836332228749
3852578 -0.9279325134952732 0.3670753130377999
3853363 -0.9272821375115173 0.36707544981759377
3854147 -0.9276063783864238 0.3670681221875203
3854932 -0.9271999784858099 0.36681473967236616
3855717 -0.9271216858173814 0.3667455336490281
3856502 -0.9277136323944746 0.367139107823154
3857287 -0.9281369160452255 0.3677376924303116
3858071 -0.9275413342583055 0.36743297155076204
3858856 -0.9280829885459031 0.3673807154056778
3859641 -0.9277289262060685 0.3672373102127447
3860426 -0.9271028980149342 0.36733753661356316
3861211 -0.927274495787592 0.3673750092890807
3861995 -0.9273756627444376 0.3672968911607074
3862780 -0.9275743583222604 0.36786541537554596
3863565 -0.927451310702577 0.3672882804390433
3864350 -0.9268670313000545 0.36736401464443896
3865135 -0.9270708456916773 0.3675719029684104
3865919 -0.9271337932274899 0.3677064270871597
3866704 -0.9273231420627687 0.36826830290121443
3867489 -0.9271393287123654 0.3686874348290973
3868274 -0.9271201034061224 0.3682952119556531
3869059 -0.9269793479633924 0.36836093694710814
3869843 -0.9270284117505091 0.36800477088792816
3870628 -0.926838487857536 0.3678666049096698
3871413 -0.9269270182971767 0.3684188948748505
3872198 -0.9270469661940156 0.3690244929392459
3872983 -0.9268346501255041 0.3684316754392227
3872983 -0.9266603531407028 0.36870881871813377
3873784 -0.9268896162660002 0.368218725646398
3874585 -0.9263927786528395 0.36858209486637467
3875386 -0.9266955015421116 0.3688697446950935
3876187 -0.9273227562720453 0.36896206122883307
3876988 -0.9275629853316502 0.3694141589413201
3877789 -0.9270207055939892 0.3692911087747746
3878590 -0.9270212566037634 0.3692187949551373
3879391 -0.9265172547437437 0.36904306537662085
3880192 -0.9265493983898618 0.3689763477691424
3880993 -0.9266475381007862 0.3694708404667402
3881794 -0.9264160541211102 0.369419159946722
3882595 -0.9267843243329746 0.37022038207793473
3883396 -0.926409957888573 0.3700689673767975
3884197 -0.9263611469786192 0.36956614635078694
3884998 -0.9264940082036731 0.3694114718623545
3885799 -0.9261064935092967 0.36969318486773295
3886600 -0.9262118511523142 0.3697890475017381
3887401 -0.9265280131963429 0.36994769353018786
3888202 -0.9268065889560396 0.37032577480574264
3889003 -0.9266847337421388 0.37054150731626323
3889804 -0.9263718091776523 0.37086628902053165
3890605 -0.9265005152847597 0.37073734009886156
3891406 -0.9262618322928571 0.3703210010194263
3892207 -0.9259734956924384 0.37048951624082843
3893009 -0.9258896487078953 0.37053024311181465
3893810 -0.9260832018253653 0.3708350526785343
3894611 -0.9262024828961951 0.37114289250085153
3895412 -0.9255643582820416 0.37072623488749434
3896213 -0.9258834002465336 0.37079588584989104
3897014 -0.9259954564184447 0.37087919912108813
3897815 -0.9264973943406888 0.3702801246931883
3898616 -0.9262055057769346 0.3706846111800517
3899417 -0.9261135908984681 0.3708219691617974
3900218 -0.9261017896678774 0.3713757847222569
3901019 -0.9270870671687359 0.37219832002440495
3901820 -0.9262406307887646 0.3721261172039749
3902621 -0.9260325626970696 0.3719728557356426
3903422 -0.9260543567303275 0.37192714512010727
3904223 -0.9263168144461315 0.37173308002974065
3905024 -0.9262475976668901 0.372029151952423
3905825 -0.9262796594808429 0.37190914367834
3906626 -0.9263673480977505 0.3721416838867173
3907427 -0.9261569004659447 0.3725533331439606
3908228 -0.9255469415504145 0.37201620587947953
3909029 -0.9255805485233911 0.37204680006676294
3909830 -0.9257133036465046 0.37182558007270305
3910631 -0.9250963612724037 0.3717925215753463
3911432 -0.9251238366594476 0.3725354803721454
3912233 -0.9256564145724961 0.37285132101081764
3913035 -0.9256552194287492 0.3731996055358527
3913836 -0.9253599131235122 0.3731227539406557
3914637 -0.9249683405885303 0.3726045024326388
3915438 -0.9250100949169571 0.37248891455935645
3916239 -0.924921461506399 0.37249650201910656
3917040 -0.9249967323430451 0.37231928618737736
3917841 -0.9248944588554576 0.3723764455314273
3918642 -0.924825107721253 0.37268983831095337
3919443 -0.925096955317931 0.3729893772632025
3920244 -0.9247617798555171 0.3730988443459798
3921045 -0.9251299927082088 0.3732922022030939
3921846 -0.9249217831870851 0.3731901052264292
3922647 -0.9248237679945243 0.3736533559197494
3923448 -0.9249124376171171 0.3739036909567147
3924249 -0.9251346660091351 0.3740787565392169
3925050 -0.9249484780922422 0.37422961076486916
3925851 -0.9248997916122423 0.3740185647224189
3926652 -0.9241905957356171 0.3734301012168863
3927453 -0.9246656878136547 0.37358018653382163
3928254 -0.924619100839111 0.37326345104526304
3929055 -0.9254623793366273 0.3743535683016988
3929856 -0.9248141516566042 0.3740452965258669
3930657 -0.9251701485644891 0.3747881364042407
3931458 -0.9252237600101445 0.3743193760286871
3932259 -0.924715158425662 0.3744699265733251
3933061 -0.9253439156869224 0.37414399882450855
3933862 -0.9246098228508093 0.3737349766361943
3934663 -0.9253738452786373 0.37488865995244586
3935464 -0.9249284754782556 0.3745863618966737
3936265 -0.9247730410237457 0.37516202576685853
3937066 -0.9247914620485024 0.374925704750373
3937867 -0.9243830663665294 0.3749143179041218
3938668 -0.9248908173311553 0.3750356638867604
3939469 -0.9249050024300914 0.37503426735473416
3940270 -0.9254883987532798 0.37559891513140226
3941071 -0.9245131724518407 0.3756131019555151
3941872 -0.9243321981438545 0.37574502116176495
3942673 -0.9246574615288489 0.3755808320568489
3943474 -0.924403392087907 0.3760103810799504
3944275 -0.9250233151612538 0.37564284085306054
3945076 -0.9245197570514557 0.375810024465525
3945877 -0.9250620287021822 0.37609129530825147
3946678 -0.9246342072473815 0.37623458478258004
3947479 -0.9245902207036345 0.37591447274582973
3948280 -0.9244507386746869 0.37546343297000767
3949081 -0.9235387618235869 0.3757284886243179
3949882 -0.9236905986048861 0.37537854825800293
3950683 -0.9237257130045636 0.37527105129710847
3951484 -0.9237548522282779 0.3759592736185197
3952285 -0.9241977015199127 0.37639660100341016
3953087 -0.9245267125616992 0.3770417385731959
3953087 -0.9245931019944984 0.37675976755792523
3953904 -0.9238548439251221 0.3769399687241891
3954722 -0.9240165527871599 0.37677828297685906
3955539 -0.9240728383419057 0.3769048772737777
3956357 -0.9237856506994022 0.3765562707813551
3957175 -0.923387967140809 0.37618271200357833
3957992 -0.9233974450988613 0.37665892122627775
3958810 -0.9242777161120133 0.37703993427342586
3959627 -0.9238908686654175 0.3767099784490438
3960445 -0.923628014859065 0.37690931810947687
3961263 -0.923785050545384 0.3769721620803967
3962080 -0.9234857385386375 0.37692822111228247
3962898 -0.9233102127738178 0.3773647284386018
3963715 -0.9236994463967368 0.37666554846216416
3964533 -0.9233227836178282 0.3768320343345805
3965351 -0.9234163406903926 0.377448109913139
3966168 -0.9239294418603958 0.37726202171770334
3966986 -0.9239521634560083 0.3772556407013488
3967803 -0.9236648016522869 0.37751954382112646
3968621 -0.9235678532484369 0.37736873242458335
3969439 -0.9229796341705038 0.37762145129439334
3970256 -0.9234827314406182 0.3777504765422917
3971074 -0.9231394169597473 0.37784992336317985
3971892 -0.9230087387320701 0.3776980254839291
3972709 -0.9232675178876926 0.37819072000328424
3973527 -0.9239242562443568 0.37854058289312464
3974344 -0.9237880130289523 0.37859482870605093
3975162 -0.9235037230528634 0.3781917114759433
3975980 -0.9233678247771533 0.37854420374311065
3976797 -0.923275952519676 0.37846011884105457
3977615 -0.9234033796260847 0.3780718690807526
3978432 -0.9234239266751934 0.37790025446955766
3979250 -0.9232782910037893 0.37849083275963774
3980068 -0.9239825199335383 0.37893992655009806
3980885 -0.9235453318935374 0.3791033091351807
3981703 -0.9238632875943368 0.37909136160067664
3982520 -0.9234026449301128 0.3785998119606557
3983338 -0.9232265654348322 0.378802603107387
3984156 -0.92324148061365 0.3790930193464886
3984973 -0.9233149182002311 0.37891485734094665
3985791 -0.9230454527803142 0.3789912660261704
3986609 -0.9230768429285421 0.3792122899446804
3987426 -0.9231436416933403 0.3794864931667145
3988244 -0.9232210507458666 0.3795698538758975
3989061 -0.9229694285244207 0.37899022760165535
3989879 -0.9226029615427037 0.37909731374915534
3990697 -0.9223049713038572 0.37923674834053356
3991514 -0.9227217423717453 0.3787574124726807
3992332 -0.922524611749469 0.3791717054589
3993149 -0.9227383589514458 0.37980899701915444
3993967 -0.9226602152636467 0.38027624089884243
3994785 -0.9230066876272692 0.3801869565030903
3995602 -0.9224552751554849 0.3808537404746501
3996420 -0.9221007150726112 0.380329199410031
3997237 -0.9222632184091358 0.3801418556291346
3998055 -0.9218527613166337 0.3798002650220002
3998873 -0.92222996280817 0.3794772554433582
3999690 -0.9222118723122396 0.379292351364128
4000508 -0.9228048582495569 0.38039408959997545
4001325 -0.9227457918760663 0.3805749268309992
4002143 -0.9228056560442733 0.38094440636980637
4002961 -0.9226859916691907 0.3807397251193102
4003778 -0.9220549274305281 0.38079430575630674
4004596 -0.9218978624950906 0.3808333967166026
4005414 -0.9218525250764654 0.3809484252481396
4006231 -0.9220234015268163 0.3803082114599501
4007049 -0.9223571313569984 0.3811621559163918
4007866 -0.9225565226171408 0.38171960679515227
4008684 -0.9226210636823353 0.3819657864218092
4009502 -0.9228806464655205 0.38160125371867554
4010319 -0.9227779988996951 0.38132410241741804
4011137 -0.922420311225068 0.38122343239561385
4011954 -0.9218704141077537 0.3811875422055906
4012772 -0.9222949443892584 0.3807769164678961
4013590 -0.9222867255776919 0.3814639412760275
4014407 -0.9223249199639921 0.38184538118341327
4015225 -0.9221243687250424 0.38223781403719403
4016042 -0.9221300933594543 0.3820674731990646
4016860 -0.9220826556756808 0.381985262138552
4017678 -0.9221165374944923 0.38162417083618316
4018495 -0.9217403872118275 0.38151148602519774
4019313 -0.9218012659876461 0.3813456735515849
4020131 -0.9221286927580584 0.38190556055306835
4020948 -0.9219772044941346 0.38237848089188947
4021766 -0.9219677163053326 0.3820183727562019
4022583 -0.9219097410807465 0.3821016106253966
4023401 -0.9216019721778265 0.38204097680597643
4024219 -0.9216869501696144 0.38197636600922624
4025036 -0.9210301686701081 0.38175628103364834
4025854 -0.9210105745654944 0.38157995008320456
4026671 -0.9217875620464523 0.38251624457137845
4027489 -0.9214618953941027 0.382912503143034
4028307 -0.9218841274224473 0.3830417354270924
4029124 -0.9216773826692775 0.38306856707587317
4029942 -0.921401964659331 0.3831217807474217
4030759 -0.9212926586143807 0.38294717266607
4031577 -0.9212333883031831 0.3827002422240083
4032395 -0.9212718692206713 0.3823247475320474
4033212 -0.9213753761877954 0.383039183305621
4034030 -0.9215573171956619 0.38342485426799844
4034848 -0.9214795883034452 0.38339066200356964
4034848 -0.9213385205333386 0.38291341992712846
4035682 -0.9211965201340694 0.3835178979860635
4036517 -0.9209405346984265 0.3833951311827909
4037351 -0.9215121609463288 0.3831440863533804
4038186 -0.921288519021379 0.38343626314075374
4039020 -0.9210798459173454 0.38347210173020607
4039855 -0.9211755475620202 0.3843156257335337
4040689 -0.9215476355262503 0.3845554350309327
4041524 -0.9213244455416317 0.38446308408420893
4042358 -0.9209364970665841 0.38439836084763607
4043193 -0.9210394170630838 0.38454864940050065
4044027 -0.9207569451562703 0.3842243287316488
4044862 -0.9210562986772255 0.384167059967507
4045696 -0.9211032190807018 0.38408605362782455
4046531 -0.9209996996905372 0.38384336449238166
4047365 -0.9208575115917296 0.38477147202622247
4048200 -0.9210792489178435 0.38485359938103414
4049034 -0.9210611953117074 0.3852925731411778
4049869 -0.9212004085048495 0.3846250357542121
4050703 -0.9210848154955682 0.3848929301113251
4051538 -0.9205118320447773 0.38465433146810696
4052372 -0.9209496523517245 0.38479365003821137
4053207 -0.9205610203738387 0.3843674158181141
4054041 -0.9204308123711404 0.38425419275342027
4054876 -0.9210637386547306 0.3849421685906011
4055710 -0.9207008222497696 0.3852649958875725
4056545 -0.920836329296661 0.38552746034833163
4057379 -0.9207671268530656 0.3854506629766979
4058214 -0.9203263180200568 0.38514998203691087
4059048 -0.9206076360038887 0.38541020246283053
4059883 -0.9203508582348688 0.3854235571802346
4060717 -0.920566480708967 0.38520819337323237
4061552 -0.9202290464228386 0.38468232297054855
4062386 -0.9204510206681847 0.3856503972623262
4063221 -0.9203820445651245 0.385898742607574
4064055 -0.9203149346329521 0.3858340382182067
4064890 -0.9203432526311651 0.38588936160165693
4065724 -0.9203944876142321 0.3857890292999294
4066559 -0.9200325410626339 0.3861972138527594
4067393 -0.9198482122576909 0.3858843295701623
4068228 -0.9195714122680301 0.3860052349956052
4069062 -0.9197906862393498 0.38596872091938483
4069897 -0.9199255679417802 0.3866538224521293
4070731 -0.9198763649718354 0.38686307956512644
4071566 -0.9198632937022622 0.38711244621714164
4072400 -0.9198324797579844 0.3873170544472311
4073235 -0.9195304630754919 0.3868260182220214
4074069 -0.9199453843879859 0.3870163014263173
4074904 -0.9194857878873672 0.3867079874748333
4075738 -0.919325031445044 0.38699349130830524
4076573 -0.9199238981488845 0.3873262046083131
4077408 -0.9196921714049261 0.38667052243855987
4078242 -0.9201829448333831 0.386985359234328
4079077 -0.9201992599853452 0.3872729126410197
4079911 -0.919786471135102 0.38781682046029975
4080746 -0.9198581158221588 0.3877572442758703
4081580 -0.9196322404444045 0.3873055267524781
4082415 -0.919606877190736 0.3874432167289566
4083249 -0.9194412180107355 0.3872487826116561
4084084 -0.9193114813348784 0.3874330390093929
4084918 -0.9195432881981132 0.3875084605826365
4085753 -0.9201431384915845 0.3877916873242054
4086587 -0.9198490326768342 0.38820170479321364
4087422 -0.9198530013938979 0.38893765271672204
4088256 -0.9193305765278463 0.3887364280380183
4089091 -0.9195032919582081 0.38810339532583304
4089925 -0.9194296815674518 0.38861170532940953
4090760 -0.919152170838599 0.38847429689631796
4091594 -0.9187700045859619 0.3884439016496426
4092429 -0.9176663404949889 0.38790641850525176
4093263 -0.9191094318553484 0.3883251279971382
4094098 -0.9194219555533493 0.3883755954194764
4094932 -0.9196658076233534 0.3890379437113488
4095767 -0.9201109225314834 0.38950823646582
4096601 -0.9194206143933191 0.3894232176392477
4097436 -0.9191890736427153 0.388907380028599
4098270 -0.9189543551039617 0.3886506451607336
4099105 -0.9186763887773796 0.38916851969843674
4099939 -0.9183757804044048 0.3887069694892822
4100774 -0.9186634320853052 0.38853775875646945
4101608 -0.919155203168586 0.388788697916167
4102443 -0.9192673827063179 0.3893308322847401
4103277 -0.9195962862634635 0.3892873109269283
4104112 -0.9197051180924279 0.3895893448699579
4104946 -0.9192084401774749 0.38899521534694864
4105781 -0.9190337859350425 0.3897124294766681
4106615 -0.9186098771944793 0.38958979851461784
4107450 -0.9182880140643576 0.38936268268427904
4108284 -0.9183924058328993 0.38907199735344444
4109119 -0.918775174818716 0.3887330456295036
4109953 -0.9188112854550681 0.38964095896797063
4110788 -0.9188335659859325 0.3902609397585861
4111622 -0.9188845845236909 0.3904260456470245
4112457 -0.9181960623430206 0.3899489217102729
4113291 -0.9182760923020522 0.39050955567073437
4114126 -0.9180231066523847 0.3904163459158611
4114960 -0.9180868885328054 0.39001946449973585
4115795 -0.9180184425594798 0.39007459582758125
4116629 -0.9185692390550904 0.3900731309090753
4117464 -0.9186916402918918 0.3905197267725154
4118299 -0.9186246642696219 0.39089208225484373
4118299 -0.918610940481544 0.39126394880981946
4119150 -0.9185080670665898 0.3910775871831254
4120002 -0.9179119429783869 0.3907158501571838
4120854 -0.9178538883356769 0.3909066903576957
4121706 -0.9180216765380173 0.39103131653296885
4122557 -0.9180983226513366 0.39079668081430524
4123409 -0.9184773327805468 0.3906431074013643
4124261 -0.9180359165701149 0.3904030522458497
4125113 -0.9183896325455472 0.3907356100525013
4125965 -0.9187119017776959 0.39123848856301874
4126816 -0.9184570059132087 0.3917603192700569
4127668 -0.9184624394884818 0.3917872719248443
4128520 -0.9181306544805145 0.3921070217909664
4129372 -0.9179550916751407 0.391881472877475
4130223 -0.9177433132952354 0.39186600585124315
4131075 -0.9175459826371111 0.3920295306177584
4131927 -0.9174935569991312 0.39163245708848565
4132779 -0.916802210432623 0.39150283358521115
4133631 -0.9178511114552476 0.39197313729763955
4134482 -0.9177418145743175 0.39153863406184886
4135334 -0.9172824525813515 0.3914037001485716
4136186 -0.9177861923436489 0.39183574643606073
4137038 -0.9179782541402547 0.3925362852921686
4137889 -0.9183092654602562 0.39268722066563155
4138741 -0.9181423509027481 0.39281181917841984
4139593 -0.9177602022869404 0.39305078909589386
4140445 -0.9179952253741356 0.3929491207650633
4141297 -0.9176485095068284 0.39297629919278965
4142148 -0.9175288845508666 0.3929077503879031
4143000 -0.9172530914004814 0.3925384523218797
4143852 -0.9167307881275732 0.3922609911620736
4144704 -0.9171633798239439 0.39236647223632815
4145555 -0.9172663772123159 0.39208245482656984
4146407 -0.917713686538028 0.3923416282719685
4147259 -0.9176624854165084 0.3928127273425186
4148111 -0.91809861568631 0.39370245886282157
4148963 -0.9180030029744648 0.39378398498609013
4149814 -0.9182088444582459 0.39344984613053163
4150666 -0.9175930670081911 0.393421524662456
4151518 -0.9175159877138431 0.39365862405416263
4152370 -0.9171070198176455 0.39387375342554803
4153221 -0.917436468780524 0.39352719585012613
4154073 -0.9167152444673827 0.3932542181008129
4154925 -0.9161330614807207 0.3937641680321131
4155777 -0.9161167356527957 0.3932596536469617
4156629 -0.9169003001619086 0.39350626545760276
4157480 -0.9170664617159361 0.3936658207508405
4158332 -0.916643568831165 0.39441751360041977
4159184 -0.9169286070302729 0.394879521362032
4160036 -0.9170148261719311 0.39491618606282064
4160888 -0.9168597224223483 0.394348658104041
4161739 -0.9166407005591594 0.39434485607416403
4162591 -0.9161364914823077 0.3940505987206981
4163443 -0.9166730589022088 0.39444398076648934
4164295 -0.9172392487298048 0.3941736484377845
4165146 -0.9172158245031123 0.3947691497579829
4165998 -0.9172096492289191 0.39515561474283917
4166850 -0.9170707686524373 0.3947457723247725
4167702 -0.9170619572258463 0.39479699590179473
4168554 -0.916649633673374 0.394800569385075
4169405 -0.9162283391998977 0.3955018570579841
4170257 -0.9161427146113587 0.3955178032448265
4171109 -0.9158801199272262 0.39539226315954545
4171961 -0.9162926751538684 0.3950595589996484
4172812 -0.9160858998978139 0.39482892870125486
4173664 -0.917031772859598 0.39473052829082095
4174516 -0.9169437183180825 0.39506852799970554
4175368 -0.9172378029264787 0.3955845085220305
4176220 -0.9172568651229352 0.39576027022149146
4177071 -0.9166549023790709 0.3956804570954174
4177923 -0.9166538261094529 0.3958784137694569
4178775 -0.916157772122731 0.3958750191899763
4179627 -0.9165765278890249 0.39549131988607256
4180478 -0.9159289231000471 0.39541572854443274
4181330 -0.9154840021796513 0.39546321399259926
4182182 -0.9156580565485366 0.39595523121118636
4183034 -0.9167368639870596 0.39574751184098045
4183886 -0.9167423774913727 0.39636894894105573
4184737 -0.9167321035674343 0.39685142120571726
4185589 -0.9165883630936306 0.39688798213184867
4186441 -0.9160971787100993 0.39695796872957667
4187293 -0.9156762429262243 0.3965146380303102
4188144 -0.91544898639025 0.3968802111900812
4188996 -0.9158692972845581 0.39671039790407747
4189848 -0.9156904954986078 0.3964377084467301
4190700 -0.9157744760397799 0.39649648214058525
4191552 -0.915544393713254 0.396332357288368
4192403 -0.9164872528392651 0.39646162182535066
4193255 -0.9165825703713102 0.3967118045648504
4194107 -0.9166533525826783 0.3974394982917561
4194959 -0.9163883110667544 0.3976052678726985
4195810 -0.9158885788813135 0.397014139634672
4196662 -0.9160021944756581 0.39781340308069624
4197514 -0.9157323819664283 0.3973426438081932
4198366 -0.9154351559141002 0.3973017101614696
4199218 -0.9152655886313273 0.3967728247770219
4200069 -0.9152548906045801 0.3970357772352266
4200921 -0.9144930360408434 0.39681220807761
4201773 -0.915897283239887 0.39714937134526246
4202625 -0.9160971806209525 0.39732047854518016
4203477 -0.9158756418456678 0.3977567152168718
4203477 -0.915570069058649 0.3980440048757732
4204346 -0.9151511484845221 0.39824540664995056
4205215 -0.9156206338693444 0.39834818202946326
4206085 -0.915073469657682 0.3985550642170863
4206954 -0.9151791026499948 0.39874161074903225
4207823 -0.9148912555656041 0.3979407112180448
4208693 -0.9150984049372904 0.3984147735230569
4209562 -0.9142953077605108 0.3981471521107941
4210432 -0.9147644795483673 0.39871366801119756
4211301 -0.9156564870658168 0.39871515859982987
4212170 -0.9159083093532454 0.398453257303225
4213040 -0.9155613696392441 0.39840548513112795
4213909 -0.9152715018641475 0.39906484172613504
4214779 -0.9153729099046564 0.3991873980909153
4215648 -0.9153451539989252 0.3987922670987486
4216517 -0.914696560773909 0.39881314503412596
4217387 -0.9144298321261245 0.3990651168777348
4218256 -0.9146653986794551 0.39943645953630125
4219126 -0.9149448388088981 0.39938689058450166
4219995 -0.9145145581524395 0.3994095284083737
4220864 -0.9143874065443864 0.3988945983081403
4221734 -0.9143797190690972 0.39890792756775456
4222603 -0.9147416884037846 0.3985911951380862
4223472 -0.9153198147462718 0.3988504250538645
4224342 -0.9154611538981198 0.398970757512145
4225211 -0.9152877923551777 0.3995830399029018
4226081 -0.915027348699231 0.4002659270074277
4226950 -0.9147973299218135 0.3999615237057853
4227819 -0.9149684874339683 0.4000374194349936
4228689 -0.9141322138462362 0.4003377285145124
4229558 -0.9143464296675284 0.4009583889812623
4230428 -0.9143309150310173 0.400461365707885
4231297 -0.914243648454075 0.4005570197078659
4232166 -0.913979849759794 0.4006163618954056
4233036 -0.9142258737594599 0.40053039132183166
4233905 -0.9136767608613356 0.40023537497524897
4234775 -0.9139558758230285 0.4005551009172796
4235644 -0.9143151335277886 0.4007401377335849
4236513 -0.9146501987287189 0.40105204069051076
4237383 -0.914509159071721 0.4013411722587541
4238252 -0.9145893090592605 0.40132184212209304
4239121 -0.914274935338184 0.4010939275353284
4239991 -0.9140568765712762 0.40077449154232336
4240860 -0.9142170064544849 0.40100973113787286
4241730 -0.914046071011938 0.4014233373996959
4242599 -0.9141329604434444 0.40152877953779187
4243468 -0.9139304862196337 0.40162436141180563
4244338 -0.9134410247341682 0.4011669216457091
4245207 -0.9139886177093104 0.40108667194715397
4246077 -0.9135130814277973 0.40080806113666656
4246946 -0.9129939279448211 0.40068675230781237
4247815 -0.9134604233680331 0.4016300340465697
4248685 -0.9130474225850657 0.40178081576300884
4249554 -0.9133062730033644 0.40157762240430256
4250424 -0.9133686379917793 0.40168641873049116
4251293 -0.9131397345208581 0.4014518837557675
4252162 -0.9139866147518642 0.40171966670693465
4253032 -0.913906813876197 0.4019479377875295
4253901 -0.9142687604338603 0.40219981709431457
4254771 -0.9141390192139565 0.4027816763517719
4255640 -0.9141144126972887 0.4028432833633565
4256509 -0.9142896145257645 0.40291643183131165
4257379 -0.913613045186662 0.4026512063493952
4258248 -0.913090400160586 0.4030100622554126
4259117 -0.9132960719585027 0.40331609666343454
4259987 -0.9134842578524449 0.4031797218111463
4260856 -0.9127993906649138 0.40290299890659365
4261726 -0.9124510856431258 0.40243186985781937
4262595 -0.912571005991008 0.40314953487785193
4263464 -0.9130875445918765 0.4032965048607017
4264334 -0.9132882926833952 0.40302617117919715
4265203 -0.9130095766314527 0.40261663516460017
4266073 -0.9132302375088363 0.40281080742160125
4266942 -0.9135299816276902 0.4029486128312613
4267811 -0.9133962808093359 0.4033926819092622
4268681 -0.9132736229157045 0.4030613485895713
4269550 -0.913121292875997 0.403674095948006
4270420 -0.9126886940094312 0.40423298927905227
4271289 -0.9128842851401793 0.40434482017160644
4272158 -0.9131811186145237 0.4043979073062086
4273028 -0.9125505053835494 0.4041549049945356
4273897 -0.9125549587374622 0.4041572826621741
4274766 -0.912362912539064 0.40455352448035353
4275636 -0.9125382343455144 0.40405107366105536
4276505 -0.9125167884109835 0.4040092807892257
4277375 -0.9124614185611754 0.40427253166369226
4278244 -0.9130131493528062 0.4044818034105507
4279113 -0.9133891587583006 0.40469647427261074
4279983 -0.9134866011547551 0.40486235954909183
4280852 -0.9133813931422878 0.40486908357924256
4281722 -0.9127686505669541 0.40488959275958664
4282591 -0.9126480710924757 0.40492934585785095
4283460 -0.9124275736289355 0.4046029170540028
4284330 -0.9125261696514589 0.40475894840785714
4285199 -0.9123394505731418 0.4048352719342111
4286069 -0.9124677357518829 0.4047564226573793
4286938 -0.9120089607832735 0.40441159335261706
4287807 -0.9120679379699758 0.4043923804719917
4288677 -0.9117716276237056 0.40479140908777916
4289546 -0.9119500641297801 0.4049770962295345
4290416 -0.9124838192487768 0.4049659402548291
4290416 -0.9117867987721706 0.4050578752269302
4291303 -0.9120387087575842 0.40557992219824196
4292190 -0.911848830774389 0.40609049251574814
4293078 -0.9119739479816197 0.40620782034895736
4293965 -0.9122041178962694 0.4064060674012371
4294852 -0.9118103740005572 0.4062779934661461
4295740 -0.9118356518084789 0.40663056719064733
4296627 -0.9121050229514797 0.40670205587156205
4297514 -0.9119256600702248 0.406214788764306
4298402 -0.9115677838137869 0.4063061874009893
4299289 -0.9118996518573765 0.40642452241352117
4300177 -0.9116714259986761 0.40673478337642016
4301064 -0.912589834726729 0.40628183682524865
4301951 -0.911698497873522 0.40579021991351494
4302839 -0.91184739504496 0.40659084296815284
4303726 -0.9119648040299267 0.4065552544370806
4304613 -0.912255161854797 0.4063791680763009
4305501 -0.9124603638028795 0.4065910848643501
4306388 -0.912013263403103 0.40656443484900234
4307276 -0.912327369416865 0.4070567974450324
4308163 -0.9123430111765386 0.4069897026532398
4309050 -0.9118496554604345 0.40684671782647197
4309938 -0.9117732603257374 0.407060552226816
4310825 -0.9119743317578999 0.4069937313522497
4311712 -0.9116318393577937 0.40673450728275157
4312600 -0.9109213772847213 0.4070803171296488
4313487 -0.9103250405701339 0.40760714949560034
4314374 -0.9112280898106255 0.40753923117075924
4315262 -0.9116963545360796 0.40786881333075037
4316149 -0.9110966503835517 0.4080248241334654
4317037 -0.9115114411301412 0.40803562981250047
4317924 -0.9111550803101947 0.4076638421734252
4318811 -0.9106822619866914 0.4077738818747563
4319699 -0.9110331425678824 0.4080160781762598
4320586 -0.9108385244230692 0.40765224890008434
4321473 -0.9108941147942288 0.4082103749435826
4322361 -0.9111783752694766 0.4081362986323341
4323248 -0.9115282573856359 0.4080361811127289
4324136 -0.9115058219151478 0.40814545080920633
4325023 -0.9116618034547278 0.4083149889523385
4325910 -0.9112794487785387 0.4086773942742816
4326798 -0.9110602992284189 0.40831058041362844
4327685 -0.9111007757743048 0.40846066594503627
4328572 -0.9111410520655215 0.4081573078778057
4329460 -0.9110016667395766 0.4085055711977187
4330347 -0.9111247676061844 0.4090925378755519
4331235 -0.9112256409778335 0.4091734554774085
4332122 -0.9109028586041028 0.4088250384244397
4333009 -0.9105396582044152 0.40832385559667406
4333897 -0.9099926562646128 0.40864170705237673
4334784 -0.9099346092750359 0.4095847033456614
4335671 -0.9102360385761578 0.4088361572480117
4336559 -0.9102749730122776 0.40919163694585364
4337446 -0.9101061515900294 0.4095943349401871
4338333 -0.9105553778247946 0.4095600092346601
4339221 -0.9103557834830772 0.40944665884933923
4340108 -0.9104913509685556 0.4095137936723921
4340996 -0.9104386912031162 0.4094901693951053
4341883 -0.9103563176409039 0.40983224160018145
4342770 -0.9105920129220973 0.4096722917986517
4343658 -0.9103341132913512 0.4097400342823878
4344545 -0.9100249072025964 0.41051834653253544
4345432 -0.9101810241453319 0.4106498181312073
4346320 -0.9108044582712745 0.41032096525806994
4347207 -0.9102434429648527 0.41017771429097233
4348095 -0.9107296053175811 0.4103743020618548
4348982 -0.9102982838031449 0.4108628306507148
4349869 -0.9105984029432049 0.4106154958320683
4350757 -0.9099091942694584 0.41076053692014536
4351644 -0.9105574655847148 0.41082753703174196
4352531 -0.9100759562920847 0.4108308651249631
4353419 -0.9097540683846462 0.41075197727128904
4354306 -0.9097347237223069 0.410424587212874
4355194 -0.9090271595180369 0.410383459458474
4356081 -0.9091392046490409 0.410792614697228
4356968 -0.9085464753014413 0.4110688739868118
4357856 -0.9085342097804877 0.4110210127874091
4358743 -0.9088081916269897 0.4110348908250494
4359630 -0.9087290705267548 0.41137474254284645
4360518 -0.9093628233812965 0.4116407951987032
4361405 -0.9095500084911236 0.41175854443595045
4362292 -0.9096095083737609 0.4116085383337227
4363180 -0.9097041166740938 0.41157148406684135
4364067 -0.9094267356545859 0.41204365608303095
4364955 -0.9094464215083228 0.4116666355338425
4365842 -0.9091199193179971 0.41146131963946103
4366729 -0.9089768451211474 0.4117471991075196
4367617 -0.9093284056927957 0.41180230888535246
4368504 -0.9098392364415191 0.4118712131191971
4369391 -0.9097454410141173 0.41192628708773765
4370279 -0.9094445075895242 0.4122107862201235
4371166 -0.9089394448736834 0.4122331979044699
4372054 -0.909224664491705 0.41243691626074164
4372941 -0.9088857579560854 0.41243749949290737
4373828 -0.9090215514478416 0.41247459513221035
4374716 -0.9086895413616521 0.41226520221578
4375603 -0.9087919847869107 0.4125265290582364
4376490 -0.9087958583565025 0.41236010354961883
4377378 -0.90865760041582 0.4124751678733616
4378265 -0.9086803332780036 0.41236852412700653
4379153 -0.9084557755329622 0.41311657207919655
4379153 -0.9088416710926485 0.4124892642111167
4380058 -0.9087794241978958 0.41299380639603767
4380964 -0.9089046880465804 0.41337810227353994
4381870 -0.9092947532992873 0.41391930595445153
4382775 -0.9092354194285728 0.41386923859281344
4383681 -0.9087684490884693 0.41456773363656646
4384587 -0.9083549357172661 0.41408527037708553
4385493 -0.908570884628628 0.4146630522495059
4386398 -0.9087106240887673 0.41447049842075323
4387304 -0.9081320343920294 0.4139407831725338
4388210 -0.9083250894097812 0.41387230996163726
4389116 -0.9083943472099321 0.414187434504408
4390021 -0.9082798524020115 0.41399729627807846
4390927 -0.9086066023950334 0.4137214259450049
4391833 -0.90790312672055 0.41371645415644626
4392738 -0.907916679954652 0.4138911992799885
4393644 -0.9081696359739788 0.41418244318599673
4394550 -0.9085497783831697 0.4142979850915696
4395456 -0.908373349288937 0.4143769847856208
4396361 -0.9079067044252599 0.4144863066753909
4397267 -0.9079286202471297 0.4150512758705535
4398173 -0.9085767252103801 0.4150197060935068
4399079 -0.9084072346558002 0.414953627432277
4399984 -0.9083676548101285 0.4150681360710298
4400890 -0.9080431127451895 0.4149795017199182
4401796 -0.9079028329509944 0.4148518934544471
4402701 -0.9080064582353788 0.4148854246662179
4403607 -0.9078346072676742 0.41538389676662896
4404513 -0.9079866393267771 0.41573186749910535
4405419 -0.9080984440876329 0.4154561400317616
4406324 -0.9077948469805809 0.41535043870729454
4407230 -0.9080363890203498 0.41552221313083365
4408136 -0.9078978374365857 0.41546674786994314
4409042 -0.908272821575471 0.41531605227951063
4409947 -0.908208082937341 0.41501752323392177
4410853 -0.9081029083546698 0.4154871279153959
4411759 -0.9077700890453574 0.41562146413690426
4412665 -0.9077560161838576 0.415922421295137
4413570 -0.9076477309951463 0.415830643754941
4414476 -0.907831852204728 0.4163988248404214
4415382 -0.9073734605831635 0.41633336395495246
4416287 -0.9072614039061012 0.41622913484385626
4417193 -0.9072742221552853 0.4158658490278393
4418099 -0.9069871884262977 0.41618849859504103
4419005 -0.9072738570531875 0.4164541777232079
4419910 -0.9072285218820066 0.4168109779612063
4420816 -0.9072659476645938 0.41650712306571563
4421722 -0.9067258323248805 0.41712110286150056
4422628 -0.9068769424550034 0.41686719777779346
4423533 -0.9071339836304234 0.4173310583654914
4424439 -0.9072874919190134 0.4173278953634497
4425345 -0.9069003490171403 0.41680532868092585
4426250 -0.9069389799763562 0.417640019650389
4427156 -0.9070840008769199 0.41727264170594536
4428062 -0.9075360679529243 0.417534827846703
4428968 -0.9072138610738826 0.4173002548502166
4429873 -0.9074441322104335 0.4176964203108881
4430779 -0.908006601698545 0.4179350562434713
4431685 -0.9073747987474765 0.417518084018745
4432591 -0.9072425756869569 0.4173423564015111
4433496 -0.9070975537377837 0.41737407476979627
4434402 -0.9069613252643088 0.41772432008530763
4435308 -0.9073427595474398 0.41756371842774026
4436213 -0.9066975053540623 0.4169831044447313
4437119 -0.9068807819277243 0.41739777960895447
4438025 -0.90708169898179 0.4173097374835165
4438931 -0.9069401241399653 0.41754230015268634
4439836 -0.9070375088714537 0.41802139719359355
4440742 -0.9063176450229317 0.4185751115146713
4441648 -0.9058460045588155 0.4188083870060301
4442554 -0.9056860625273948 0.41881101203825877
4443459 -0.9055881155370675 0.41875155744047704
4444365 -0.90556491346374 0.4189373612890664
4445271 -0.905825485128877 0.41916502332318734
4446177 -0.9062537745606872 0.41888608509793873
4447082 -0.9065800321030376 0.41885959498289743
4447988 -0.9061650749947289 0.41896778674268054
4448894 -0.9060157143539751 0.41912656755924205
4449799 -0.9062309258444881 0.41905532179082167
4450705 -0.9058752541273208 0.4184652420267793
4451611 -0.9060298346477723 0.4190484226201563
4452517 -0.906128346590456 0.41912513677412055
4453422 -0.906350638758538 0.41964930872804423
4454328 -0.9065234800545543 0.41922938779355373
4455234 -0.9062341362821748 0.4192005729468034
4456140 -0.9059674144886145 0.41939572250730994
4457045 -0.9064631999666252 0.41913853508743515
4457951 -0.906166970113334 0.4194421275446416
4458857 -0.9062531237018341 0.4196492305780327
4459762 -0.9056916104067377 0.4198829970309491
4460668 -0.9064266254497301 0.41997767867362523
4461574 -0.9060570776937117 0.4199308595379505
4462480 -0.905752025482058 0.419948225554687
4463385 -0.9057204362176613 0.4202203613887472
4464291 -0.9059362756429412 0.420362119536048
4465197 -0.9063103912882393 0.4203560432442159
4466103 -0.9065701230591062 0.42017130490833976
4467008 -0.9062382629797944 0.420358233765715
4467914 -0.9060396014194381 0.420463036886294
4468820 -0.9054464621099072 0.42043001925299894
4469726 -0.9050732907585777 0.4205376923826046
4469726 -0.9048451891768481 0.42062890470081093
4470650 -0.9049370119374875 0.4209879161769997
4471574 -0.9049598990010577 0.42135155994556606
4472499 -0.9053539079134092 0.4216301025440579
4473423 -0.9053684698538889 0.42108469374564983
4474348 -0.9055279791664762 0.4213057460253493
4475272 -0.9049484535904038 0.4212003607149546
4476197 -0.9050927529050972 0.4213454906600571
4477121 -0.905111993824194 0.4213702821675933
4478046 -0.9045818559779112 0.42124832410508317
4478970 -0.9044791276875376 0.4216853116924477
4479895 -0.9046436010888467 0.42198179353833587
4480819 -0.9044971386907613 0.4221696774694955
4481743 -0.9051313535344089 0.42228890615403364
4482668 -0.9050300815134937 0.42258992371084564
4483592 -0.9048300882800338 0.4224528515702091
4484517 -0.9051197937605637 0.4223726497921749
4485441 -0.9049269914660415 0.42226734106532227
4486366 -0.9045580705303518 0.4224938686529602
4487290 -0.904277339958257 0.4220758753792634
4488215 -0.9039696890937299 0.4214861323537533
4489139 -0.9036661231137454 0.4219711269590307
4490064 -0.9042597759779463 0.42246470632166444
4490988 -0.9042506860236033 0.4231792855394569
4491913 -0.9040629520807475 0.4231890931849793
4492837 -0.903915528528461 0.42289320481720205
4493761 -0.903925506095035 0.42289637014993126
4494686 -0.9042816124060095 0.42308907711748694
4495610 -0.9040645276809648 0.4228125147333627
4496535 -0.903907162781514 0.42294082708809005
4497459 -0.9040142337377528 0.4232648244119431
4498384 -0.9047513300740887 0.4232845869631236
4499308 -0.9047648149045958 0.4233910950575735
4500233 -0.9048116796265679 0.42367363812877873
4501157 -0.9046802734014211 0.4241479131060021
4502082 -0.9044901460707996 0.42396602166755926
4503006 -0.9048731597824892 0.423527563121739
4503931 -0.9046343545059327 0.4236335800799898
4504855 -0.9041509938659158 0.4236541138373455
4505779 -0.9044070585325965 0.4242210586680665
4506704 -0.9043746406701905 0.42382618974916214
4507628 -0.9043009578506378 0.4240815029294921
4508553 -0.9042516363249025 0.4243139397781852
4509477 -0.904207383724242 0.4245048202407335
4510402 -0.9036236668087979 0.424155457901986
4511326 -0.90372198433581 0.4243786845966838
4512251 -0.9032053651332139 0.4245049533874189
4513175 -0.9031927193640253 0.4246712994102509
4514100 -0.9036295835828149 0.4247763009009125
4515024 -0.9024853826351872 0.4245684113978394
4515949 -0.9027714543862706 0.4247900057115548
4516873 -0.9029447879484823 0.4252104826108435
4517797 -0.903432653667796 0.42488390688157207
4518722 -0.9033708043086276 0.424630038276954
4519646 -0.9035584748997543 0.4250783428213561
4520571 -0.9038463067223277 0.42538512811293483
4521495 -0.9032636486418341 0.42508391708474774
4522420 -0.9029181666161121 0.42500541521410096
4523344 -0.9031058013510509 0.4254854173075851
4524269 -0.9033645698551563 0.426054561133165
4525193 -0.9033346406550405 0.4261939321706864
4526118 -0.9031193419599907 0.42620288516409655
4527042 -0.9031727801263157 0.42636198440647566
4527966 -0.9032678028346404 0.42631240816388544
4528891 -0.9030623091409475 0.4259780410034097
4529815 -0.9030162329996743 0.42625177544848797
4530740 -0.9030539287671081 0.4263349665754248
4531664 -0.9032689089025671 0.42595855811103006
4532589 -0.9032877279272407 0.4260091033528155
4533513 -0.9031996617443235 0.426205065457354
4534438 -0.9032531120940309 0.42654084441994133
4535362 -0.903497675572485 0.4264202672470183
4536287 -0.9034130590119719 0.4266879317381635
4537211 -0.9036321962596211 0.4264410887698882
4538136 -0.9030731726872989 0.42670988304976093
4539060 -0.903218208948996 0.4269806550882766
4539984 -0.9032769789724222 0.42708217523750747
4540909 -0.9033490646826016 0.42729149548047907
4541833 -0.9027959026453626 0.42748008679343447
4542758 -0.9032049450579847 0.4278293989890892
4543682 -0.9035147735337606 0.4275780830716323
4544607 -0.9031110823766203 0.4273206703408244
4545531 -0.902765998950698 0.4278231360409091
4546456 -0.9026382144401305 0.427855197078452
4547380 -0.902615519263435 0.4278155429514672
4548305 -0.902247503937984 0.42778655671253474
4549229 -0.9024451753385511 0.4280462435957633
4550154 -0.9029439096724388 0.42796743103343293
4551078 -0.9029994428232256 0.42817797025637416
4552002 -0.9030280484618871 0.42772639829822356
4552927 -0.9026428680294245 0.42773263717446736
4553851 -0.9022736480674368 0.42759134749801353
4554776 -0.9025267592489027 0.42759096698719073
4555700 -0.9026850654764821 0.4277267780166745
4556625 -0.9027754249427046 0.4281593783346028
4557549 -0.9028386939041815 0.42831051081815846
4558474 -0.9028668195714284 0.42850508045839353
4559398 -0.902580895959963 0.4290253404988426
4560323 -0.902481902772817 0.42935450523936913
4561247 -0.9026059474533799 0.4290674713504128
4562172 -0.9024648361961516 0.42934670067481456
4562172 -0.9021333269473155 0.4292592255853337
4563115 -0.9020563112267493 0.4290893443824414
4564059 -0.901571624931539 0.42907352168033003
4565002 -0.9020786329733824 0.4290866342193526
4565946 -0.9019804375351423 0.42928667754486916
4566889 -0.9014558381712844 0.4291888775879312
4567833 -0.901176915675396 0.42890367017579706
4568777 -0.9016297308065087 0.42962879667672044
4569720 -0.9016068720117367 0.4293342594192846
4570664 -0.9018779405516559 0.4290345223560888
4571607 -0.9016835331718797 0.42915904752330725
4572551 -0.9020359472907096 0.42936340887024255
4573494 -0.9019206977336796 0.4292927850256277
4574438 -0.9017143874591148 0.4295978102021634
4575382 -0.9020459566297334 0.4299558645874348
4576325 -0.9014196486510965 0.43040936051973616
4577269 -0.9017425368606866 0.4303684321323445
4578212 -0.9015174963932364 0.4297201707659354
4579156 -0.9013511420630294 0.43012105567485204
4580100 -0.9016776214097914 0.4303608029029892
4581043 -0.9016227043372311 0.43044381222749206
4581987 -0.9015215145676369 0.4305956233790525
4582930 -0.9014317409405039 0.43092381169134314
4583874 -0.90112957205414 0.43174369867786794
4584817 -0.901663146215538 0.43169138770639603
4585761 -0.9011328547775485 0.43169150385789146
4586705 -0.9010788554297524 0.431829665367443
4587648 -0.9011015783069171 0.4313183049998594
4588592 -0.9010081335094484 0.4313228226703592
4589535 -0.9002707896418417 0.43119044741426926
4590479 -0.9010833194692486 0.43149620782060794
4591422 -0.9010287283900025 0.4310768861746406
4592366 -0.9009559535738244 0.431145771516356
4593310 -0.900772142999914 0.4313910388642354
4594253 -0.9009285429586078 0.43162628074774223
4595197 -0.9010276571920304 0.43203783622924335
4596140 -0.9008414467903981 0.43178547046951676
4597084 -0.9007420281504034 0.43185020803458873
4598028 -0.9005521540424721 0.43221805006526426
4598971 -0.9008477188440388 0.43248583997164897
4599915 -0.9005763796559739 0.43170652743113186
4600858 -0.9003023341976503 0.43211211626304363
4601802 -0.9003554290298451 0.4324484934271951
4602745 -0.9002529760623542 0.4329719006604642
4603689 -0.9000749235812845 0.4330255581399281
4604633 -0.8998404546526139 0.4330955496319943
4605576 -0.9000702404288307 0.4332264037917584
4606520 -0.9000244256224051 0.43288494834476454
4607463 -0.9003851163434459 0.4328710074690897
4608407 -0.8999835522946861 0.43289761582314407
4609351 -0.9003080633064582 0.432960187519515
4610294 -0.9005773874401398 0.43284159407948447
4611238 -0.9002792450866867 0.4325897669511499
4612181 -0.9003378727552483 0.4331447482622908
4613125 -0.9001371106160648 0.433537533155666
4614068 -0.9008047225332391 0.43361621692333646
4615012 -0.9008891571743541 0.4332320002146833
4615956 -0.90026484358686 0.4330568298619837
4616899 -0.9000577642565745 0.4329355270299934
4617843 -0.8996672896640988 0.4330749284362964
4618786 -0.8996070629442678 0.4334226916859143
4619730 -0.8993137786394326 0.4334813201938101
4620673 -0.8995010387388391 0.4336970776828082
4621617 -0.8992258603919011 0.43417312055952384
4622561 -0.899574262454489 0.4342599642054722
4623504 -0.8994347987414234 0.4344428349411269
4624448 -0.8993519956953671 0.4344131135101205
4625391 -0.899454796201389 0.43428236928549935
4626335 -0.8996431214466639 0.43395814576909075
4627279 -0.8990837076913688 0.4336006802689999
4628222 -0.8992516914501181 0.434147131213692
4629166 -0.8992766792516871 0.4343033385992453
4630109 -0.8993895343388535 0.4345017708381396
4631053 -0.8986911502702245 0.4345274695822827
4631996 -0.8995695485402126 0.43512435412037676
4632940 -0.8997000619843377 0.4348767203188088
4633884 -0.8992992463739832 0.4347724895427985
4634827 -0.899006943274913 0.43467345245736566
4635771 -0.8989693476023772 0.43506911137331744
4636714 -0.8992938650563529 0.43526708651502277
4637658 -0.898570061895746 0.43469947132998454
4638601 -0.8988898562956786 0.4351165484474748
4639545 -0.8987292258012571 0.43530399512541523
4640489 -0.8991918023227875 0.43583029624389136
4641432 -0.8992499541846511 0.4359011206014434
4642376 -0.8990963244436965 0.43623262890752273
4643319 -0.8988127779497281 0.43603272949572247
4644263 -0.8992593022714095 0.4360803172670314
4645207 -0.899156430346585 0.43627224107053236
4646150 -0.8986279595050386 0.4360097753640714
4647094 -0.898026353065194 0.4359951235382865
4648037 -0.8979974133980674 0.43560824420476635
4648981 -0.8977716291431794 0.4353819714496983
4649924 -0.898371598461405 0.4358929576267065
4650868 -0.898530659523578 0.4359854890280467
4651812 -0.8988788398373294 0.4363553791744518
4652755 -0.8986962853389151 0.4361461183496439
4653699 -0.8985413068731449 0.4363243202881013
4654642 -0.8982977492293293 0.43666234580438923
4655586 -0.8985526878969106 0.43683587836324206
4656530 -0.898419476802382 0.4369786932634081
4656530 -0.8978932915097849 0.4370057744679294
4657493 -0.8982617847957047 0.43746404438468617
4658456 -0.8984845605036484 0.43730366033098955
4659419 -0.8985410594511295 0.43738485776884173
4660382 -0.8983934452641831 0.4377998473472932
4661345 -0.8986693794845214 0.43788445688567146
4662308 -0.8986300898831311 0.43797026966908703
4663271 -0.8980595809252191 0.43799462811868034
4664234 -0.8973386261775269 0.43786669388842253
4665197 -0.8975837864648974 0.4385606521359847
4666161 -0.8975657090440183 0.4379627509343321
4667124 -0.8975973765802495 0.438438202160274
4668087 -0.8974136569408339 0.4384445498310106
4669050 -0.8983556655578346 0.43822122241949885
4670013 -0.8978334385070201 0.43789665662691907
4670976 -0.8979811619593064 0.43773651861314494
4671939 -0.8976736102291007 0.4380439671006946
4672902 -0.8974483111941537 0.43795674341330754
4673865 -0.8970970286293464 0.4382548046882992
4674828 -0.8978599310903997 0.4381654931993208
4675792 -0.8974119614057333 0.43890257081355105
4676755 -0.8979395211865114 0.4387168911626198
4677718 -0.8974778372800649 0.43875107225386534
4678681 -0.8974698689840066 0.43872770064296357
4679644 -0.8975688928513346 0.4387004380888336
4680607 -0.8975296619945037 0.4390508915606314
4681570 -0.8973279577966354 0.43904630861890226
4682533 -0.8967386058407111 0.439265111001778
4683496 -0.8968698645011788 0.4393818823481128
4684459 -0.8974192594752415 0.43943273646682385
4685423 -0.8970567860769505 0.43925707632972016
4686386 -0.8972987953327802 0.4394718301334433
4687349 -0.8973298245606681 0.439956624858193
4688312 -0.8975546036373738 0.4397737936467346
4689275 -0.8969647292271842 0.4397106021176373
4690238 -0.8968500772210848 0.43997883234301893
4691201 -0.8970315478544113 0.44002409785738567
4692164 -0.8969866488500583 0.4401411305371506
4693127 -0.8968256878265335 0.43999124904688697
4694090 -0.8965965555887501 0.4404657438979084
4695054 -0.8973305228123944 0.4408423888717253
4696017 -0.8973905373749902 0.4407318893114158
4696980 -0.8968753460561314 0.44076913595656625
4697943 -0.8966569788820755 0.4407908366304381
4698906 -0.8966645329889769 0.44080510345081303
4699869 -0.8972154019877754 0.44062321893632295
4700832 -0.896635737582989 0.44054081738330136
4701795 -0.8968441874073216 0.441128986021508
4702758 -0.8969966581414195 0.44098069507222043
4703721 -0.896633924393413 0.441025381990586
4704685 -0.8966984743305303 0.4409599760677844
4705648 -0.896511016449442 0.441152125841878
4706611 -0.8968236033980816 0.44139860986826723
4707574 -0.8967054402871408 0.4410289099930666
4708537 -0.8962441729169358 0.44138998229822124
4709500 -0.8961435081462299 0.44149944074606207
4710463 -0.8960967175539144 0.4420380861033127
4711426 -0.8961818075210279 0.44193874977654857
4712389 -0.8959044996808619 0.4415992608095983
4713352 -0.8962579875636593 0.44182935976670806
4714316 -0.8965738429259875 0.44155638622296944
4715279 -0.8961898329683325 0.4420704027597125
4716242 -0.8957592024989206 0.44170017338538675
4717205 -0.8954965918320481 0.44210516202108585
4718168 -0.895766809718117 0.4423967427706581
4719131 -0.8954611622898612 0.441978937304899
4720094 -0.8956241744147337 0.4422029949276519
4721057 -0.8956634132441318 0.44274514409828297
4722020 -0.8960894664724706 0.4422144414705745
4722983 -0.8955769543026109 0.4421778670373644
4723947 -0.895344643350638 0.44230521992199917
4724910 -0.8955282902519639 0.44249017007296315
4725873 -0.8957231490603974 0.4427558691991553
4726836 -0.8955213011655381 0.44285464217715437
4727799 -0.8951861672485395 0.4429145586483888
4728762 -0.8953587360528191 0.4434819023610056
4729725 -0.8952313044229543 0.4434029812078489
4730688 -0.8952962659040895 0.44325704394697285
4731651 -0.8953203791742982 0.44366625322637737
4732614 -0.895566304871334 0.44390861126679554
4733578 -0.8958530021301213 0.4439067338981552
4734541 -0.8954657006993362 0.443862558370811
4735504 -0.8955109814552722 0.44424914532183546
4736467 -0.895203403874986 0.4444042596384323
4737430 -0.895683330503274 0.444362429826083
4738393 -0.8954481044607898 0.4438906613655804
4739356 -0.8953981502014217 0.4441252599561934
4740319 -0.895215982889765 0.44436733377415844
4741282 -0.8952833913981797 0.4440466181613398
4742245 -0.8949517294049715 0.44449194243273227
4743209 -0.8946772894982679 0.44424891542221034
4744172 -0.894935284768269 0.4444414455230925
4745135 -0.8948246923280545 0.44446062817922427
4746098 -0.8947280613133605 0.4446977412614979
4747061 -0.8943789649346827 0.4450600881051871
4748024 -0.8945919602540738 0.44462967167480694
4748987 -0.8948826445299545 0.44430633511745016
4749950 -0.8947243140873994 0.4443413586022668
4750913 -0.8943560755789939 0.44517579270017255
4751876 -0.8948739370891017 0.44447048567380726
4752840 -0.894841837230971 0.4441701921653138
4752840 -0.8949123098279569 0.44507910369433973
4753823 -0.8944666273683426 0.4449342714947224
4754806 -0.8943245179212785 0.44536994072587655
4755789 -0.8941319960834141 0.44533245928603393
4756772 -0.8941483093228902 0.4457172104320159
4757755 -0.8940887766726192 0.4460600646818377
4758738 -0.8943632447923787 0.4465285987015081
4759721 -0.8945070296472822 0.4460871286973035
4760704 -0.89469432129154 0.4462208092493386
4761687 -0.8942631172450071 0.44607109530785694
4762670 -0.893921349725506 0.44653690069632535
4763653 -0.8939967095909133 0.44643424745411064
4764636 -0.8937959573528368 0.4458704700929477
4765619 -0.8940263804459649 0.4454052469925034
4766602 -0.8940903643934168 0.44633789150408365
4767585 -0.8938610021378361 0.44598508137859794
4768568 -0.893818416133296 0.4455353760865806
4769551 -0.8934019220962341 0.44620350595700103
4770534 -0.8938746289409567 0.44693373107098433
4771517 -0.8939524642571773 0.44648697642450735
4772500 -0.893932641821776 0.44668346263282777
4773483 -0.8937546026989632 0.4464697499036985
4774466 -0.8939910917052123 0.4470155173782056
4775449 -0.8937178273725817 0.4468548807358229
4776432 -0.893695424795119 0.447766864803733
4777415 -0.8934836217688308 0.44828549864259
4778398 -0.894009318842556 0.4479382325792984
4779381 -0.8937026505884244 0.44750367167758454
4780364 -0.8936772283646817 0.44690930522106703
4781347 -0.8933841957101754 0.44721157208595874
4782330 -0.8932548438972211 0.4474030816042721
4783313 -0.8928885089897397 0.44730201000993036
4784296 -0.8928937943609495 0.4473301706168961
4785279 -0.893086362977921 0.4477278136101064
4786262 -0.8925082863259789 0.4475419334161166
4787245 -0.8932543699194352 0.44739854507869986
4788228 -0.8926101520860726 0.4471660778007584
4789211 -0.892420914191052 0.4472586205181116
4790194 -0.8927847879046439 0.4474651299420702
4791177 -0.8927089037449432 0.44750446979988684
4792160 -0.893339241053611 0.4481499267771783
4793143 -0.8933220764228005 0.44867676953101804
4794126 -0.8931099005682971 0.4492788866216551
4795109 -0.8931233328949291 0.44911963803727967
4796092 -0.8932387947861488 0.44931326098240315
4797075 -0.8929835108433032 0.44943173924253466
4798058 -0.893278803870864 0.44906006774708473
4799041 -0.8928853175218009 0.44909618763189085
4800024 -0.8925852503762375 0.44968676345751096
4801007 -0.8921411241547439 0.449515491399176
4801991 -0.8925927625527647 0.44942590217743
4802974 -0.8917781651408155 0.448459405186924
4803957 -0.8918930216828508 0.4492314964731948
4804940 -0.892263786517893 0.44897765317247507
4805923 -0.8922083564411284 0.4502520119163787
4806906 -0.8918881516021769 0.4500372541329231
4807889 -0.8921868212702552 0.44987128957970185
4808872 -0.8916816515882102 0.449720476621219
4809855 -0.8922296836201206 0.44936494284761636
4810838 -0.8925997715474498 0.44922011573205256
4811821 -0.892478117679737 0.44952617224769775
4812804 -0.8923366855323934 0.44955214886890943
4813787 -0.8920629352133286 0.450570589499998
4814770 -0.8923341186123921 0.45052075603709835
4815753 -0.8922495686634968 0.45008870804323736
4816736 -0.8916825695894516 0.4502961155399821
4817719 -0.8915174371978085 0.4504759544687825
4818702 -0.8916322152541913 0.4506758863175599
4819685 -0.8916202261998362 0.45118048644206427
4820668 -0.8916426565264439 0.4516556362753543
4821651 -0.8917590839996101 0.45204853922309934
4822634 -0.8915759812719023 0.4514728094321951
4823617 -0.8915438301200491 0.45123453329105245
4824600 -0.8913943574090182 0.4510393194849252
4825583 -0.8915634544878737 0.45136103423036483
4826566 -0.8909518434615856 0.45053298396146
4827549 -0.8903818448550116 0.4505669048423677
4828532 -0.8911445897706471 0.4509268172191648
4829515 -0.8917629010986763 0.4509801892794369
4830498 -0.8916180864604505 0.4513671874041386
4831481 -0.89144446860616 0.4516186214648654
4832464 -0.8912468226819551 0.4520164852750424
4833447 -0.8912832067293908 0.4516808718411788
4834430 -0.8910611383806004 0.4519422220241485
4835413 -0.8910670737358705 0.45250679783035763
4836396 -0.8917213245059262 0.45287763649542584
4837379 -0.8915469930184102 0.45257440303238156
4838362 -0.8915086356309281 0.45256880351458806
4839345 -0.8911414726446695 0.4526203209200315
4840328 -0.8915161344867898 0.4526254704320187
4841311 -0.8912204327207818 0.4526609616269638
4842294 -0.8909096281918775 0.4522997427997045
4843277 -0.8907266425575128 0.45290695867105646
4844260 -0.890778466573255 0.4526411328794398
4845243 -0.8906612614359486 0.4525723622962907
4846226 -0.8905246608935793 0.45260785816554544
4847209 -0.8908735673932479 0.4528173878333832
4848192 -0.8910539767291974 0.45267916242700373
4849175 -0.8903364255530976 0.45316062665368473
4850158 -0.8900704113003292 0.4533338660197038
4851142 -0.890381133868732 0.4541762363195296
4851142 -0.8904968867338207 0.4542020656614747
4852145 -0.8903439000127532 0.4540343611277682
4853148 -0.8907357766931442 0.4540739181889557
4854152 -0.8906332790456996 0.4536979936632742
4855155 -0.8909475924674818 0.45381076241704976
4856158 -0.8906247542261189 0.45349355946928416
4857162 -0.8903298239994896 0.4533349980537041
4858165 -0.8903235991920323 0.45342024391042474
4859168 -0.8894445739285174 0.45381420133418604
4860172 -0.8898939989955121 0.4536616269622591
4861175 -0.890044539710144 0.45413645294693183
4862178 -0.8900209656906238 0.45398639311997857
4863182 -0.889733778564355 0.453996401946834
4864185 -0.8903122721464493 0.4546522007194066
4865188 -0.890320909580434 0.45488201226048164
4866192 -0.8897517734584311 0.45440317660813545
4867195 -0.8899255736795975 0.45512011252546825
4868198 -0.889816613990896 0.4553313745391752
4869202 -0.8899670777005775 0.45484414602687834
4870205 -0.8898341416119402 0.45514150450734236
4871208 -0.8896697231584552 0.454488329954967
4872212 -0.8897755704352056 0.45469441050764314
4873215 -0.8891149045494898 0.45489224735257616
4874218 -0.8895433748456678 0.45541581866373665
4875222 -0.8893962250280215 0.4558764089725579
4876225 -0.8893917362590168 0.4555618615557632
4877228 -0.8895651072082424 0.4559329244693088
4878232 -0.8894294433107464 0.4565411257874323
4879235 -0.889420319357802 0.456570137770979
4880238 -0.8896667881464547 0.45600390435396165
4881242 -0.8888696975878625 0.45620201517238534
4882245 -0.889422718714189 0.45601936586488867
4883248 -0.8894096031658761 0.4556585854853673
4884252 -0.8888380707896611 0.455079197572417
4885255 -0.8886656028733836 0.45573666425059456
4886258 -0.8887414239589603 0.45589384692036367
4887262 -0.8889458767544816 0.45576309707650464
4888265 -0.8888259302536233 0.4562220313752655
4889268 -0.8884113591646836 0.45634815990555816
4890272 -0.8885575130374582 0.45680752471095376
4891275 -0.8890331826754312 0.4575057754545169
4892278 -0.8890523461479766 0.4572293273589886
4893282 -0.8890059574056126 0.45728757277367355
4894285 -0.888818870646204 0.457100497530504
4895288 -0.8892942152756401 0.45738623247875637
4896292 -0.8888058501772692 0.45722595430332275
4897295 -0.8882432394611744 0.4569776079491181
4898298 -0.8882326802585925 0.4568745255777293
4899302 -0.8879605834534816 0.4566791606192935
4900305 -0.8882241086469175 0.4568023470907116
4901309 -0.8886657716030691 0.4568423263256539
4902312 -0.8887301523609666 0.4569823207427967
4903315 -0.8884618953177776 0.45703034480408566
4904319 -0.8885448833945772 0.45708234246789153
4905322 -0.8879917107473955 0.4572468950464969
4906325 -0.8879531625087156 0.45778694679491444
4907329 -0.8878089651777242 0.4576440516657023
4908332 -0.8876312891396582 0.4579685473605204
4909335 -0.8884645551570433 0.45828991751446174
4910339 -0.8881264159574517 0.45907869686242503
4911342 -0.8879157985974003 0.45888851811361436
4912345 -0.8880135131806864 0.45916207078950216
4913349 -0.8879518340871898 0.4588163568259216
4914352 -0.8883116376378027 0.45865010654379423
4915355 -0.8881783962735385 0.4584542708538798
4916359 -0.8872350390436953 0.458346319500548
4917362 -0.8879604096159105 0.45868292355023116
4918365 -0.8876622988800243 0.4588306676168839
4919369 -0.8878340481567594 0.45879754551287805
4920372 -0.8872440109583465 0.45910502111587287
4921375 -0.8875245337824942 0.45931743533447605
4922379 -0.887288125179598 0.4593121176447909
4923382 -0.8873285778382103 0.45964919213968586
4924385 -0.8876967078408738 0.460208535010514
4925389 -0.8879230704159382 0.4602000620881368
4926392 -0.8874742554887792 0.46009069770781313
4927395 -0.887566090806633 0.46002683661698623
4928399 -0.8873623169244002 0.45946933759073977
4929402 -0.8874072208707501 0.45926162647149293
4930405 -0.8863845847249686 0.45916761837831976
4931409 -0.8870878414885416 0.4600601502784685
4932412 -0.886760575642238 0.4600130773883554
4933415 -0.8868470538942801 0.45966174186973796
4934419 -0.886952464800669 0.4601603784662528
4935422 -0.8873439132494789 0.4602827869405833
4936425 -0.8871374085046498 0.46043146648217254
4937429 -0.8871229654852397 0.46076463457436356
4938432 -0.886811695014482 0.460901024770215
4939435 -0.886712613552957 0.4609797509229021
4940439 -0.8869244744336863 0.4608083494946714
4941442 -0.8870439426271645 0.4605958996756892
4942445 -0.8869675985348378 0.4606368012471352
4943449 -0.8869789949177924 0.4604607112125273
4944452 -0.8866784058816969 0.4606062721155806
4945455 -0.8869603435567902 0.46099434078090057
4946459 -0.8864607829803364 0.46117468591068217
4947462 -0.8868823678203894 0.46174470608779683
4948465 -0.8863687414965159 0.46187388310201133
4949469 -0.8864112219575401 0.46238245602054434
4950472 -0.8867471530593309 0.4623256420423156
4951476 -0.8871320693957034 0.46233331864378685
4951476 -0.8868109606801725 0.4627395637700295
4952500 -0.886907018556277 0.4623930041786692
4953524 -0.8866856266516013 0.4618319636392231
4954548 -0.8861093185425591 0.4615929345596302
4955572 -0.8851184196902577 0.4611576837169273
4956596 -0.8855976917416871 0.4617021259025805
4957620 -0.8860095400582612 0.46195393773418103
4958644 -0.8856092508376264 0.46210174859987013
4959668 -0.8855561365771996 0.4628168126780151
4960692 -0.8858646093394466 0.4632523730586035
4961717 -0.8856517231625426 0.463006663407297
4962741 -0.8856720568956189 0.46273252437320883
4963765 -0.8853324836366633 0.46285310450169465
4964789 -0.8852478943051297 0.4625154567520618
4965813 -0.884572905003277 0.46195175550712675
4966837 -0.8849738166468636 0.4629201306916342
4967861 -0.8858074560054418 0.4629947423955931
4968885 -0.8859384916891005 0.4634331582930785
4969909 -0.886017747160238 0.46353396849214584
4970933 -0.8859946986541762 0.4637527882051172
4971958 -0.8858431279960108 0.46399719836002656
4972982 -0.8859806362567348 0.464350472336384
4974006 -0.8855036582786097 0.4641621427499958
4975030 -0.8855138318556224 0.46398306448544796
4976054 -0.885478271677578 0.46333378693597216
4977078 -0.8855226979076483 0.46326950613169593
4978102 -0.8851944015377865 0.46380533930649404
4979126 -0.8851100556182974 0.46400007293019424
4980150 -0.8851397904986272 0.46438480706349256
4981174 -0.8855621949824509 0.46452637486314874
4982199 -0.8849977023610083 0.46434280992664584
4983223 -0.8854381257472601 0.4649261543749791
4984247 -0.8851090723197745 0.46421587571023887
4985271 -0.8854965583168151 0.46437472142507896
4986295 -0.8853734989020807 0.46416906248895884
4987319 -0.8846017839605436 0.4641952940180118
4988343 -0.8848266135541306 0.4643174250872275
4989367 -0.8841656463774958 0.46448695019700786
4990391 -0.8848499280160738 0.4652313086214272
4991415 -0.8848482485750172 0.46525232094090807
4992440 -0.8839257513943651 0.4651308067155907
4993464 -0.8842550868732383 0.4656239512577134
4994488 -0.8845115920977871 0.4654818934589355
4995512 -0.8845341354720514 0.4652753945960591
4996536 -0.8844728417250419 0.4646538322000592
4997560 -0.8843745576564077 0.46507235066060415
4998584 -0.8841925511512766 0.4652263823101972
4999608 -0.883760543096178 0.4652182664771605
5000632 -0.8837217002560575 0.4655673538981469
5001656 -0.8839607989893516 0.46597124738604256
5002681 -0.8839498551288347 0.46608298278345284
5003705 -0.8839778561799393 0.4660932698818246
5004729 -0.8839351237651917 0.46678732723522504
5005753 -0.8842351283997604 0.46669693200161255
5006777 -0.8845553685558214 0.46639984644960303
5007801 -0.8843784229400856 0.4661603066251156
5008825 -0.884113986035725 0.46658283978099097
5009849 -0.884324017314534 0.4665456945376776
5010873 -0.8840795919622804 0.46704661862211194
5011897 -0.8840291109227455 0.4670414861114154
5012922 -0.8835526185817062 0.4673534139666043
5013946 -0.8838500395316722 0.4674328688653404
5014970 -0.884174057351917 0.4663855977427004
5015994 -0.8835772483711034 0.4662111246621729
5017018 -0.8835630495157523 0.4664391795480664
5018042 -0.8833674638431874 0.46657983102661055
5019066 -0.8834027630882587 0.4665204104859935
5020090 -0.882898743671623 0.4676677419781278
5021114 -0.8834962158400523 0.467914094610797
5022138 -0.8835250561242602 0.4683087039698252
5023163 -0.8830409819545358 0.4682934389899651
5024187 -0.8834421944955588 0.468632590385683
5025211 -0.8833258443107014 0.46846784209249126
5026235 -0.8828311224924207 0.46763957335374995
5027259 -0.8827305188584106 0.4674576585024723
5028283 -0.8826919412119272 0.467433422692086
5029307 -0.8829905905097749 0.4680303322054937
5030331 -0.8830449921479585 0.46793295810280156
5031355 -0.8827645677965715 0.4682935373357199
5032379 -0.882774298245988 0.4684375023027876
5033404 -0.882718307471273 0.4683143662385046
5034428 -0.8826926480652979 0.4684466261236642
5035452 -0.8829836964718797 0.4682146271674658
5036476 -0.8831970094349295 0.4680533229987237
5037500 -0.8827767061694428 0.4678869920217141
5038524 -0.8817647663884063 0.46797750071888805
5039548 -0.881899254655071 0.46884356982158903
5040572 -0.8824831899839742 0.46885481885522184
5041596 -0.8821487078439291 0.46925839028112115
5042620 -0.8824780437442484 0.4697453183616859
5043645 -0.882267795616475 0.4693087095751209
5044669 -0.8826582563556445 0.46979401214592653
5045693 -0.8826014504784185 0.4698588200530449
5046717 -0.882145713997829 0.4699464478211896
5047741 -0.8829333065822579 0.469316453807575
5048765 -0.8823026082138019 0.46948399046349626
5049789 -0.8819810315556641 0.46965878898531915
5050813 -0.8815981155849015 0.47027848847124015
5051837 -0.8820798406424819 0.4699694242688784
5052861 -0.8818765375275435 0.47041044363491546
5053886 -0.8814268199328934 0.4709238043714838
5053886 -0.881802333720334 0.4698045703852643
5054931 -0.8815582081226204 0.47058970118828425
5055976 -0.8816499938053007 0.47111564501745157
5057021 -0.8817509228266383 0.4710500840380901
5058067 -0.8817166227335459 0.47105921676445095
5059112 -0.882101303907521 0.4707375483213828
5060157 -0.8819665327408016 0.4705167053205094
5061202 -0.8815530421424387 0.46984593835490934
5062248 -0.8815727612930099 0.4706512653486878
5063293 -0.8810851928096939 0.4708567974506868
5064338 -0.8809625510263563 0.4714217266717631
5065384 -0.8813676935981707 0.47121057750390755
5066429 -0.8816411897247404 0.4716733630450141
5067474 -0.881830991939394 0.471323675738403
5068519 -0.881755376544398 0.4708940187989117
5069565 -0.8816272310444114 0.4711870278435956
5070610 -0.8812737938678988 0.47130419488061964
5071655 -0.8814207301468444 0.4711558853679687
5072701 -0.8812974249270372 0.4717695009983598
5073746 -0.8814961379931301 0.47227782821340714
5074791 -0.8815420325107542 0.47173105492861955
5075836 -0.8813196247099485 0.47146697133635357
5076882 -0.8810033720360266 0.4712317167898903
5077927 -0.8809273503523591 0.4718726661049279
5078972 -0.8804892489712973 0.4714325015361849
5080018 -0.8804656361676099 0.4727346631692884
5081063 -0.8805659712621875 0.4732156706697459
5082108 -0.8811730789166603 0.4725087315574829
5083153 -0.8809440888748983 0.4731030960563615
5084199 -0.8808369841640558 0.4728719177990815
5085244 -0.8811151057771321 0.47251790101188507
5086289 -0.8801664813322464 0.47240646837485845
5087334 -0.8803483756398607 0.47276094568636023
5088380 -0.8802575817595725 0.4733756982554063
5089425 -0.8806110499464159 0.47362729738543846
5090470 -0.8805801445449508 0.47343198400547
5091516 -0.8805641970095806 0.47371819913344887
5092561 -0.8804436780735426 0.47341277968017337
5093606 -0.8807841181844328 0.4723426059517629
5094651 -0.8796928895472651 0.47249500150642115
5095697 -0.8798711449011762 0.47329081091699904
5096742 -0.8802674334066636 0.47388575687790335
5097787 -0.879639474036462 0.4741728384097931
5098833 -0.8794933559671873 0.47408670614585025
5099878 -0.8798858920143965 0.4748830755460456
5100923 -0.8798949613125653 0.47363695787857923
5101968 -0.8801175346322022 0.4734673579878423
5103014 -0.8800009341219239 0.4739092488923368
5104059 -0.8799746835635643 0.4736565419281958
5105104 -0.8795386125849217 0.4734965947056512
5106150 -0.8798844843287015 0.47490536506570225
5107195 -0.8799564195152539 0.4753735896197947
5108240 -0.8795506039169354 0.47509160235572345
5109285 -0.8796157916918708 0.47537806370776176
5110331 -0.8799553807223838 0.4753253744244744
5111376 -0.8797682001367163 0.4749513943179865
5112421 -0.8799116526162538 0.47421647258224825
5113466 -0.8786639487996625 0.47456458067803386
5114512 -0.8793700698266804 0.47470263623462533
5115557 -0.8792540290370882 0.4751842730657557
5116602 -0.8783049140066931 0.47529561935571796
5117648 -0.879567387628857 0.4753679960160609
5118693 -0.8796260386408102 0.4755708237938278
5119738 -0.879195196671597 0.4755321088319916
5120783 -0.8791745522715311 0.4748697079464985
5121829 -0.8788553064586655 0.4750216664883056
5122874 -0.8785441204523404 0.47458293662304196
5123919 -0.8781115730708196 0.4750397339117341
5124965 -0.878362370341396 0.47628105718438335
5126010 -0.8785039480961706 0.4762022399160746
5127055 -0.8789007928998295 0.47581270343766735
5128100 -0.8790457865889393 0.4763875632087122
5129146 -0.8791127144974852 0.4763272170482285
5130191 -0.8787219668777554 0.47561148310990387
5131236 -0.8777760139296417 0.47638319538879254
5132282 -0.8781254539584569 0.47711920333668206
5133327 -0.8787066959267169 0.47729019597946454
5134372 -0.878498223418638 0.47743028900621276
5135417 -0.8792754641093706 0.4775639213041612
5136463 -0.8790602453216488 0.47764191862774996
5137508 -0.8789781554438296 0.47742579879027514
5138553 -0.8785955654948255 0.47695697270082793
5139598 -0.8782710450856973 0.47688699199019374
5140644 -0.8784875264956589 0.47759991383863626
5141689 -0.8780386606492766 0.4773562836605904
5142734 -0.8776262698686192 0.4777293573419862
5143780 -0.8780547814574012 0.47812928249245307
5144825 -0.8785337575180131 0.47805639507149744
5145870 -0.8786888149000303 0.4776965073082135
5146915 -0.8784499236280549 0.4776789816576454
5147961 -0.8787229233372155 0.4770715076419085
5149006 -0.8779643149222149 0.4768833189240504
5150051 -0.8773588547590634 0.4776927569879926
5151097 -0.8776245143452517 0.4784751589861917
5152142 -0.8775505470349464 0.47868411259263716
5153187 -0.8779421985273381 0.4785347690663298
5154232 -0.8774539623394879 0.4791113298899968
5155278 -0.8780159815952765 0.4789380841405102
5156323 -0.8781966906951466 0.47800230121158893
5157368 -0.8773843528901454 0.4785659641119683
5158414 -0.8773356120213922 0.4788622663694819
5158414 -0.8773279540252152 0.47935457914690843
5159480 -0.8771329808969481 0.47975481931743796
5160547 -0.8774334850818599 0.4792419297843267
5161614 -0.8772026773202627 0.478896208578567
5162681 -0.8768631413829109 0.4791469991328167
5163748 -0.8768265940233887 0.4801583271430899
5164815 -0.8765921494538813 0.4801008065036515
5165882 -0.8768626630792055 0.4797506485324625
5166949 -0.8765434175135969 0.47976444545565294
5168016 -0.8770196301458189 0.4794274645352591
5169083 -0.877234118305382 0.47879860090598475
5170149 -0.8768784817037784 0.4790180742364375
5171216 -0.8770065371571165 0.4797839576414042
5172283 -0.8766268115388766 0.4802623284011294
5173350 -0.8765553841946574 0.47978719097678457
5174417 -0.8765401522506021 0.4802336893519504
5175484 -0.8769555774211234 0.47996782222163575
5176551 -0.8767470688130855 0.4797371118979671
5177618 -0.8757821577177631 0.4797430173602891
5178685 -0.8764009252145896 0.4805059681866557
5179752 -0.8765569733598526 0.4806326316467362
5180818 -0.8764938362285148 0.4808161014920734
5181885 -0.8766085881840655 0.4811645499345007
5182952 -0.8769360247312034 0.48109740776808035
5184019 -0.8769532060673508 0.480566190632623
5185086 -0.8761261283375196 0.4809032016543686
5186153 -0.8759768084967263 0.481210668581579
5187220 -0.8760059620791394 0.48107284181361015
5188287 -0.8756792781397195 0.4814178329744073
5189354 -0.875658964927602 0.4818360983331047
5190421 -0.8762494703665609 0.48150923953377545
5191487 -0.8765903052950317 0.48073296343809957
5192554 -0.8763430480907575 0.48022522354537395
5193621 -0.8762713069343366 0.48088955287603913
5194688 -0.8758548290226971 0.4807771827582518
5195755 -0.8754471892263997 0.4812064989018599
5196822 -0.8757869624145408 0.48216217447184523
5197889 -0.8758238107917171 0.48212810448436183
5198956 -0.8762877034017175 0.4818891731133143
5200023 -0.876000932311787 0.48176466706375376
5201090 -0.875712758545237 0.48201927871403066
5202156 -0.8750905928653544 0.48243390178389695
5203223 -0.8753978146297172 0.48283981157612343
5204290 -0.8754547243969125 0.4832043170956573
5205357 -0.8757588296265472 0.4833401897253775
5206424 -0.8761428233941371 0.48256505837954095
5207491 -0.8756338860549788 0.4827153976175438
5208558 -0.8750084699070861 0.48264323249132973
5209625 -0.8756650415436369 0.48375070583730584
5210692 -0.8747943396495779 0.4837706651998045
5211759 -0.8747529135455828 0.48371607389746474
5212825 -0.8753702991401351 0.4839955226842076
5213892 -0.8752024659660018 0.4837237298151663
5214959 -0.8749141825379743 0.48353215020381657
5216026 -0.8756226014743219 0.48329450951823044
5217093 -0.8751418202754278 0.48315636335023837
5218160 -0.8744067176581873 0.48339730660545654
5219227 -0.8744874601390676 0.4839658365491073
5220294 -0.8753090278901801 0.4836340137458676
5221361 -0.8752363143188752 0.4834576619765106
5222428 -0.8749808074107024 0.48377302224150076
5223494 -0.8751302177396802 0.4838144161811489
5224561 -0.8745822490005042 0.48323099468728575
5225628 -0.8746079654270532 0.4838811063513621
5226695 -0.8743502115512112 0.48487613276734015
5227762 -0.8744406939248882 0.4848473413492817
5228829 -0.8745235636573875 0.4847343083730814
5229896 -0.8746120744090629 0.4850525011956631
5230963 -0.8747312006237795 0.48485326909674126
5232030 -0.8753373904767102 0.4844997560358907
5233097 -0.8739172209011354 0.4848110809587426
5234163 -0.8743412089982052 0.4861036107837296
5235230 -0.8744586186659137 0.48592718161470627
5236297 -0.8744518353706218 0.48560910972565735
5237364 -0.8745761955025242 0.4857824604884304
5238431 -0.8743579511305867 0.48522554880858904
5239498 -0.8743818678945117 0.4850410178348989
5240565 -0.8736727327320112 0.48498150261771106
5241632 -0.8735515400889575 0.48581027197735394
5242699 -0.8733186918368168 0.4854495334417548
5243766 -0.873758960924659 0.48543406949735346
5244832 -0.8734290572378235 0.48532225510163174
5245899 -0.8735578887537351 0.4856119524294251
5246966 -0.8737621666257527 0.4849229996556339
5248033 -0.8727502312356694 0.48583357606501615
5249100 -0.873140601547847 0.486566308920612
5250167 -0.8728076225146392 0.4863223401926821
5251234 -0.8738505883306494 0.48629611923720156
5252301 -0.8739179334667262 0.4863499337656547
5253368 -0.8737819932184147 0.48644203960321075
5254435 -0.8739067835123777 0.485809411934487
5255501 -0.8730167534350003 0.486420984450513
5256568 -0.8729926820417492 0.48742929228542253
5257635 -0.8732769609060599 0.48787120362772257
5258702 -0.8728382578577687 0.48797905627497323
5259769 -0.8731413007868633 0.487610210909944
5260836 -0.8737393726834131 0.4874678167573534
5261903 -0.8733971711160196 0.48742036897120755
5262970 -0.8727426749831005 0.48769289090922086
5264037 -0.8727005979357018 0.48808538038553834
5265104 -0.8728054318852704 0.4888782029601209
5265104 -0.8722630765711157 0.48877445627445637
5266192 -0.8729984336345268 0.4887699353388969
5267281 -0.8730361241300734 0.4883595965672504
5268370 -0.8728564374757164 0.48817794241264284
5269459 -0.8728571218626592 0.48818672060389534
5270548 -0.8726119924274294 0.4881507546709212
5271637 -0.8724670030325168 0.4887682787411256
5272726 -0.8723812371364206 0.48886044956383395
5273815 -0.8724668379179187 0.4884277504597935
5274904 -0.8729831114323393 0.4882186349376745
5275993 -0.8724285326259262 0.4880514938963484
5277082 -0.8716775744369605 0.48789498973268963
5278171 -0.8715652505025118 0.4885486054908507
5279260 -0.8718846379531521 0.48825975777689806
5280349 -0.8716059219439851 0.48844123042359483
5281438 -0.8721150995293587 0.48859881026085483
5282527 -0.8719515121326277 0.4880396516820465
5283616 -0.8710517834822896 0.48831907308326855
5284705 -0.8716954561692275 0.48944103690256735
5285794 -0.8715308321842846 0.489080358852745
5286883 -0.871829213025745 0.4895843089082878
5287972 -0.8718241670084576 0.48978851566806647
5289061 -0.8726338316653051 0.48990683773956734
5290150 -0.8721972448058 0.48988165370644277
5291239 -0.871269458287362 0.4903118567187216
5292328 -0.8715911256908417 0.4903628285882526
5293417 -0.8710881441498276 0.4898087568968325
5294506 -0.8711814082555532 0.4895585391861614
5295595 -0.8714790693527459 0.4898150244699083
5296684 -0.8716974680181301 0.4898079214605249
5297773 -0.8710941258049387 0.4903061256800309
5298862 -0.8708537118174035 0.4902815785828445
5299951 -0.8711039974816088 0.4903642179389616
5301040 -0.8713447481212095 0.4891730675679601
5302128 -0.8710852563999336 0.4894688946230998
5303217 -0.871154006852968 0.48967810874935386
5304306 -0.8706440692526256 0.48991674819128694
5305395 -0.8708155757677647 0.49031665531256907
5306484 -0.8707934092454906 0.4906772502689019
5307573 -0.8710857274490857 0.490469432672379
5308662 -0.8711182301523506 0.4905956638743831
5309751 -0.8705962567884867 0.4910910593986275
5310840 -0.87045157906478 0.4913267867038925
5311929 -0.8707040707404272 0.4914753393242931
5313018 -0.8702986995423604 0.4919233537624447
5314107 -0.870337765384017 0.4915139743683423
5315196 -0.8708194866271923 0.49186352874153383
5316285 -0.8703412643017807 0.4922145201462993
5317374 -0.8711915625729431 0.4921793669797223
5318463 -0.869865084724047 0.49184443724917354
5319552 -0.870122142364146 0.49196552850534153
5320641 -0.8695355925931723 0.492418262821176
5321730 -0.8702832004632082 0.49146943066097193
5322819 -0.8699107249432805 0.4916989389407125
5323908 -0.8699493236749694 0.4921052396469411
5324997 -0.869271457278671 0.49186669140233696
5326086 -0.8694540956124941 0.49215746771765334
5327175 -0.8698135176834539 0.4922029028032356
5328264 -0.870430659530535 0.4921985540968956
5329353 -0.8703292268779115 0.49192399958223976
5330442 -0.8699579127126121 0.4926843918070543
5331531 -0.8696838780269187 0.4934900800542201
5332620 -0.8700383805331637 0.4934537908961212
5333709 -0.8701694656406036 0.4933361194879764
5334798 -0.869966514715586 0.4932576701942537
5335887 -0.8701795548807558 0.4932498709106305
5336976 -0.8698380712096051 0.4940441413769066
5338064 -0.8689155741884997 0.49419390577275024
5339153 -0.869259845643566 0.4944130231121933
5340242 -0.8699835909222057 0.49375535555108996
5341331 -0.870087757635986 0.4933877964778143
5342420 -0.8695198094924185 0.4934240943679999
5343509 -0.8692756288330462 0.49338772069800874
5344598 -0.8690710789190897 0.49383997314364303
5345687 -0.8692500233950443 0.49386093947551435
5346776 -0.8695718147238137 0.49321978639183034
5347865 -0.869685335601094 0.49340301731056146
5348954 -0.8689360684004119 0.4934179377050218
5350043 -0.8688704783545206 0.49412741828113016
5351132 -0.8688749018326789 0.4941697915187336
5352221 -0.8689884647329185 0.49391482915503615
5353310 -0.8692600762226235 0.49413047314393854
5354399 -0.8693083860755987 0.49458495618402776
5355488 -0.8691288098205913 0.49437870851681776
5356577 -0.86880283806909 0.4947419614827406
5357666 -0.8686012753385143 0.4950740800363469
5358755 -0.8691466396546376 0.49462969425005426
5359844 -0.868844232263645 0.4953117333719026
5360933 -0.8691476527731108 0.4955515209891379
5362022 -0.8685958733804037 0.4960238403462592
5363111 -0.868686684473548 0.4955929723797821
5364200 -0.8688762319559753 0.4956806732326596
5365289 -0.869131564117235 0.4948821052546994
5366378 -0.8695487762456041 0.49518349262948075
5367467 -0.8686054254725626 0.49562156581469297
5368556 -0.8683172151112797 0.49594070228220416
5369645 -0.8682532288696184 0.4961789860730086
5370734 -0.8681516745943154 0.4956840960645107
5371823 -0.8680890322390241 0.4954717054340628
5372912 -0.868831199234641 0.4956429026127916
5374001 -0.8680660132565565 0.4957101807653757
5374001 -0.867900352681976 0.49618232528594164
5375112 -0.8679347004324449 0.4969587285883824
5376223 -0.8674528451696186 0.4967423416070485
5377335 -0.8679625968698494 0.4965957218487401
5378446 -0.8682392421618201 0.49674534551806776
5379558 -0.8684763416449205 0.4969079258378837
5380669 -0.8675133941686091 0.49713203014620205
5381781 -0.8680429337351503 0.4976237157280055
5382892 -0.8679139764619705 0.4978625595914865
5384004 -0.8677212905021477 0.4975758348921725
5385115 -0.8678308876805828 0.4982552069452524
5386227 -0.8675549061172089 0.498194624846195
5387338 -0.8670109745609642 0.49811112809599684
5388450 -0.8669469212169149 0.4976124593063192
5389561 -0.8674107963826083 0.4973235719745597
5390673 -0.8675974089609242 0.4970030458810722
5391784 -0.8669244932377467 0.49729676928148187
5392896 -0.8668170800762013 0.4978056468798346
5394007 -0.8667205413145277 0.498134361706771
5395119 -0.867208627497465 0.49723608760499766
5396230 -0.8673626643836934 0.497907981812237
5397342 -0.8669823671067979 0.49753935426324475
5398453 -0.8665957581927597 0.4982975490244884
5399565 -0.8662710601677427 0.4985933679346001
5400676 -0.8663517713685029 0.49897960783011375
5401788 -0.8669892329622436 0.4985348885736082
5402899 -0.8664374636635085 0.49880009449928514
5404011 -0.8663651133151428 0.4993709179782042
5405122 -0.8665364215144921 0.5000384360973473
5406234 -0.8659317037122009 0.4994377081523776
5407345 -0.8665819163444362 0.4995892868962476
5408457 -0.8670221412688363 0.5002177663338442
5409568 -0.8663608907145584 0.4994834834122473
5410680 -0.8659217980546716 0.5002057958902224
5411791 -0.8660064104487655 0.4999156299529317
5412903 -0.8660859115107139 0.49927712108006694
5414014 -0.8661078397098395 0.4989564859693371
5415126 -0.8659895344180929 0.49937336820392636
5416237 -0.8654337020111343 0.4993483912619986
5417349 -0.865871095473301 0.4992002918943811
5418460 -0.8658613302274654 0.49877094615949724
5419572 -0.8662120530700381 0.49847084401108244
5420683 -0.8659428148506852 0.49925659206596573
5421795 -0.8652440052506368 0.4990416675006541
5422906 -0.8652383054887657 0.49958335962323436
5424018 -0.865709817569233 0.49993287682959586
5425129 -0.8659513778226234 0.4994564617165084
5426241 -0.8657765521749712 0.5000373513788199
5427352 -0.8655084263464559 0.5006439570091191
5428464 -0.8659458927705511 0.5002768796172261
5429575 -0.8652077626429532 0.5003420234782417
5430686 -0.8648151202523695 0.5010290568795918
5431798 -0.8649022291985299 0.5007615340780982
5432909 -0.8643291237668441 0.5013664977125075
5434021 -0.8649721492318672 0.5011811446052437
5435132 -0.8653168451823168 0.5015453915959591
5436244 -0.8651325280360564 0.5013314319639258
5437355 -0.8646946211494175 0.5015096409939929
5438467 -0.8649196945503389 0.5015430961231093
5439578 -0.8654094508313261 0.5007686648536159
5440690 -0.8651471153692029 0.5011939950723246
5441801 -0.8648439977490314 0.5012008222882454
5442913 -0.865113962695618 0.5012141033305759
5444024 -0.8642168743743845 0.5014646728678351
5445136 -0.8647061409939923 0.5014256817469235
5446247 -0.8650837675520944 0.5010952452923146
5447359 -0.8651381011517293 0.5014505203308867
5448470 -0.864665286876692 0.5017572074181952
5449582 -0.8642934467142276 0.5022744954477946
5450693 -0.864469314590646 0.5024969816422902
5451805 -0.8648956337626107 0.5020982131052442
5452916 -0.8645499219319591 0.5029163304904471
5454028 -0.8643641203557471 0.5031816189737709
5455139 -0.8635188252528845 0.5024528792686659
5456251 -0.863462270979693 0.5034076341321505
5457362 -0.8644645875742412 0.5028741404490753
5458474 -0.8646371262751972 0.502725388864133
5459585 -0.8640822835695938 0.5030640622106846
5460697 -0.8636600320067174 0.5030591363442628
5461808 -0.8641287877315902 0.5030389575992094
5462920 -0.863949405959075 0.5022451870959731
5464031 -0.8641448390789311 0.5026231086906128
5465143 -0.8640157048145441 0.5034127727888579
5466254 -0.8637624197073226 0.5032511505426646
5467366 -0.8631039886820786 0.5035844360098319
5468477 -0.8632539341179294 0.5036626159643178
5469589 -0.8642418814281582 0.503272020577706
5470700 -0.8643513859664224 0.5041408473218221
5471812 -0.8639551133727733 0.5042635336108199
5472923 -0.8638154900551102 0.503730487719123
5474035 -0.8634543374030349 0.5043386913475554
5475146 -0.8640589477567312 0.5043148059963116
5476258 -0.8642876033900706 0.5046709727192432
5477369 -0.8638898721831841 0.5049725095298451
5478481 -0.8628620986949086 0.5055077515538929
5479592 -0.8629708843494962 0.5053475612111178
5480704 -0.8633988267947839 0.5046667414078799
5481815 -0.8631563476517008 0.5044039516174836
5482927 -0.8626012188670383 0.5049473779137539
5484038 -0.8622146721696087 0.5051665996030368
5485150 -0.8617865602900376 0.5045056331876293
5485150 -0.8620432841347433 0.5049263666768533
5486284 -0.8624769957366352 0.5049106279468459
5487418 -0.8625761250842743 0.5047235561366115
5488553 -0.863127744891366 0.5044436403548033
5489687 -0.8625339094755367 0.505273746743317
5490822 -0.8624107384079213 0.5055084772209555
5491956 -0.8624717317014925 0.5053669892720408
5493091 -0.8624221468423735 0.5051618784987184
5494225 -0.86279721067329 0.5055133535296068
5495360 -0.8626655479721065 0.5057904600358326
5496494 -0.8622806484741504 0.5064981278071198
5497629 -0.861988421304867 0.5065068380891838
5498763 -0.8627520236416308 0.5061952539353775
5499898 -0.8627036615416129 0.5068647389015665
5501032 -0.8624856746321825 0.5066957612065175
5502167 -0.8628382697553146 0.5071924256517105
5503301 -0.8622399929178417 0.5067672218273461
5504435 -0.8624507921958151 0.5069974718543541
5505570 -0.862581317547696 0.5074387928010788
5506704 -0.8618931948576513 0.5071504103499546
5507839 -0.8619677985642382 0.507562229743638
5508973 -0.8623426592022789 0.5073655621071693
5510108 -0.8624009111320773 0.5071906661576175
5511242 -0.8617702272594701 0.5071722768258422
5512377 -0.8618640157495807 0.5074580236605467
5513511 -0.8618873370954881 0.5074779295227442
5514646 -0.8619183810157214 0.5067042102631053
5515780 -0.8615791969514389 0.5078052451322903
5516915 -0.8616570058662151 0.5075606330222757
5518049 -0.8610545546257987 0.5076895474557939
5519184 -0.8612730779992492 0.5073903587842423
5520318 -0.8616450240716197 0.5073659248195707
5521453 -0.8614797732333427 0.5075712996598811
5522587 -0.8608574474782361 0.5079587511293066
5523721 -0.8611465870723135 0.5077531775381211
5524856 -0.8616757151098251 0.5075419675265577
5525990 -0.8616825138692439 0.5075871380787726
5527125 -0.8610310910865188 0.5084478524057434
5528259 -0.860828154683018 0.5083787826772643
5529394 -0.8609048448583472 0.5085006905074414
5530528 -0.8613923728542868 0.508654485266213
5531663 -0.8610516817688946 0.5095211631587271
5532797 -0.8610242423478377 0.5092627299997373
5533932 -0.8606736281802326 0.5096954728025256
5535066 -0.8608391401524315 0.5089153333507932
5536201 -0.8612422077544664 0.5089090689280927
5537335 -0.8605059059775585 0.5091370073781922
5538470 -0.8607182017679369 0.509388704868795
5539604 -0.8604131768299521 0.5101610578411273
5540739 -0.8609438412565156 0.5098219430640153
5541873 -0.8599352305842705 0.5097326229284989
5543007 -0.860392642879523 0.509044755249792
5544142 -0.8603216790719783 0.5085192713668348
5545276 -0.8599067348028474 0.5095369100465739
5546411 -0.8601302690768923 0.5098555655854891
5547545 -0.8597896702947302 0.5092936184727984
5548680 -0.8600962434539924 0.5092049234795446
5549814 -0.8593934338504255 0.5096836614479728
5550949 -0.8597195828539367 0.510384376394513
5552083 -0.8589809471580823 0.5098122055355875
5553218 -0.8591628386546736 0.5102845266742468
5554352 -0.860160116293472 0.510454091109481
5555487 -0.8596789930746852 0.5106236883958553
5556621 -0.859273144764466 0.51092919855379
5557756 -0.8590170758394465 0.5108582258357395
5558890 -0.859455113910452 0.5104951132069226
5560025 -0.8593327898231619 0.5105079162654563
5561159 -0.8594023759093792 0.5118762493050759
5562293 -0.8597210746823 0.5117944248803711
5563428 -0.8585635460748864 0.5118171998002481
5564562 -0.8593672453564748 0.511821416052013
5565697 -0.8595275592601231 0.5117850679193012
5566831 -0.8594164332454387 0.5121829645953948
5567966 -0.8587762475556061 0.5117274556439245
5569100 -0.8592163544826166 0.5118538855401593
5570235 -0.8596695789102153 0.5117330008712738
5571369 -0.8590481964737504 0.5120792350176594
5572504 -0.8591958933955481 0.5126343096070409
5573638 -0.8590094009062772 0.511786074924356
5574773 -0.8589128746061042 0.5115581811054053
5575907 -0.8590232312483002 0.5118175810418897
5577042 -0.8591187358944768 0.5124344406850353
5578176 -0.8590094399607588 0.5126029737492929
5579311 -0.8579213795131511 0.5126648704744031
5580445 -0.8586824071106082 0.5118546683577829
5581579 -0.8587562825035644 0.5121548101937521
5582714 -0.8578312369821957 0.5126373326338438
5583848 -0.8582552613332419 0.5130516977200885
5584983 -0.8579996838838644 0.5124892331046419
5586117 -0.8584175542245795 0.511953640613831
5587252 -0.8574605937833906 0.512652202345613
5588386 -0.8579908793318154 0.5133424111031147
5589521 -0.8579044310759445 0.5129452643748287
5590655 -0.8583008573909789 0.5136413346077473
5591790 -0.8585353903686948 0.5138143027168199
5592924 -0.8581241458621458 0.5147929260967772
5594059 -0.8581944191483446 0.5147676255613856
5595193 -0.8573366893210311 0.5145584924837662
5596328 -0.8576007433803199 0.5137842053348224
5597462 -0.857517474756404 0.514024687053745
5598597 -0.8572253313665947 0.5147717209016569
5598597 -0.8575528138508908 0.5145072927319877
5599754 -0.8572876542873302 0.5145693104523141
5600912 -0.856924126561308 0.5144323728724284
5602070 -0.8577078915097663 0.5143062974484716
5603228 -0.8575435369795068 0.51511340227054
5604386 -0.8573686344508861 0.5144031294425593
5605544 -0.8573724567055929 0.5139484748686854
5606702 -0.8577603910687975 0.513482948663999
5607860 -0.8570149441006211 0.5143163396780196
5609018 -0.8569090412995919 0.5147980673496113
5610176 -0.8572824391660879 0.5146018018836245
5611334 -0.8568575329587016 0.5143123175703715
5612492 -0.8565675099358029 0.5153974814231753
5613650 -0.8566624909275408 0.5153821704169791
5614808 -0.856863527545627 0.5145398997589986
5615966 -0.8570531966858957 0.5149430710134861
5617124 -0.856905163847502 0.5158242406248672
5618282 -0.8563931994081219 0.5159203976561231
5619440 -0.8563180189829931 0.5154774394492724
5620598 -0.8568045215212126 0.515829133611689
5621756 -0.8566345754962937 0.5166889313654252
5622913 -0.8558365502653902 0.5165296484367418
5624071 -0.8568630988883038 0.5166172353870467
5625229 -0.8566979287730622 0.5161321083519731
5626387 -0.8560402663604996 0.517115439657552
5627545 -0.8556337287286039 0.5167522846427159
5628703 -0.8562940025029303 0.5158471419953254
5629861 -0.8556628420405719 0.5161261345847122
5631019 -0.8557983021770355 0.5170115682499674
5632177 -0.8564615245117632 0.5163860242838012
5633335 -0.856438187171099 0.5157896885541168
5634493 -0.8565857613723162 0.5167701680654194
5635651 -0.8563184562281596 0.516941241449177
5636809 -0.8559737874890149 0.5165531180903409
5637967 -0.856737644557953 0.5162367281695474
5639125 -0.85697856132043 0.5163692537157581
5640283 -0.8564916893899692 0.5173762124373024
5641441 -0.8558871427500007 0.517469906069447
5642599 -0.856033316646472 0.5170658810293872
5643757 -0.8555389788794685 0.5172888028126049
5644915 -0.8550789030888565 0.5181019325795039
5646072 -0.8556446222253081 0.518216380862024
5647230 -0.8559234267447163 0.516796186600982
5648388 -0.8553853499283217 0.5175582870039667
5649546 -0.8550954283538565 0.5185455384716355
5650704 -0.8553930575949675 0.5185683731518754
5651862 -0.8551079237296887 0.518294238726555
5653020 -0.8547899413803131 0.5183572605575631
5654178 -0.8550451877104067 0.5193115873313299
5655336 -0.8550469680229292 0.5187128748451838
5656494 -0.8548025036700461 0.5177253287975327
5657652 -0.8550717629032344 0.5181199193894688
5658810 -0.8547268583612634 0.5185858963841633
5659968 -0.8545778361891196 0.518958811575793
5661126 -0.8549824306438109 0.5184623588565445
5662284 -0.85494473970986 0.5195296725745796
5663442 -0.8545754529041864 0.5192501720285952
5664600 -0.8545669523000627 0.5184867846377147
5665758 -0.8548959656243162 0.5188966700751909
5666916 -0.854595867021071 0.5201024640050428
5668074 -0.8544558980969105 0.5200270110144777
5669231 -0.8547148152333478 0.5197888869391272
5670389 -0.854736143641204 0.5197427021142328
5671547 -0.8540432399965695 0.520591992067631
5672705 -0.8543352338355396 0.5204559206493891
5673863 -0.8543740821910993 0.5195640974229722
5675021 -0.8546303783525562 0.5193933430824117
5676179 -0.8538830883837911 0.5199786485123906
5677337 -0.8546285235530449 0.5202064384154652
5678495 -0.8532402358022205 0.5192194532857357
5679653 -0.8542036792930908 0.5203300254015991
5680811 -0.8536474720094486 0.5199653811853779
5681969 -0.8539878743741118 0.5210834437944961
5683127 -0.8531967981489368 0.520862739859155
5684285 -0.8538137602802772 0.5199535207111818
5685443 -0.8533743672759035 0.5207758813292986
5686601 -0.8534406387974129 0.522108869641351
5687759 -0.8531709840858884 0.521976006325204
5688917 -0.8537454373441673 0.520168437662775
5690075 -0.8533226109273113 0.5211550769910807
5691233 -0.8530638393482605 0.52192428015714
5692390 -0.8539657256026045 0.5224091308390579
5693548 -0.8531445801741551 0.5209663227911999
5694706 -0.8535643502507694 0.5218979388019795
5695864 -0.8532100336678012 0.5217976537860745
5697022 -0.8534045364706265 0.5222668279330286
5698180 -0.8528600885325307 0.5213676475985725
5699338 -0.8531706369659844 0.5216552761880184
5700496 -0.8532842994236634 0.5217093043148632
5701654 -0.8529166021759194 0.5226687400684391
5702812 -0.8530274380205936 0.522033183478363
5703970 -0.8539379752439751 0.5210387890220148
5705128 -0.8526938352903454 0.5213826685351568
5706286 -0.8531728174424861 0.5229009446245753
5707444 -0.8526406852275462 0.5220163365601546
5708602 -0.8530918039817207 0.5212647188240593
5709760 -0.8526763903866659 0.5219140607796345
5710918 -0.8528847062645254 0.522859746896723
5712076 -0.8527297277269199 0.5232072003669974
5713234 -0.852393427325651 0.52211087082194
5714392 -0.8527885835646349 0.523109738666314
5714392 -0.8520631361828287 0.5235161074195706
5715573 -0.8525961833179877 0.5222497399882218
5716755 -0.8523839568974961 0.5231174952746416
5717937 -0.8527220707512713 0.5236905563469635
5719119 -0.8514994491325529 0.5237098234740588
5720301 -0.852163617497062 0.5239519100799184
5721483 -0.8521206368367736 0.5239834846359858
5722665 -0.851942286139699 0.5245326141519245
5723847 -0.8518453957899972 0.5233393207920757
5725029 -0.8520414353551055 0.5231099027381336
5726210 -0.8517667014776902 0.5233704634865518
5727392 -0.8517255610321154 0.5242160478103215
5728574 -0.8520690686248072 0.5232044710408943
5729756 -0.85156346926041 0.5233117481640879
5730938 -0.8510763343305346 0.5245825542863052
5732120 -0.8518839270458923 0.5246011182712659
5733302 -0.8515002016268639 0.5232959395417918
5734484 -0.8520129560167239 0.5237420034303386
5735666 -0.8515381226027425 0.525264230472371
5736847 -0.8516583750595369 0.5249337981268163
5738029 -0.8514527788653123 0.5240902912503679
5739211 -0.8511721238223499 0.5249319645971011
5740393 -0.851103282976661 0.5254262554272784
5741575 -0.8511273154110096 0.5256835996162703
5742757 -0.851151412700829 0.5250000204369358
5743939 -0.8512607380757642 0.5257556900024254
5745121 -0.8505033968814899 0.526441226221504
5746303 -0.8506203910362228 0.5250403916751992
5747484 -0.8508578527917384 0.525217709466936
5748666 -0.8509105316243939 0.5255667536084869
5749848 -0.8509647765786249 0.5266418990695166
5751030 -0.8512080824825633 0.5251015176200329
5752212 -0.8506223564021589 0.525479883698828
5753394 -0.8504419732763906 0.5264693425039848
5754576 -0.8509395600436382 0.5260470153385671
5755758 -0.8507507576433672 0.5251075521515385
5756940 -0.8503631215863504 0.5257553746164283
5758121 -0.8504218448915811 0.5269615584999634
5759303 -0.8503829522120555 0.5266027246965508
5760485 -0.8503690528458736 0.5254239795000153
5761667 -0.85023933935949 0.5266036431234659
5762849 -0.8503409158482671 0.5270139033695149
5764031 -0.8502165603899949 0.526679821119423
5765213 -0.8502390037201315 0.527038835321461
5766395 -0.8502073162553735 0.5276136658267803
5767577 -0.8501046325628397 0.5281048250239062
5768758 -0.8502104959326584 0.5270720232090524
5769940 -0.8492263039270388 0.5267670658760074
5771122 -0.8492000857804247 0.5276980093225485
5772304 -0.8496828271537294 0.5268466449122867
5773486 -0.8493196624541695 0.5273680799716672
5774668 -0.8497181785582475 0.5278620784636777
5775850 -0.8497670715354751 0.5280729096933688
5777032 -0.8500045305277578 0.5265029354794266
5778214 -0.8488271928977659 0.5273289999831473
5779395 -0.8500725120135264 0.5289127334567252
5780577 -0.8500106854659483 0.527953418664398
5781759 -0.8500127469149442 0.5273574614264939
5782941 -0.8486660274500218 0.5285107463744513
5784123 -0.8500402809583976 0.5295022253240794
5785305 -0.8486140517896191 0.5285332589698675
5786487 -0.8491095906545219 0.5282605507635797
5787669 -0.8488162105932979 0.5288583523624744
5788851 -0.8489708436348848 0.529777185110258
5790032 -0.8486901488408128 0.52863977830371
5791214 -0.8487466573948746 0.5289384830915528
5792396 -0.8483850955100345 0.5293565048930639
5793578 -0.8485152009969549 0.5299082901757969
5794760 -0.848788802554214 0.52882377814009
5795942 -0.8482285637820104 0.5286772106404
5797124 -0.848271218615192 0.5293820694728825
5798306 -0.8486098178575141 0.5294669529832762
5799488 -0.8486775440918349 0.5288472912152836
5800669 -0.8480692084567888 0.5294269735833946
5801851 -0.8481270087231354 0.5308160105006816
5803033 -0.8486942364569747 0.5297878997360591
5804215 -0.8478172539575537 0.5288409274223431
5805397 -0.8477194158923763 0.5301107016373747
5806579 -0.8482484982271314 0.5312262186037999
5807761 -0.8478860202977978 0.5300377667272897
5808943 -0.847369721963527 0.5302370388976319
5810125 -0.847403708963554 0.5305938341321734
5811306 -0.847302917596467 0.5307996818414255
5812488 -0.8475344526570576 0.5289084545392418
5813670 -0.8472723973284617 0.5300007964440371
5814852 -0.8477327958072894 0.5305940371679673
5816034 -0.8476802114309269 0.5312529946621092
5817216 -0.8480392411406155 0.5301604188023242
5818398 -0.847918544881703 0.530296416961004
5819580 -0.8472354894652937 0.531050577174799
5820762 -0.8478803140105745 0.5309641971159877
5821943 -0.8476314816899329 0.5302449068366392
5823125 -0.8468195277577883 0.5310789652427458
5824307 -0.8476004888355149 0.5322542237848593
5825489 -0.8477273074008065 0.5315790141347853
5826671 -0.8471527141927772 0.5309720862750646
5827853 -0.8459348893515568 0.5325511423185353
5829035 -0.8469258458755337 0.5329144127269929
5830217 -0.8467151119936714 0.5310626705327592
5831399 -0.8465537373617099 0.5319435201219814
5832581 -0.8467429829232989 0.5327933679642338
5832581 -0.8463394117761337 0.5334211904288169
5833787 -0.8465065453068732 0.5320555674863461
5834993 -0.8461926150609894 0.5323789669594633
5836199 -0.8465210071316688 0.5334421489701772
5837406 -0.8471436599714326 0.5329069671919596
5838612 -0.846683626052928 0.5317603269222568
5839818 -0.8463779170108618 0.5327424949645326
5841025 -0.845970610059541 0.5339213865955229
5842231 -0.8463362933817031 0.5321396627846395
5843437 -0.8459136077484276 0.5332022671597316
5844644 -0.8457795237343293 0.5339462426078971
5845850 -0.8463042392770878 0.5334588185264939
5847056 -0.8459800193312126 0.5332092186990744
5848263 -0.8456913114657041 0.533926982571627
5849469 -0.8456226975791142 0.5344945815929781
5850675 -0.8450809219085873 0.5330580813979147
5851882 -0.8448655158610971 0.5338854769779268
5853088 -0.8451953199503385 0.5348857421512009
5854294 -0.845385476653188 0.5335737352019904
5855501 -0.8451861374190948 0.5340136935011554
5856707 -0.8457514097199965 0.5350307900210248
5857913 -0.8458545114323455 0.5353297675573654
5859120 -0.8460781315542684 0.5340348947549584
5860326 -0.8453746037519412 0.5344574619286581
5861532 -0.8453912108661569 0.5351890746197007
5862739 -0.8447854356391955 0.5334595370487213
5863945 -0.845039525354494 0.5343175481647675
5865151 -0.8452585139395334 0.5353486511557365
5866358 -0.8448434951836147 0.5349614787560901
5867564 -0.8453594613110689 0.5340181969849523
5868770 -0.8449432642026089 0.5347755572377738
5869977 -0.8447332584006234 0.535620359589713
5871183 -0.8451764725384909 0.534404040649066
5872389 -0.845087378140184 0.534656132407425
5873596 -0.8447927477507865 0.535733951728428
5874802 -0.8447432547259778 0.5344780854745544
5876008 -0.844647671506665 0.5346627694905075
5877215 -0.8438637989184344 0.5359372446681587
5878421 -0.8438299304779503 0.5370112783958347
5879627 -0.8443173199675874 0.5349722149474262
5880834 -0.8438217592592754 0.5357103273030631
5882040 -0.8441403072324882 0.5370548770472517
5883246 -0.8447009351075203 0.5354422027385427
5884453 -0.8441385951094864 0.5354966809300069
5885659 -0.8438223007837687 0.5371212256000878
5886865 -0.8440068343378399 0.537114108900234
5888072 -0.8445520543095338 0.5353190946721903
5889278 -0.8434735599381696 0.5368367847474841
5890484 -0.8439695919740142 0.5374174686758983
5891691 -0.8441018081243966 0.5360754215799397
5892897 -0.8440481422957863 0.5367718819120431
5894103 -0.8442019741099914 0.5371217463651138
5895310 -0.8440446544482026 0.5367261604896959
5896516 -0.843683666639131 0.5370677654244947
5897722 -0.8439527686230127 0.5379452276566572
5898929 -0.8438114576019907 0.5362039021194421
5900135 -0.8433942126628733 0.5375861007159394
5901341 -0.843348824820609 0.5382203747137438
5902548 -0.8440581296415037 0.5373085697300136
5903754 -0.8431939954044859 0.5373880260351844
5904960 -0.8426993293051728 0.5379816595116558
5906167 -0.8434596982554132 0.537664889288768
5907373 -0.8430822535740109 0.5372689776234372
5908579 -0.8426283137543418 0.5380616475933755
5909786 -0.8431706893382197 0.5392070614951494
5910992 -0.8439741174220355 0.5375571177757504
5912198 -0.8427818563258166 0.5376227157047412
5913405 -0.843378875305502 0.5387885798080343
5914611 -0.8432227871879606 0.5374640403924837
5915817 -0.8426621178083334 0.5383320658244211
5917024 -0.8428087132529425 0.5394513425838995
5918230 -0.8435648281966301 0.5388757284565762
5919436 -0.8425661454405126 0.5381705676266295
5920643 -0.8431524596673481 0.5398926942082084
5921849 -0.8431927928789872 0.5394177413179846
5923055 -0.8426097181597048 0.5386426104185398
5924262 -0.8428495082917605 0.5396825713312001
5925468 -0.8428269487190531 0.5396911533600905
5926674 -0.8428303290532504 0.5385157335773266
5927881 -0.8422687221261828 0.5394134590225594
5929087 -0.8424093112849158 0.5405981080928262
5930293 -0.8426287786993801 0.5387837434103561
5931500 -0.8412336091407178 0.5398287829953803
5932706 -0.8422242238714199 0.540459480692844
5933912 -0.8423046829915009 0.5393016171898666
5935119 -0.8415370173639243 0.5396375512294151
5936325 -0.8420883918829114 0.5408672487290074
5937531 -0.8420095921213998 0.5404913622948403
5938738 -0.841576952774743 0.5396836844984968
5939944 -0.8410264507413023 0.5403117338859859
5941150 -0.8415125857620165 0.54131048144876
5942357 -0.841140737210047 0.5398544914573447
5943563 -0.8407005917500204 0.5405821534441976
5944769 -0.8409615425419711 0.5412491849766633
5945976 -0.8413355789004286 0.5401162784011823
5947182 -0.8405861497665951 0.5403761304949655
5948388 -0.8414814926018626 0.5417414370174294
5949595 -0.841427263853557 0.5411591642080236
5950801 -0.8412518767912213 0.5408927585891371
5952007 -0.8410380047168168 0.5419595725073678
5953214 -0.8408546250278022 0.5422131058987817
5953214 -0.8409989272409727 0.5419866905853705
5954445 -0.8410379877110844 0.5414703763105704
5955676 -0.8412343136808693 0.5425912212427635
5956907 -0.8409162084268907 0.5434005985301679
5958139 -0.8414242982171926 0.5411465333148232
5959370 -0.8404366422205133 0.5422249687096857
5960601 -0.8405568963400325 0.5432605932255933
5961833 -0.8411917874310108 0.5416606347110916
5963064 -0.840041396835912 0.5424677041614094
5964295 -0.8403782776557377 0.5431970727741887
5965526 -0.8407944330387933 0.5415069127401528
5966758 -0.8396393388640987 0.5416366859461953
5967989 -0.8399184274051756 0.5434496708931982
5969220 -0.8406280409432598 0.5422691853702758
5970452 -0.839914755377856 0.5425908428445383
5971683 -0.8402650656984911 0.5438590940207195
5972914 -0.8407376868263537 0.5428873859486166
5974145 -0.8397848717696276 0.5425129728037297
5975377 -0.8397393185619536 0.5436183542791749
5976608 -0.8401022458277456 0.5435343831844761
5977839 -0.8401285307190466 0.5423614492063077
5979071 -0.8391585528658705 0.5441565728145706
5980302 -0.8391644808943036 0.543458390921612
5981533 -0.8398395055537523 0.5420320649416053
5982764 -0.8388187361959404 0.5437016268583107
5983996 -0.8392717534292301 0.5444437832156601
5985227 -0.8397389376006308 0.5433516185623212
5986458 -0.8389318788553057 0.5444490437167965
5987690 -0.8394060541298746 0.5453622007855266
5988921 -0.8395256113265656 0.5436337051134491
5990152 -0.8387027965197353 0.543988716200602
5991383 -0.8392642052695376 0.5452694156799244
5992615 -0.8400974685063308 0.5446998760421572
5993846 -0.8392105039928369 0.544392225505882
5995077 -0.8390056212170387 0.5452484829710972
5996309 -0.8395802806064423 0.5445926375827067
5997540 -0.8386177253387967 0.5444280395583805
5998771 -0.8393818295727615 0.5460160897152787
6000003 -0.8396017081854633 0.5457738419431823
6001234 -0.8387357071705296 0.54474346838683
6002465 -0.8385553643194479 0.5457793566600201
6003696 -0.8386120953781632 0.5466487431562989
6004928 -0.8386312642524251 0.5455171091351034
6006159 -0.8376730362544201 0.5470775224250487
6007390 -0.8383206347970406 0.5471552280633168
6008622 -0.8388187993215999 0.545590931205649
6009853 -0.837895068265898 0.5458547197534765
6011084 -0.8382600839927354 0.546530484033752
6012315 -0.8394241293146205 0.545409520869227
6013547 -0.8383556144227585 0.5459050290839175
6014778 -0.8383016845757973 0.5472144689919561
6016009 -0.838982895379437 0.5458751738690827
6017241 -0.8381727380629534 0.5464151830785661
6018472 -0.8378590822208704 0.5471015416523353
6019703 -0.8382594475758799 0.5468040818265303
6020934 -0.836908659103529 0.5463323853556711
6022166 -0.8372784472616631 0.5473773530620403
6023397 -0.8376819239596532 0.546999485679317
6024628 -0.8371495072012577 0.5464258374579483
6025860 -0.8365742034921901 0.5476434120847371
6027091 -0.8371335003788544 0.5475844566429606
6028322 -0.8365187395768048 0.5470557394720942
6029553 -0.8366222437405892 0.5480761244583583
6030785 -0.8374200589436149 0.5488068080204765
6032016 -0.838322033690485 0.5471123262591698
6033247 -0.8371287033865515 0.5478219789775107
6034479 -0.8372883142372637 0.5486802648413087
6035710 -0.8375366967838499 0.5474832960409346
6036941 -0.8366129788195502 0.5484259856198495
6038173 -0.8366447786341987 0.5491882788238465
6039404 -0.8372388630071851 0.5481217406990291
6040635 -0.8365763280535132 0.5478424546955335
6041866 -0.8362211342215619 0.548892105144294
6043098 -0.8371889291908909 0.5479347510398231
6044329 -0.8364986894608117 0.5480189909312393
6045560 -0.8361756200684318 0.5494709971034586
6046792 -0.8368837968545491 0.5494814328975786
6048023 -0.8362869582862943 0.5488080126180132
6049254 -0.8361430352290646 0.5498686440478968
6050485 -0.8363943452581667 0.550162755959082
6051717 -0.8361815621766625 0.5484443357075235
6052948 -0.8356152238799907 0.5499303534421058
6054179 -0.8360775585582385 0.5498972428939684
6055411 -0.8364128888654264 0.5488202488528587
6056642 -0.8353327233407105 0.5492142455581138
6057873 -0.8358291805439584 0.5506531482867281
6059104 -0.8365714001157345 0.5492084586203304
6060336 -0.8355591130863792 0.5490903517369333
6061567 -0.8359643974805684 0.5505986202315776
6062798 -0.8362536006335728 0.5495184815805582
6064030 -0.835132387845949 0.5495942679522066
6065261 -0.8347686469749649 0.5510394549914829
6066492 -0.8361829858116671 0.5502515475589642
6067723 -0.8348221869545626 0.5500461316752003
6068955 -0.8353680332906843 0.551559542737114
6070186 -0.8359657453658683 0.5501778387668417
6071417 -0.8347735350279082 0.5498470843026856
6072649 -0.8346081658244984 0.5517689224554487
6073880 -0.8358487347025649 0.5506342247019039
6075111 -0.8348801245793908 0.550189425753471
6076343 -0.8344613302346308 0.5519102569932232
6076343 -0.8342917840821547 0.5508740921015843
6077599 -0.834273688511617 0.5516089276563443
6078856 -0.8346962511146747 0.5501690570857289
6080113 -0.8337369592626666 0.5509275637471114
6081370 -0.8343473266492776 0.5519951289572104
6082626 -0.8349842475414389 0.5506370352072556
6083883 -0.833995415628853 0.5519380754292496
6085140 -0.8343190437550368 0.5527897832293708
6086397 -0.8341375763261487 0.551835752173644
6087653 -0.8334502371424904 0.5529827216233115
6088910 -0.8349723873258008 0.553043226917677
6090167 -0.8343505771511952 0.5518818196178946
6091424 -0.8343677456474037 0.5534956161655193
6092680 -0.8350799973112024 0.5525869916613873
6093937 -0.8341052359439376 0.5517207054933205
6095194 -0.8337743673433574 0.553139276644934
6096451 -0.8341872773189797 0.5531539226513248
6097707 -0.8334640902381493 0.5518314070075836
6098964 -0.8334759608266373 0.5535186541587038
6100221 -0.8344212998650548 0.5529264047517374
6101478 -0.8338388297727517 0.55204109667201
6102734 -0.833799142800183 0.5541394670392226
6103991 -0.8345913861593826 0.5529017844143166
6105248 -0.8332449261385775 0.5531347175656116
6106505 -0.8334727155385513 0.5550841314863615
6107761 -0.8342388695155755 0.5532529241093598
6109018 -0.8330988128354831 0.5527977490863388
6110275 -0.8332789421445247 0.5534602442502619
6111532 -0.834476315290168 0.5530104979691836
6112788 -0.832457256742753 0.553486979277065
6114045 -0.8322075425384977 0.5546389627763841
6115302 -0.8332316319502274 0.5535343220144241
6116559 -0.8324212880922512 0.5537309723752141
6117815 -0.8329889648404256 0.5549639992430971
6119072 -0.8332563658728083 0.5534721202141761
6120329 -0.8326939518766963 0.5544783565409319
6121586 -0.8326859323227875 0.554732767772674
6122842 -0.8327049981509362 0.5538940969726093
6124099 -0.8318522259415806 0.5551809534620512
6125356 -0.833044736966106 0.5555720414650106
6126613 -0.8330591072768224 0.554315389269935
6127869 -0.831949810624888 0.5556386820745097
6129126 -0.8325505777608563 0.555443382081897
6130383 -0.8318396283855781 0.5545279688071436
6131640 -0.8313248493905864 0.555904729696163
6132896 -0.8323317314455837 0.5560017487459468
6134153 -0.8319518658897829 0.5554247133886592
6135410 -0.8317168458828917 0.5565875033149569
6136667 -0.8325429501679441 0.5556163704764692
6137923 -0.8316491716555261 0.556189121333311
6139180 -0.8328063650935261 0.5568986118334802
6140437 -0.8321492576575225 0.555862126088521
6141694 -0.8312327150338087 0.5566930549056833
6142950 -0.831738819559955 0.5564793139428255
6144207 -0.8315463162718314 0.5556347768180235
6145464 -0.8306580977355138 0.5569199256490943
6146721 -0.8312174080681601 0.5563936862387334
6147977 -0.8304515676432407 0.5561589503325166
6149234 -0.8305477094528534 0.5578548091350077
6150491 -0.8314464662775863 0.5572846446541422
6151748 -0.8314560263782608 0.5567912050178777
6153004 -0.8312278319860861 0.5578867772328976
6154261 -0.8315187176918859 0.5575694220163275
6155518 -0.8306623244629331 0.5576301256082915
6156775 -0.8302643586453906 0.5585268558971198
6158031 -0.8311425564935865 0.557824586129583
6159288 -0.8305410095137428 0.5576873612982628
6160545 -0.8305244435037926 0.5583001715558429
6161802 -0.8306702207432782 0.558191555829565
6163058 -0.8300360741504531 0.5581223851911443
6164315 -0.8298632300966244 0.5592028762379473
6165572 -0.8303296037183489 0.5576964984547133
6166829 -0.8300869669831804 0.5580021937424885
6168085 -0.8302638853776313 0.5586571111629496
6169342 -0.830748974917225 0.5583137080241999
6170599 -0.8301867129960769 0.5585265710189344
6171856 -0.830513554004295 0.5593663497276771
6173112 -0.8303685932749298 0.5585590697998508
6174369 -0.8296601790214537 0.5591616818080802
6175626 -0.8299338595013556 0.5591594370531772
6176883 -0.8299001511978445 0.558447596328443
6178139 -0.829416668019087 0.5593435998150651
6179396 -0.8306574137930508 0.5590782349214437
6180653 -0.8303297738497933 0.5586109371317877
6181910 -0.8294042314470899 0.5592879373098878
6183166 -0.829518837282398 0.5596313324472587
6184423 -0.8289769555610103 0.5593992810039844
6185680 -0.8285023221242985 0.560033658635762
6186937 -0.8294386189514898 0.559526019839312
6188193 -0.8291175782876418 0.5596135510041885
6189450 -0.8286336007558045 0.5603472264513497
6190707 -0.8291370290005317 0.5597777550165361
6191964 -0.8287124084348672 0.5602101977899716
6193220 -0.8282118567476481 0.5614456834284843
6194477 -0.8294576852959513 0.5602100422562746
6195734 -0.8284565034084023 0.5603583613927896
6196991 -0.827705442349608 0.5611952825180503
6198247 -0.8288613357903786 0.5598983833212976
6199504 -0.8279584743469257 0.5601231250504295
6200761 -0.8280037214164315 0.561230573319038
6202018 -0.8297146838709746 0.5603366188045731
6202018 -0.8291139536656332 0.5608021519276408
6203300 -0.8277892697791317 0.5610843128609808
6204583 -0.8283219593331197 0.5620226281876473
6205866 -0.828237662169622 0.5611890390145897
6207149 -0.8275651088873656 0.5623004134526869
6208431 -0.8286131273109385 0.561635739714215
6209714 -0.8274583520396035 0.5610261360224227
6210997 -0.8280785922690228 0.5626753790527447
6212280 -0.8282520360284864 0.5614619347933827
6213562 -0.8271399839646622 0.5628689489487392
6214845 -0.8285071901375243 0.5621936714482054
6216128 -0.8277140775369596 0.5617646703510835
6217411 -0.8278682115071716 0.561944051674191
6218693 -0.8284252572853139 0.5614057051134096
6219976 -0.8273051045034685 0.5623443442331142
6221259 -0.8281876101013266 0.5629084655795219
6222542 -0.8277523726904313 0.5628728004355105
6223824 -0.8273782470303034 0.5635037045592489
6225107 -0.8279366553210818 0.5626447986949055
6226390 -0.8271862800205132 0.5627143880091368
6227673 -0.8272768100513535 0.5630087303184534
6228955 -0.8270485467297901 0.5629147472785729
6230238 -0.8267087156083536 0.5644666157779722
6231521 -0.8277156976510134 0.5633331018301552
6232804 -0.8264428389230173 0.5631761159975113
6234086 -0.8264497459114358 0.5643230827739294
6235369 -0.8268967610199611 0.5634914880891088
6236652 -0.8261861245267265 0.5640350485891069
6237935 -0.8270115932455379 0.5633191513806283
6239217 -0.8263336039483363 0.563371456051219
6240500 -0.8267316085455099 0.5643846344231507
6241783 -0.8270619510250254 0.5637511785707826
6243066 -0.8258627162984744 0.5644654511421071
6244348 -0.8268247216055052 0.5640295558985107
6245631 -0.8263189865602873 0.5635777486415212
6246914 -0.8258918720982391 0.5644682852090382
6248197 -0.8270195227063951 0.5644542680660356
6249479 -0.8259543407580309 0.5642578328036439
6250762 -0.8260818550968717 0.5649112788364614
6252045 -0.8263962444962204 0.5645909051922201
6253328 -0.8256822489076158 0.565336643613767
6254610 -0.8264452850908539 0.5647460499218669
6255893 -0.8254768684636538 0.5645302193898515
6257176 -0.825951482886043 0.5651512380999824
6258459 -0.825954928693647 0.5652647070513394
6259741 -0.8251287608251057 0.566082809392891
6261024 -0.8258861650826015 0.5655200087606486
6262307 -0.8244190954933361 0.5657112622429138
6263590 -0.8252260432021891 0.5662841449049631
6264872 -0.8256998197400567 0.5651447516525416
6266155 -0.8249880810021691 0.5660134100278925
6267438 -0.8250643407302936 0.5664110626766781
6268721 -0.825554331902711 0.5659719005783118
6270003 -0.8242000367649472 0.5663883018700174
6271286 -0.8250393428541006 0.5668292988663309
6272569 -0.8249618327194788 0.5661787133907988
6273852 -0.8237278966701861 0.5669899220987453
6275134 -0.824813244790909 0.5656253594530065
6276417 -0.8241937193471275 0.5665075287439717
6277700 -0.8245451476945923 0.5671425472041323
6278983 -0.8251687860143597 0.5663416504908826
6280265 -0.8242675202011198 0.5669252738666385
6281548 -0.8247469170564579 0.5670388473323933
6282831 -0.8245548770899944 0.5671858962601809
6284114 -0.8236533646524841 0.5681031257668256
6285396 -0.8247097525397045 0.5673184334395694
6286679 -0.824173071495556 0.5675973544342244
6287962 -0.8234161081782723 0.567533071367071
6289245 -0.8242811042076716 0.567120587357627
6290527 -0.8238157008571817 0.5671510926581534
6291810 -0.8241367805312838 0.5670440530206059
6293093 -0.8238694459308601 0.5665959398171828
6294376 -0.8232889658459552 0.5677061336457305
6295658 -0.8240581622150032 0.5670521968119209
6296941 -0.8235012033564183 0.5676602046595954
6298224 -0.8226987514183866 0.5687487217702174
6299507 -0.8236847138806441 0.5683244038261068
6300789 -0.8226579927847221 0.5683180215475048
6302072 -0.8232466662664188 0.5690600588364361
6303355 -0.8235285323413986 0.5687132648207666
6304638 -0.8227814840527932 0.5687425637537317
6305920 -0.8238742812059788 0.5681429482150221
6307203 -0.823669526732126 0.5682673933371185
6308486 -0.8229860403774383 0.5692790879228191
6309769 -0.8235356624253259 0.567996455477022
6311051 -0.8223218098442063 0.5681200082204051
6312334 -0.8227237563590295 0.569598258784876
6313617 -0.8229548590276319 0.5690837964284434
6314900 -0.8225614200467423 0.5696482461909115
6316182 -0.8229305941992822 0.569312041866159
6317465 -0.8225148582269426 0.5692900199542081
6318748 -0.8212474195666887 0.5696726759427406
6320031 -0.8224301277596529 0.5690678958103805
6321313 -0.8219882664751063 0.5692520700951587
6322596 -0.8214356837163075 0.5705195736444592
6323879 -0.8223735669007762 0.5694391549158573
6325162 -0.8213790772680788 0.5697804941979296
6326444 -0.8217650641271984 0.5703254711775511
6327727 -0.8215553244725371 0.5705111890003739
6329010 -0.8213301135188364 0.5708489275934705
6330293 -0.8221312466416839 0.5701892801537695
6330293 -0.8214212366909917 0.5706706564760272
6331602 -0.8213552610413459 0.571215042818148
6332911 -0.8205903733170917 0.5719967058261075
6334220 -0.8217073004011893 0.5708330996493574
6335530 -0.8206150468354814 0.571378785185278
6336839 -0.82182601369606 0.5717374767333115
6338148 -0.8217838558996479 0.5712016445263707
6339457 -0.8209050958746591 0.5713461690500358
6340767 -0.8219191344345749 0.570947582337871
6342076 -0.8208569048952523 0.5711004860862773
6343385 -0.8213560096503794 0.5718945063382439
6344694 -0.8214244494134283 0.5718317116040436
6346004 -0.8201045982206733 0.5723750922356138
6347313 -0.8211093864663388 0.5721354245340986
6348622 -0.8206232527484313 0.5722975920100651
6349932 -0.8209739173911325 0.5724849021651361
6351241 -0.8210124527069305 0.5724821577765048
6352550 -0.8204558424482367 0.5729973479649765
6353859 -0.820782217485358 0.5717848735609388
6355169 -0.8199579889872318 0.5729204987250732
6356478 -0.8204483589781988 0.5726024146050375
6357787 -0.8200864383437164 0.5728193520899121
6359096 -0.8196693267803367 0.5734114899227978
6360406 -0.8201869299300015 0.5727491217104919
6361715 -0.8191605264161612 0.5737421369790111
6363024 -0.8201617499055898 0.5738940691236367
6364334 -0.8200279604001477 0.5739128704081133
6365643 -0.8193757373603479 0.5735689204699456
6366952 -0.8202850548156474 0.5730193691920862
6368261 -0.8193819804455488 0.5732301582959511
6369571 -0.8200719693952417 0.5734602996067657
6370880 -0.820138206066634 0.573069698247932
6372189 -0.819941684158146 0.5732350799585127
6373498 -0.8203293847680774 0.5727968157564425
6374808 -0.8189670571779403 0.5734160128868462
6376117 -0.8189552761690825 0.574002442108837
6377426 -0.8193195868054705 0.5747692645332965
6378735 -0.8190588369593695 0.5753921552919085
6380045 -0.8194703335160916 0.5748959361555542
6381354 -0.8186304094256672 0.5756183261942655
6382663 -0.8189885426209041 0.5748792974451065
6383973 -0.8190194303101734 0.5751728379178737
6385282 -0.8189643175310677 0.5749392075962505
6386591 -0.8192207328091676 0.5738101967074776
6387900 -0.8181095231972607 0.5743049078816646
6389210 -0.819296139665753 0.5744098254591499
6390519 -0.8188201403590932 0.5749263825954974
6391828 -0.8181204815225289 0.5757416742336289
6393137 -0.819220707073515 0.5754288534390973
6394447 -0.8183499232227615 0.5757749303669495
6395756 -0.8187308353158799 0.5759311142795248
6397065 -0.8188131509955966 0.5758158680404653
6398375 -0.8172159920234433 0.5757232127002008
6399684 -0.8181114444757115 0.5755331943580704
6400993 -0.8177503414207647 0.5761369999759794
6402302 -0.8180651128936683 0.5752966528115178
6403612 -0.8179154511191747 0.5759706063773649
6404921 -0.8187097636165026 0.5757398097590258
6406230 -0.8189258425129353 0.5757537688886951
6407539 -0.818445085285303 0.5769609179305782
6408849 -0.8192101226682296 0.5763596018188739
6410158 -0.8177824012634246 0.5766068533041229
6411467 -0.8177798925670497 0.5764884367178372
6412777 -0.8178076564023337 0.5768995788429087
6414086 -0.8171846689816397 0.5771566150387708
6415395 -0.8176564193336877 0.5769776016948078
6416704 -0.8169843256826229 0.577054531031289
6418014 -0.8170833138224647 0.5760983916661766
6419323 -0.8172685952934273 0.5770730382998943
6420632 -0.8167008393096065 0.5767616105197021
6421941 -0.8166396177192355 0.5772897522608402
6423251 -0.8167900004204296 0.5779817989289822
6424560 -0.8175892544413275 0.5774639824206751
6425869 -0.8168950530230177 0.5784286733814239
6427178 -0.8166965434657316 0.5791143510319875
6428488 -0.8169596279765943 0.5783863437088622
6429797 -0.8158294149151428 0.5789222395681409
6431106 -0.8164156696268086 0.578172997245631
6432416 -0.8163109919368353 0.5784574383912152
6433725 -0.8169372834537272 0.577936135944093
6435034 -0.8169584404565278 0.5777839697896571
6436343 -0.8157904697290825 0.5777677479270257
6437653 -0.8162548434394278 0.577589470196021
6438962 -0.8166424516432819 0.579013101023488
6440271 -0.8154703811176459 0.5790947211427125
6441580 -0.8159816978511688 0.5794970487494415
6442890 -0.8147753669954566 0.5802738270017014
6444199 -0.8152374949636692 0.5792071829923818
6445508 -0.8155002110538719 0.5798528600421088
6446818 -0.8153878146183599 0.5798268078660307
6448127 -0.815496672808455 0.5788871093409667
6449436 -0.8153978357820092 0.5797780397739828
6450745 -0.8158482238953813 0.5788870446139338
6452055 -0.8153963269134606 0.5795111062765255
6453364 -0.8153820192852395 0.5802535635831919
6454673 -0.8152700970869 0.5799646995155437
6455982 -0.8144493125709776 0.5810736063027504
6457292 -0.8148553466304119 0.580060326712562
6458601 -0.8153195079394677 0.5807129208702919
6459910 -0.814482493214118 0.5807442651472706
6461220 -0.8151064292794161 0.5799908645437608
6461220 -0.814617269009165 0.5803971952415035
6462556 -0.8149571212007432 0.5805369308252727
6463892 -0.8143776395997742 0.5803887000500596
6465229 -0.8147188963233312 0.5803105717665417
6466565 -0.8136068614285029 0.5809633946073013
6467901 -0.8151405699311765 0.5807882235175931
6469238 -0.8144882406876082 0.5818048110613244
6470574 -0.8150481083142367 0.5814133566784628
6471910 -0.814563310126014 0.5821784452016884
6473247 -0.8137322210409359 0.582435752734225
6474583 -0.8141589957397333 0.5819614792285779
6475919 -0.8138470336587567 0.5817601998673406
6477256 -0.8144281459859705 0.5809019184554608
6478592 -0.8141609901290413 0.5807720818942834
6479929 -0.8139026277745061 0.5802364087980667
6481265 -0.8139583115443677 0.5819719102285749
6482601 -0.8137198382563047 0.5812711972071137
6483938 -0.8135592825779897 0.5819883848563917
6485274 -0.8134488048676486 0.5822324815277035
6486610 -0.8137405067184803 0.5816625485472448
6487947 -0.8133635119049064 0.5833765459907426
6489283 -0.8135703921840003 0.5826491009057184
6490619 -0.8131612751637916 0.5831950366682783
6491956 -0.8131601047145768 0.5838220064536198
6493292 -0.8134717378855844 0.5830050303396153
6494629 -0.8127277201232921 0.5834842799487503
6495965 -0.8135461226481061 0.5823906518734029
6497301 -0.8140704887824821 0.5832728716054904
6498638 -0.8139664814680287 0.5829353235752078
6499974 -0.813494088235616 0.5832805916198452
6501310 -0.8130844125266916 0.5830265645451468
6502647 -0.8127142864060953 0.5830552206884133
6503983 -0.812626014082208 0.5835439363836358
6505319 -0.812483248641214 0.5833624616663208
6506656 -0.8116054592047732 0.5837005063586839
6507992 -0.8121594102167223 0.583015612036549
6509328 -0.8123123847893791 0.5844334384936269
6510665 -0.8120735578123397 0.5839762683857346
6512001 -0.8127487200374475 0.5840051990859288
6513338 -0.8125171349170366 0.5839876049424487
6514674 -0.8129600365070948 0.5836675079540754
6516010 -0.8121710318693083 0.5845890832621708
6517347 -0.8128040432628425 0.5839553258863572
6518683 -0.8127314405145586 0.5856455416478525
6520019 -0.8122936145645473 0.5852087775793485
6521356 -0.8121032291189086 0.5846886541506195
6522692 -0.8111962459389871 0.5859815716949656
6524028 -0.8116306904850724 0.584898929246512
6525365 -0.8114561569089265 0.5860205828912279
6526701 -0.811699866328075 0.5846011707593143
6528038 -0.8113782867353428 0.5851871453469256
6529374 -0.8110369579539058 0.5854482069472585
6530710 -0.8113921579168387 0.5845061057790565
6532047 -0.8104263684557396 0.5854926009631723
6533383 -0.8110414584059156 0.5856585565194531
6534719 -0.810988993409912 0.5862626474963233
6536056 -0.810723991395466 0.5855851307814606
6537392 -0.8107034947488192 0.5868989334163004
6538728 -0.810779220126446 0.5860891619849035
6540065 -0.8105133659555741 0.5868352713060764
6541401 -0.8097719099960909 0.5862081423102115
6542737 -0.8104786535653854 0.5860528342953656
6544074 -0.8095333760457468 0.5872822961990936
6545410 -0.8108769423836194 0.585789348469287
6546747 -0.8104834163424535 0.5863250173096103
6548083 -0.810142805373045 0.5854804536479152
6549419 -0.8101900775548742 0.5867026451540327
6550756 -0.810054323764012 0.5859489031296228
6552092 -0.8099928044015421 0.5871582046482237
6553428 -0.80986881306494 0.5869529053299231
6554765 -0.8097958259605076 0.5872293170002808
6556101 -0.8091343480977649 0.5878026508040388
6557437 -0.8093974321760022 0.5879601969561542
6558774 -0.8088062617426707 0.5886937741467643
6560110 -0.809696919953468 0.587396827526861
6561447 -0.808767650960743 0.5884208348532182
6562783 -0.8090712949591079 0.5869165452596192
6564119 -0.8095749537208369 0.5884034453656982
6565456 -0.8093427674045474 0.5878612888196204
6566792 -0.810052111845781 0.5884443756544357
6568128 -0.8090897247634798 0.5891131834837477
6569465 -0.8096239763370712 0.5880477039400489
6570801 -0.8088206601646709 0.5894517112008909
6572137 -0.8092450650204928 0.5884824405799569
6573474 -0.8084393188994277 0.5894955883070006
6574810 -0.8087839374199868 0.588961645785793
6576146 -0.8084871619333011 0.589190804664841
6577483 -0.8079117953840363 0.5891105920914624
6578819 -0.8084258424951087 0.588250577373573
6580156 -0.8080820178170107 0.5892268487174932
6581492 -0.8087104727901914 0.5890323929725795
6582828 -0.8081635756391583 0.5895294970062883
6584165 -0.8083757525133601 0.5889872866060737
6585501 -0.8082666747874131 0.5904914224965248
6586837 -0.8082917487083683 0.5891968390856018
6588174 -0.8077244312524202 0.591407283780836
6589510 -0.8078626697321788 0.590016008018108
6590846 -0.8077977730427699 0.5902516106630463
6592183 -0.8072387143195099 0.5896541006152968
6593519 -0.80777014924048 0.5896741790539952
6594856 -0.8074955798289566 0.5900960476644982
6594856 -0.8079785362604754 0.5906986989623015
6596219 -0.8083441741069354 0.589242533252594
6597583 -0.8078486214949876 0.5903338644245893
6598947 -0.8077889950898258 0.5897452577243708
6600311 -0.8075868229673191 0.5906423664311021
6601675 -0.8076121142309675 0.590659884870841
6603039 -0.8073984861875606 0.5909334404262394
6604403 -0.8066895380000667 0.5913163703128134
6605767 -0.8070338734132292 0.5910164947284413
6607131 -0.8062789074491767 0.5921377430150876
6608495 -0.8067078432108814 0.5907730572975217
6609859 -0.8066069030135721 0.591853360827359
6611223 -0.807017927803637 0.5900133411188683
6612587 -0.8065341213180108 0.5914481758610632
6613951 -0.8063443730796043 0.5906845467274593
6615315 -0.8070331011657592 0.5919161874647675
6616679 -0.8069295052476878 0.5916941841011939
6618043 -0.8064538197245822 0.5923539724577691
6619407 -0.806365682197362 0.5926957791373435
6620771 -0.8063045771412714 0.5923364735343486
6622135 -0.8051458338529122 0.5931589487140528
6623499 -0.8062868821477428 0.5919537779810029
6624863 -0.8054691755973505 0.5926764807515423
6626227 -0.8059230776416826 0.5914147190482592
6627591 -0.8055537906766981 0.5925466124100384
6628955 -0.8058036806905677 0.5918032815838764
6630319 -0.806250549559355 0.5933974871770498
6631683 -0.8062586729593043 0.5926530802530221
6633047 -0.8058222036964622 0.5929275936936568
6634411 -0.8053846224845832 0.5933282108828273
6635775 -0.8054775983409721 0.5929072021946782
6637139 -0.804783431983069 0.5944033519116134
6638503 -0.8049048547110171 0.5934010183917059
6639867 -0.8045760843175963 0.5941256417824922
6641231 -0.8051187759442651 0.5932973527534824
6642595 -0.8048051838710204 0.5940310855037501
6643959 -0.8054868676742468 0.592728739842054
6645323 -0.8054865654449797 0.5942845267931529
6646687 -0.805941795535051 0.593233112749973
6648051 -0.805343411292848 0.5942624245955073
6649415 -0.8050917344430875 0.5940326986572099
6650779 -0.8052309047831815 0.5946940949205959
6652143 -0.804337816949652 0.5954047513104098
6653507 -0.8042630786991576 0.5947310106336661
6654871 -0.803368414146514 0.5960291626831081
6656235 -0.8034218019658826 0.5950465099891505
6657599 -0.8033526510645077 0.5954038334556983
6658963 -0.8043130536568438 0.5936121427470257
6660327 -0.8041667631294236 0.5951227743683725
6661691 -0.8048220441101862 0.5942268737705225
6663055 -0.8046408676045405 0.5950603571176422
6664419 -0.8049396554601133 0.5950003566816575
6665783 -0.8046464726896867 0.595306059361742
6667147 -0.8039629448552311 0.5959380532226651
6668511 -0.8041975432499194 0.5958960565511152
6669875 -0.803358132262493 0.596753146927055
6671239 -0.8036241314002229 0.5955797291682755
6672603 -0.803621628021194 0.5954182001369411
6673967 -0.8030652272147736 0.5958955428496411
6675331 -0.8033084968658846 0.5960863613062706
6676695 -0.8029267875792002 0.5952065527511746
6678059 -0.8031065143497512 0.5963506169566059
6679423 -0.8032091611732481 0.5954221239535625
6680787 -0.8031170674427892 0.5967397600958879
6682151 -0.8036421467930241 0.5947033404745034
6683515 -0.802763979882458 0.5972624526780136
6684879 -0.8028379461062167 0.5962426550763493
6686243 -0.801925424921652 0.597723026507807
6687607 -0.8021597981453163 0.5962848185181616
6688971 -0.8030227792866271 0.5971787555523677
6690335 -0.8028934528752234 0.5964115253065734
6691699 -0.8034044574407212 0.5967175517894582
6693063 -0.8029921716040583 0.5973283295770334
6694427 -0.8031746726790349 0.5973282692766229
6695791 -0.802805450684824 0.5979106249891488
6697155 -0.8024510690932589 0.597627298342077
6698519 -0.8020257978216165 0.5988666578155148
6699883 -0.8025477233821801 0.5969127329812065
6701247 -0.8014665185952341 0.59939963969432
6702611 -0.8023254292236596 0.5976293441940269
6703975 -0.8008113475133292 0.599379888979156
6705339 -0.801537922873762 0.5982737715791958
6706703 -0.8013974726734816 0.5980287810053967
6708067 -0.801835351046124 0.5977623927165113
6709431 -0.8023609120244499 0.5979244227136775
6710795 -0.8020166950389255 0.5981571969417633
6712159 -0.8020627663821358 0.5981981556657154
6713523 -0.8016407454344767 0.5993248450057294
6714887 -0.8013956567268118 0.5982441715917782
6716251 -0.8008378558661711 0.5995248194886329
6717615 -0.8015383542339821 0.5976085613904641
6718979 -0.800186385386885 0.5996878277012295
6720343 -0.8007199375864154 0.5986770204326571
6721707 -0.7997959848653228 0.6002678820304613
6723071 -0.8000937129872703 0.5992211779335687
6724435 -0.7999716820023074 0.6003317618197227
6725799 -0.8002041258375032 0.5998595925639667
6727163 -0.8002492988909264 0.6003679679485544
6728527 -0.800354216373014 0.6007206264022962
6729891 -0.8001852145021405 0.6004923092319558
6731255 -0.8006226752999707 0.601739416963315
6731255 -0.79997653909671 0.6001990321488485
6732647 -0.7997520932212626 0.6016082148646945
6734039 -0.799704156204342 0.6005115521897628
6735431 -0.7995793131505862 0.6014902159752069
6736823 -0.7998539443461739 0.6002263656637612
6738216 -0.799751670900381 0.6017309731190943
6739608 -0.8001447301527788 0.6005045269531388
6741000 -0.7998052079139331 0.6019111621705978
6742392 -0.8005791899463954 0.5999344044302188
6743784 -0.7996341782385438 0.6018468650003399
6745177 -0.8002510357127381 0.6002377620918619
6746569 -0.7996763100380331 0.6013038844141545
6747961 -0.7997160635828652 0.5999405506387508
6749353 -0.7993125205838486 0.6021536315313168
6750745 -0.7991979415959186 0.600617753599816
6752138 -0.7989708331004362 0.6025265068398671
6753530 -0.7993886338954067 0.6006665132742414
6754922 -0.7984899355758897 0.6022857744357092
6756314 -0.7991225858559324 0.6013817196858707
6757706 -0.7993687268440409 0.6025058510288774
6759099 -0.7996451394951426 0.6014789857498942
6760491 -0.7987664149349546 0.6023079756677845
6761883 -0.7993237619980604 0.6012388129264646
6763275 -0.7984876269262446 0.6026370041726504
6764668 -0.7994023483057185 0.602119944452654
6766060 -0.7988963873594845 0.6036567802307143
6767452 -0.7993413329945356 0.6030818302580393
6768844 -0.7994447819833143 0.6031614784842889
6770236 -0.7987293642992586 0.6031203559145192
6771629 -0.7986465312933259 0.6034949051804238
6773021 -0.7990269312335181 0.6030729904642324
6774413 -0.7985303589690492 0.60279796790807
6775805 -0.7984167772907327 0.6028177167391079
6777197 -0.7981837668693325 0.6029942602043038
6778590 -0.798053173791799 0.6030995559759763
6779982 -0.7980619879560025 0.6029798900394514
6781374 -0.7975144751459026 0.603620144745628
6782766 -0.7975695977343862 0.6032336788326288
6784158 -0.797565044382603 0.603544085039618
6785551 -0.7971516118517391 0.6036995490987139
6786943 -0.7974011905614407 0.6051033012519018
6788335 -0.7971842639791046 0.6039593015474122
6789727 -0.7970256919513614 0.6052586323354696
6791120 -0.796902859305498 0.604392715223298
6792512 -0.7963544323961316 0.6052739111646923
6793904 -0.7965451089697803 0.603799963121519
6795296 -0.7967992743356679 0.6059699154857225
6796688 -0.7962277450059316 0.6039510500825406
6798081 -0.7961902252379783 0.606178767791252
6799473 -0.7966792883106897 0.6046710247022851
6800865 -0.7961263749723196 0.6063305548275237
6802257 -0.7967827222821503 0.6044528796153158
6803649 -0.7961324025589867 0.6064100532925784
6805042 -0.7959429841859383 0.6045401449492614
6806434 -0.7959453476943835 0.6059971481096775
6807826 -0.7964583253289128 0.6040649705651485
6809218 -0.7959844350972115 0.6058723728293074
6810610 -0.7970329968690723 0.6037922768398105
6812003 -0.7964247445889797 0.6055517086373287
6813395 -0.7969925328643249 0.6047386708449922
6814787 -0.7958135915917656 0.6063265979282844
6816179 -0.7964208277750049 0.6049004624754423
6817572 -0.795217745391189 0.6068597485661703
6818964 -0.795608527290198 0.6046867775368104
6820356 -0.7949806445878865 0.606770213229553
6821748 -0.796141473101988 0.6047269133265903
6823140 -0.7950316892802597 0.6063885193575513
6824533 -0.7957944830194926 0.6053712903596853
6825925 -0.7957639309007386 0.6074586602615875
6827317 -0.7952757412705294 0.6061832572924551
6828709 -0.7949426778861289 0.6073472060087727
6830101 -0.7950879880469155 0.6060613727209074
6831494 -0.7942352457995651 0.6078113738615745
6832886 -0.7953668124677887 0.6068014293620334
6834278 -0.7946352417940484 0.608109438349283
6835670 -0.7951046849163633 0.6079225531639175
6837062 -0.7942679746231932 0.6082891134231655
6838455 -0.7954609086223999 0.6082881244201296
6839847 -0.7937367098532473 0.6090518402686442
6841239 -0.7951683360053688 0.6078991736215048
6842631 -0.7938383539842377 0.6081672488768273
6844024 -0.7948836773499105 0.6081175820198618
6845416 -0.7943161598979689 0.6080638930026955
6846808 -0.7943897436019415 0.6083629860449816
6848200 -0.7935868801678382 0.6076748202832805
6849592 -0.7946219313530216 0.6086066108266404
6850985 -0.794146227728501 0.6087657389944937
6852377 -0.7939867341696781 0.6089154154778328
6853769 -0.7933538827338491 0.6089519864567683
6855161 -0.7937094247599862 0.6100569212245733
6856553 -0.7936764616280951 0.6085686896933665
6857946 -0.7935841841066718 0.6098298108862769
6859338 -0.793739450053911 0.608754339487257
6860730 -0.7936597505634291 0.6097517370914655
6862122 -0.7938629801226547 0.6086429233772638
6863514 -0.7936034400596779 0.6103747245649355
6864907 -0.7935817974264189 0.608727497579978
6866299 -0.7933426166240062 0.6104583250553876
6867691 -0.7929538995365002 0.6096202855060406
6869083 -0.7927475235047226 0.6112877611969548
6870476 -0.7931346729021642 0.6098154139188308
6870476 -0.793129293185107 0.6103446471600211
6871897 -0.792205377341564 0.6108054643112426
6873318 -0.792972215314505 0.6104499091982438
6874739 -0.7921207503885659 0.6108167488664714
6876160 -0.7932324078495615 0.6103171432757027
6877581 -0.7925522557039436 0.6112505791485517
6879002 -0.7930296646748975 0.6102021765060412
6880423 -0.7923636347178532 0.6113402880069482
6881844 -0.7921327416760676 0.6097755297481086
6883265 -0.791313972564427 0.6117583609548136
6884686 -0.7915394130912037 0.6104484171022924
6886107 -0.7915441607163144 0.6119804340623932
6887528 -0.7917966786367708 0.6109101713930192
6888949 -0.7919804476341934 0.6119092832851423
6890370 -0.7919952216648718 0.6116875061307387
6891791 -0.792968288486006 0.6121638545571766
6893212 -0.7919959048089183 0.6118993467414086
6894633 -0.7934255756571031 0.6110796404949053
6896054 -0.792134203504632 0.6119152260924263
6897475 -0.7929118158369676 0.6104711704702771
6898896 -0.7918657097817777 0.6123480869679389
6900317 -0.7920587722483378 0.6105858831537724
6901738 -0.7914062432812495 0.6124564381875713
6903159 -0.7915006246456247 0.611682202370166
6904580 -0.7912463380334729 0.612354092897642
6906001 -0.7899439025337271 0.613017422971712
6907422 -0.7910859507248142 0.6121138410446747
6908843 -0.7903525205884561 0.6129514234527814
6910264 -0.7911067389700973 0.6119826235388267
6911685 -0.7895456011403182 0.6134046668277513
6913106 -0.7904079407600448 0.6119915426739948
6914527 -0.7904093538259965 0.6135562669666411
6915948 -0.7912284065135082 0.6128263207007179
6917369 -0.7903150527899268 0.6147481043118315
6918790 -0.7904257590195709 0.6128573580235994
6920211 -0.7901719415101195 0.6147057418179073
6921632 -0.790335268958522 0.6134755902293171
6923053 -0.7908757518819751 0.614280291653651
6924474 -0.790612638851688 0.6131530591715504
6925895 -0.7909822724767172 0.6140251240102353
6927316 -0.7897905284501019 0.6139197834172463
6928737 -0.7909840503175806 0.6135558785916577
6930158 -0.789389880553289 0.6146451634832856
6931579 -0.7900020112277425 0.6134746038517606
6933000 -0.7887577710552482 0.6149461296713011
6934421 -0.7887920905481067 0.6135708102910401
6935842 -0.7886696717033718 0.6154492864824275
6937263 -0.7889945981614795 0.6141265958347315
6938684 -0.7885591845000735 0.6163360392603018
6940105 -0.7886057646144016 0.6148611121523905
6941526 -0.7883199481897789 0.6158129376324992
6942947 -0.7893351095894834 0.6160561413826096
6944368 -0.788687205348716 0.6158339604782348
6945789 -0.7891299453733032 0.6152479762991424
6947210 -0.7877984606039139 0.6165036275812388
6948631 -0.7888651946450241 0.6148430575125203
6950052 -0.7874742308066676 0.6168072842569646
6951473 -0.7887303397339569 0.6152523504227265
6952894 -0.7873356042204184 0.6161103768312244
6954315 -0.7882417460217184 0.6151606951932144
6955736 -0.7878718870900424 0.6168005316042421
6957157 -0.7884356244756673 0.6148719322507855
6958578 -0.7879913906144925 0.6173118610882942
6959999 -0.7883696104464913 0.6156400227278332
6961420 -0.787565183363426 0.6174244346925841
6962841 -0.7882272498014603 0.6155583480995351
6964262 -0.7879428473912761 0.6175355921456388
6965683 -0.7880918110327987 0.6160146762244763
6967104 -0.7872582528419755 0.6177054336742563
6968525 -0.7876924918713123 0.6163584080823895
6969946 -0.7872249769678982 0.6176738702640286
6971367 -0.7874582267025771 0.6168554133630603
6972788 -0.7869941638300736 0.6176820169883467
6974209 -0.7873712664691974 0.6168040226387145
6975630 -0.7874764910295102 0.6173598148666353
6977051 -0.7867910326570126 0.6163671928888614
6978472 -0.7877161333320691 0.617046316068058
6979893 -0.7867501096854655 0.6172767577182523
6981314 -0.7880569495934577 0.6173715073836675
6982735 -0.7865757907558456 0.6176132225429882
6984156 -0.787982977166854 0.6170367006114732
6985577 -0.7863528329132338 0.6172638524473023
6986998 -0.7866493974499934 0.6168011433226854
6988419 -0.7857708657593141 0.6182806459639971
6989840 -0.786628969985739 0.617623668979838
6991261 -0.785686731290032 0.6194128288323778
6992682 -0.7871768698824978 0.6178116805186255
6994103 -0.7859544264967044 0.6196155536945726
6995524 -0.7863174749330261 0.6181449352925474
6996945 -0.7860484811720543 0.6199751096042487
6998366 -0.7860316584765147 0.6188121361566945
6999787 -0.7854123209879867 0.620057858191248
7001208 -0.7853713346003437 0.6186481542686268
7002629 -0.7846589541011546 0.6202288555000772
7004050 -0.7854025979901537 0.6189131916761695
7005471 -0.7850956775520583 0.6204867612878081
7006892 -0.7858572507591827 0.6197691444705966
7008313 -0.7857539607689736 0.6202578453615116
7009734 -0.784233313412889 0.6203240164964041
7011155 -0.785357984535479 0.6203983577967431
7012576 -0.7844249492990494 0.6199015143705628
7012576 -0.7849146191647691 0.6191301650479822
7014026 -0.7845500395759566 0.620755342504898
7015476 -0.784809301376819 0.6188183096864346
7016927 -0.7840862772484056 0.6209900336924823
7018377 -0.7840430644314492 0.6198889496877232
7019827 -0.7842574714819468 0.6208251770054194
7021278 -0.7833585027140404 0.6199683887874592
7022728 -0.7846105432265 0.6199632281052028
7024179 -0.7827969793868006 0.6213321738207703
7025629 -0.78442722948064 0.6200588926803228
7027079 -0.7832869362832827 0.6218419290259977
7028530 -0.7838779833478323 0.6207234474704078
7029980 -0.7834381195858933 0.6215100706143415
7031431 -0.7834761159903303 0.6203036993247621
7032881 -0.7839879949010665 0.6215077774668764
7034331 -0.7839945842805747 0.6205487152814235
7035782 -0.7845781145115138 0.6210778625247789
7037232 -0.7836449643947859 0.621720147997487
7038683 -0.7844979217696993 0.62054314574956
7040133 -0.7831023583366028 0.6222297165307091
7041583 -0.7841097998414148 0.6213006647450067
7043034 -0.7829103363791298 0.6222879244903514
7044484 -0.7833366733230669 0.6212943741300987
7045934 -0.7829063951158916 0.6227683134154595
7047385 -0.7824807852190412 0.6218905325015814
7048835 -0.7829844267590587 0.6225608728035725
7050286 -0.7822287078423477 0.6216308432528689
7051736 -0.7831781571943187 0.6215362503774775
7053186 -0.7815713445618615 0.6225908404411785
7054637 -0.7829990345248875 0.6221172352195552
7056087 -0.7824104638521125 0.6236688326090664
7057538 -0.7825196665215669 0.622013299581805
7058988 -0.7826951473541857 0.6236233365557189
7060438 -0.78190714060161 0.6225493680908881
7061889 -0.7823729722972697 0.6237006224303047
7063339 -0.7820284314908953 0.6235828680914842
7064790 -0.7828198170982704 0.6233096116916841
7066240 -0.782070857952791 0.6241605781704935
7067690 -0.7827846914771421 0.6223866735734285
7069141 -0.7816221592309059 0.6249045182762869
7070591 -0.7822427418812546 0.6236163416585632
7072041 -0.7823597362646286 0.6246027154207736
7073492 -0.7821422716895442 0.6236251671120688
7074942 -0.7818394362880297 0.623905006622073
7076393 -0.7806399068178053 0.6247351444659889
7077843 -0.782044262671296 0.6241684372399873
7079293 -0.7810191763963151 0.6252615580658674
7080744 -0.7825776420599438 0.6254498006710014
7082194 -0.7811574106839478 0.6255543609063602
7083645 -0.7819674213633071 0.6252684799832882
7085095 -0.7801699654712403 0.6254116928951473
7086545 -0.7817062398264146 0.6247415846656618
7087996 -0.7798843384902664 0.626514839710589
7089446 -0.7808546915757422 0.6250087757728899
7090897 -0.7802960280006795 0.6267007537798467
7092347 -0.7799983389047671 0.6253647419389028
7093797 -0.7798270304394204 0.6264868429450461
7095248 -0.7791769505855305 0.6261433868180079
7096698 -0.7801255827901435 0.6269089984708472
7098149 -0.7790994329205939 0.6262309447977988
7099599 -0.7805793682512808 0.625558132820745
7101049 -0.7792245421696312 0.6264884527742296
7102500 -0.7804402732452619 0.6255243931384414
7103950 -0.7798289363093375 0.626596094853656
7105400 -0.7802455245831152 0.6249882350304161
7106851 -0.7791184719099291 0.6268884133787758
7108301 -0.7795281444104426 0.6253740294621497
7109752 -0.7791831779757686 0.6266830643090348
7111202 -0.7787858743247059 0.6263857348796111
7112652 -0.7801274653359992 0.6260455954146522
7114103 -0.7789627084045635 0.6261972804079479
7115553 -0.7799770629465802 0.6260171118689041
7117004 -0.7785551192875181 0.6272054613522082
7118454 -0.779520310962547 0.6266366785745183
7119904 -0.7784954309800259 0.6277547923456919
7121355 -0.7788411178993258 0.6264475717025741
7122805 -0.7790119830343013 0.6275660419429328
7124256 -0.7785798025029775 0.6271247131728596
7125706 -0.7792633212197975 0.6274827875941595
7127156 -0.7783517556925685 0.627842982524908
7128607 -0.7790830321120232 0.6269430496737183
7130057 -0.7778868428616668 0.6277797094724665
7131507 -0.7788385874302447 0.6270575716755298
7132958 -0.7779266699166137 0.6289878190452273
7134408 -0.7784957045624327 0.6273715519701587
7135859 -0.7778105932373007 0.6287896261208077
7137309 -0.7782798637875864 0.6283600778490535
7138759 -0.778565140849686 0.6292733822432107
7140210 -0.7774148287287324 0.6287300367508576
7141660 -0.7783692013902593 0.6290856540742176
7143111 -0.7770607119738323 0.6296328341936807
7144561 -0.7780939166226164 0.6291524585091165
7146011 -0.7765117670364106 0.6297497703509558
7147462 -0.7777156712259347 0.6290692536032046
7148912 -0.776663448057421 0.6305034778747035
7150363 -0.7771840176695913 0.6293155217609963
7151813 -0.7773468380892822 0.6305967107762698
7153263 -0.7768652777077178 0.629366999136343
7154714 -0.7774606245080296 0.6300991050123635
7156164 -0.7767114321818445 0.6304906615103617
7157615 -0.7779500434840616 0.6298933522801129
7157615 -0.777266233059788 0.629694251040929
7159095 -0.7763169241693596 0.6308210906794208
7160575 -0.7762184756626163 0.6300686946634293
7162056 -0.7770254861556346 0.630356924700365
7163536 -0.7753595429768909 0.6309807876917067
7165016 -0.7763624399874419 0.6303402323357937
7166497 -0.7753850193822988 0.6315187079464014
7167977 -0.7758637768940254 0.6308287059351074
7169458 -0.7766166525782584 0.6314908032419738
7170938 -0.7758095181940591 0.6312702959199464
7172418 -0.7768383107270938 0.6309720829251412
7173899 -0.7756111853997536 0.6320982057704413
7175379 -0.7769436022530396 0.6306518438300877
7176860 -0.7759465107080824 0.6318993723659697
7178340 -0.7759539813786345 0.6306878748879277
7179820 -0.7763701840327756 0.630980192721557
7181301 -0.7753826573381422 0.6312836269013037
7182781 -0.7758703916619513 0.6314301895043458
7184262 -0.7751446432091158 0.6316369706312677
7185742 -0.7754377155223254 0.6306856929427271
7187222 -0.7761470404660652 0.6314896548166362
7188703 -0.7748299955953728 0.6316267332724584
7190183 -0.7762823799998104 0.6317011342653056
7191663 -0.774521501413632 0.6326172320705825
7193144 -0.7754245104918777 0.6319064438428528
7194624 -0.7747083396632921 0.6327739812062649
7196105 -0.7739036110728104 0.6321754719992256
7197585 -0.7754196658870295 0.6321793535731567
7199065 -0.7733696937821846 0.6326938985372329
7200546 -0.7750134621359223 0.6325693245000887
7202026 -0.7737788731990617 0.6334650264795547
7203507 -0.7738011197305247 0.6327695762446789
7204987 -0.7752601471007763 0.6336293969260173
7206467 -0.7738012818637453 0.6336783396921203
7207948 -0.7747523437877497 0.6328207913524309
7209428 -0.773450242707861 0.6332188581935494
7210909 -0.7741146558535614 0.6326244734463999
7212389 -0.7746210286226366 0.6331537761716323
7213869 -0.7735930341705762 0.6333782905338323
7215350 -0.7744586769135828 0.6335411986299675
7216830 -0.773091236961465 0.6342905874348356
7218310 -0.7738488191956222 0.633073712379079
7219791 -0.7734091199297259 0.6345391890977091
7221271 -0.7728414301416027 0.6338890347509478
7222752 -0.7742960479261802 0.6339777129634899
7224232 -0.7734827674923602 0.634519749629609
7225712 -0.7736863150374763 0.6340451788500179
7227193 -0.7728348372563847 0.6347987268774988
7228673 -0.7726041071389222 0.634279685718641
7230154 -0.7732121648080935 0.6353224985308566
7231634 -0.7720854815501607 0.6348415027582601
7233114 -0.7727748577514352 0.6347234378769036
7234595 -0.7726080389242937 0.6354848099030748
7236075 -0.7729673430685817 0.6347475934212311
7237556 -0.7729370201040523 0.6351838891315795
7239036 -0.7722797019642377 0.6354369985005565
7240516 -0.7729453544458191 0.6357491446469118
7241997 -0.7724112830644445 0.6363641111384908
7243477 -0.771999704641831 0.6351391790413791
7244958 -0.7724979839774788 0.6360244923616106
7246438 -0.7714060489614575 0.6351077564769434
7247918 -0.7728466006324579 0.6354518320347932
7249399 -0.7711290881750691 0.636520029142811
7250879 -0.7723662680743859 0.6364237570178785
7252359 -0.7726511459386315 0.6365168023274076
7253840 -0.7716346303214897 0.6362612123780518
7255320 -0.7715882803177524 0.6362775077548081
7256801 -0.7703550205537836 0.6369593772086023
7258281 -0.7714899633956335 0.6363945736355785
7259761 -0.772044447082699 0.6359942917824611
7261242 -0.7701387381979796 0.6372172404849874
7262722 -0.7712412530993691 0.6370196942664942
7264203 -0.770895243673811 0.6381676636646617
7265683 -0.7696798101745864 0.6382981655899934
7267163 -0.7716464805261033 0.6373566669107008
7268644 -0.7705545485981785 0.6378963580558105
7270124 -0.7709936512388611 0.6374810942741042
7271605 -0.7711180022608876 0.6373900834651306
7273085 -0.7704608380773075 0.637584689023517
7274565 -0.7710289759325859 0.6373743962443523
7276046 -0.7697288752953629 0.6390665222564743
7277526 -0.7705295067872518 0.6380729634865275
7279006 -0.7704200177607058 0.6382027348265241
7280487 -0.7699751717372736 0.637957352688002
7281967 -0.7707512775089973 0.637603476471808
7283448 -0.7695513749666771 0.6383109161745011
7284928 -0.7704594627431881 0.6376043668714881
7286408 -0.7709243260428218 0.6381305029567734
7287889 -0.7695866858700893 0.6387482592420102
7289369 -0.7698833616004417 0.6392911888443165
7290850 -0.7685674856601151 0.6397252406229519
7292330 -0.7696560520844217 0.6398602129884848
7293810 -0.7702182654940823 0.6390777573475424
7295291 -0.7694509998576957 0.6396349254112772
7296771 -0.7698901161645891 0.6393348358961692
7298252 -0.7685310516273545 0.6398208216721395
7299732 -0.7690604679825571 0.6398306867221051
7301212 -0.7693425058541634 0.6394586627868734
7302693 -0.7679167604380505 0.6402218204114268
7304173 -0.7695697524561901 0.639785372104481
7305654 -0.7680941862593017 0.640060278370648
7305654 -0.7696326029944152 0.6397769540603846
7307165 -0.7689510144093068 0.6403077621481523
7308676 -0.7684858188876059 0.6400843167596829
7310187 -0.7690508616333969 0.6402151651910589
7311698 -0.7682114999664941 0.6404902777390796
7313209 -0.7686659777956579 0.6398921637124876
7314720 -0.7688171882587053 0.6405496299205338
7316231 -0.7672201091129384 0.6416822177913459
7317742 -0.7681016543232015 0.641051299373899
7319253 -0.7675960240091604 0.6412286050563063
7320764 -0.7678011098217203 0.640874047026587
7322275 -0.7680465307780922 0.640459071627491
7323786 -0.7672431257047718 0.6418896711681767
7325297 -0.7670194413157784 0.6410973151821466
7326808 -0.7668772495356803 0.6415541860187335
7328319 -0.7666695111598293 0.6414526862139626
7329830 -0.7675693764596975 0.6415111442654363
7331341 -0.7670061622775242 0.6416506738512888
7332852 -0.767198564447711 0.6415427217158612
7334363 -0.7679075218779173 0.6412748843915815
7335874 -0.7663616803476744 0.6421645057767649
7337385 -0.76650553412234 0.6421531637157527
7338896 -0.7673388060191249 0.6420847839833513
7340407 -0.7663115003759231 0.6417871199579455
7341918 -0.767820424762231 0.6420340510750854
7343429 -0.7660128640729283 0.6415479989051265
7344940 -0.7665554121375608 0.6418838159352463
7346451 -0.7669707432122927 0.6420312872389342
7347962 -0.7653450133241078 0.6426407238654549
7349473 -0.7664729974802109 0.6432891773474516
7350984 -0.7663342410170512 0.6435873969959125
7352495 -0.7661286007238142 0.6441681323081421
7354006 -0.7665000856830231 0.6432017203522977
7355517 -0.7653268694747088 0.6437738109114727
7357028 -0.7657881885219399 0.6430625796862166
7358539 -0.7657343596222693 0.6426638148630476
7360050 -0.7640786542961111 0.6438407981791942
7361561 -0.7650543525204023 0.6438890864800919
7363072 -0.764668757735388 0.6439417741378317
7364583 -0.7647584861114667 0.6434162735148522
7366094 -0.7653265144566668 0.6432396566107583
7367605 -0.7648455647471942 0.6441430042900761
7369116 -0.7649888651334379 0.6445481236579317
7370627 -0.7645631899023674 0.644525460133054
7372138 -0.76416951747506 0.6448115984790829
7373649 -0.7647012214732474 0.644147263352727
7375160 -0.7641558462712914 0.6452967456773404
7376671 -0.7641088759766659 0.644370073852928
7378182 -0.765360404125893 0.6441628403160073
7379693 -0.7638839805774286 0.6448360778942245
7381204 -0.7651169142151845 0.6445726046282036
7382715 -0.764619088775004 0.6444256794762105
7384226 -0.7639575393856067 0.6449179026210109
7385737 -0.7641692438140824 0.6450062387447919
7387248 -0.7631040866517242 0.6459268804956562
7388759 -0.7643017437029409 0.6454930598265892
7390270 -0.764565963177966 0.645301361127161
7391781 -0.7639515920345322 0.6456658164111169
7393292 -0.7648275370059521 0.6451483801890049
7394803 -0.7641273965858317 0.6459095763619261
7396314 -0.7634054537256595 0.6459994259828385
7397825 -0.7639232388969105 0.6454061568864631
7399336 -0.7622927448116182 0.6464145546695979
7400847 -0.7631260322415183 0.6459421898132134
7402358 -0.7630786113162196 0.6457395456495714
7403869 -0.7623005130479864 0.6461238018424518
7405380 -0.7631258753842098 0.6464301816977667
7406891 -0.7627301380470396 0.6463555484608493
7408402 -0.7627961991174423 0.6467455803051754
7409913 -0.7632559503151884 0.6467575517059571
7411424 -0.76257634816872 0.647909311958806
7412935 -0.7627607605113299 0.6482086026480253
7414446 -0.7625810526392425 0.6481886852181528
7415957 -0.7620896445549493 0.6484882394398991
7417468 -0.7624072952876632 0.6480032184822798
7418979 -0.7614131948209327 0.647968073385771
7420490 -0.7622944960533947 0.6479028349728968
7422001 -0.7624415119210258 0.6475851569105405
7423512 -0.7611300674864245 0.6482957504712731
7425023 -0.7623655586031259 0.6478191436388677
7426534 -0.7618307019293006 0.6477965444571082
7428045 -0.7615749495095621 0.647833834506147
7429556 -0.7626591907596407 0.6479133966737516
7431067 -0.7612437111140837 0.6486415287465078
7432578 -0.7621360136782525 0.6492135408600209
7434089 -0.7616987924525874 0.6485624897826353
7435600 -0.7612923922460308 0.6480594155908549
7437111 -0.7622207329547325 0.6483895782647022
7438622 -0.760858808325596 0.6487516985766475
7440133 -0.7616523769912907 0.649379799714647
7441644 -0.7607386471567623 0.6486243659441925
7443155 -0.7594126513083734 0.650082862247659
7444666 -0.7604010763459442 0.6494172309300819
7446177 -0.760636647880042 0.649500041558049
7447688 -0.7610164432440617 0.6496885782684731
7449199 -0.7611092647041875 0.6490334140143894
7450710 -0.7601197299851609 0.6495838837471317
7452221 -0.760558865895127 0.649792509241511
7453732 -0.7604007354554152 0.6497570608420395
7455243 -0.7605311358594312 0.6503583658628186
7456754 -0.7608540939129856 0.6499954270639394
7456754 -0.7607462637841753 0.6497995229139732
7458296 -0.7604430594096326 0.6506967273472951
7459838 -0.7603520597615887 0.6502863590213398
7461380 -0.760500393740591 0.6500210941082566
7462923 -0.7602551088253349 0.6494975913768399
7464465 -0.7595665836243595 0.6504883711845572
7466007 -0.7600822287716851 0.6505077410016006
7467549 -0.7586613019213443 0.6522604231890452
7469092 -0.758596115674434 0.6525421899834754
7470634 -0.7598039819490724 0.6506439238855546
7472176 -0.7589322978247129 0.6511417785743726
7473718 -0.7598697507960708 0.6513988750710719
7475261 -0.7593079600032359 0.650936657084535
7476803 -0.7588790551487583 0.651898463184565
7478345 -0.7594787387837306 0.6517228728407808
7479887 -0.7590534363812685 0.6516382257395374
7481430 -0.7592922733349481 0.6525457559007626
7482972 -0.759666537818711 0.6519576174606594
7484514 -0.7599704672889265 0.6526057360061878
7486056 -0.758950580991782 0.652447937749235
7487599 -0.7594230371024081 0.6518443334916129
7489141 -0.7588657433194618 0.652602590738961
7490683 -0.7584138823630098 0.6529756414679266
7492225 -0.7588449699184241 0.6529388191628064
7493768 -0.7576084322635404 0.653027023901106
7495310 -0.7577700689761481 0.6532291864209466
7496852 -0.7582199937228672 0.6519912150999896
7498395 -0.7577388184420645 0.6526890792330412
7499937 -0.7581664867943162 0.6526234334051733
7501479 -0.7579158006191119 0.65233360360996
7503021 -0.7567002843964935 0.6533442653538252
7504564 -0.7572046148954691 0.6534891986210642
7506106 -0.7576534439643005 0.6533252992588529
7507648 -0.7577242799745464 0.6542236030179553
7509190 -0.757821492989077 0.6538169465548612
7510733 -0.758322213828985 0.6531700594812592
7512275 -0.7576130203337802 0.6537582779174338
7513817 -0.7571554981651565 0.6532566757355432
7515359 -0.7576941429145913 0.6536562424295476
7516902 -0.7563781024189878 0.6542423138918624
7518444 -0.7566682605867463 0.6544765573009731
7519986 -0.7573115811790386 0.6551826648875254
7521528 -0.756405941533228 0.655136929503801
7523071 -0.7574369297879346 0.6538439795703176
7524613 -0.7562116397978791 0.6543132505667272
7526155 -0.7563346228894882 0.6544055006572842
7527697 -0.7566716429761688 0.6541046358099603
7529240 -0.7552461769053473 0.6556512817325091
7530782 -0.7558810748627577 0.6556319187246635
7532324 -0.7559702006049334 0.6554884855191716
7533867 -0.7561980691942535 0.655625171300023
7535409 -0.7571140485749343 0.655091003197903
7536951 -0.755861264121611 0.6552939569500351
7538493 -0.7562880364638187 0.654838972368224
7540036 -0.755586389444749 0.6551202975416556
7541578 -0.7555009697619461 0.6559940418462645
7543120 -0.7558271787448122 0.6556993511658148
7544662 -0.7553544492104503 0.6559453410537395
7546205 -0.7552367007990476 0.6567734746231781
7547747 -0.7558205631793267 0.6556829932296924
7549289 -0.7558093876720413 0.6559218399708636
7550831 -0.7550040108715891 0.6565741680279804
7552374 -0.7555350705450155 0.6558345120759008
7553916 -0.7539683072620523 0.6562598202196027
7555458 -0.7540658250795932 0.6571281341941422
7557000 -0.7545574232639465 0.6557761560400118
7558543 -0.7539196394041323 0.6574749436184131
7560085 -0.7549834169174479 0.65665220821296
7561627 -0.7545337577989775 0.6557286388989096
7563169 -0.7539683861423934 0.6570906359332197
7564712 -0.7545344018395731 0.6573577024625107
7566254 -0.7545608270279153 0.65679184353313
7567796 -0.7539482047184288 0.6573683869345417
7569338 -0.7540060359327742 0.657620679536995
7570881 -0.7544396065403836 0.6565544199209375
7572423 -0.7533678628792623 0.6579480525403577
7573965 -0.7544539701482084 0.6579089880045889
7575508 -0.7543194681939017 0.6573813516241845
7577050 -0.7532550677683896 0.6581443374671475
7578592 -0.7536643061845921 0.6574274820157069
7580134 -0.7537245299775538 0.6580897749050867
7581677 -0.7526148923739779 0.658575200798938
7583219 -0.7533877261569043 0.6576977327451587
7584761 -0.7531775016571378 0.6578276575843505
7586303 -0.7531303403441604 0.6587705991168172
7587846 -0.7529195906112891 0.6579602069032426
7589388 -0.7532762190756633 0.6582808294274702
7590930 -0.7528592737872004 0.6590896755424732
7592472 -0.7536011620760448 0.6586026260259839
7594015 -0.7535354037965512 0.6602011276531679
7595557 -0.7530709411522256 0.6603034007954898
7597099 -0.7537369111445013 0.6590210938031191
7598641 -0.7526401105098619 0.6592640290340733
7600184 -0.7527901763771265 0.6587760748733433
7601726 -0.7531929189494754 0.6591301158753661
7603268 -0.7515201368111908 0.6601066270307303
7604810 -0.7521809582656647 0.6601506847244167
7606353 -0.7520759161013003 0.6594890647952678
7607895 -0.7515618335235904 0.6602491277730947
7609437 -0.75218887339604 0.6599815190855391
7610980 -0.7521660465292284 0.6595745775534354
7610980 -0.752003815553439 0.6595420275531133
7612554 -0.7518954263066562 0.6606304570795939
7614128 -0.7511443369726676 0.6603011434340386
7615702 -0.7515479103879308 0.6596403557763126
7617276 -0.7507354341079229 0.6604641016214854
7618850 -0.7509055234849727 0.6614330414927649
7620424 -0.7514185437529612 0.6601407956704514
7621999 -0.7507862738208635 0.6602616700450249
7623573 -0.7507633580097813 0.6609854487918612
7625147 -0.7507125649642705 0.6601365650299188
7626721 -0.7516745644291735 0.6602835630299653
7628295 -0.751200831591232 0.6618788150135366
7629869 -0.7498956360666972 0.6624676060542675
7631444 -0.7510831670839868 0.6617751650870856
7633018 -0.7509953782077546 0.6612877310206304
7634592 -0.7506460653012094 0.661604640640776
7636166 -0.7509175179616951 0.6606032600914443
7637740 -0.7502553349921064 0.6616231548005012
7639314 -0.7491894270082153 0.6626641086253786
7640889 -0.7488192846400354 0.6627027456754561
7642463 -0.7498309424605267 0.6618634439167226
7644037 -0.7498054824231742 0.6627440807031083
7645611 -0.7494110114241801 0.6631410985631545
7647185 -0.7498726784050799 0.6623313927159481
7648759 -0.7493941991438913 0.6625761626421355
7650334 -0.7492906763293804 0.6631403864462508
7651908 -0.7491800332732638 0.6625341508492106
7653482 -0.7503633314964234 0.6626240382642675
7655056 -0.748736253630082 0.6633433722327945
7656630 -0.748820813654811 0.663437698108174
7658204 -0.7487475960933494 0.6622518759045681
7659778 -0.7492945416583481 0.6628676936943402
7661353 -0.7489606468498076 0.6640870107415224
7662927 -0.7488779679555081 0.6628373267757806
7664501 -0.7488138803354988 0.6626730577124286
7666075 -0.7477014355586334 0.6639274901196663
7667649 -0.7487507336036109 0.6641470622354572
7669223 -0.7492946811972919 0.6638479856658336
7670798 -0.7488185799524081 0.665179722053237
7672372 -0.7483734801995321 0.6634660730422646
7673946 -0.7488985280328375 0.6639093967123765
7675520 -0.7485166531243679 0.6645670655869877
7677094 -0.7479844926245537 0.6647705953956574
7678668 -0.7478143787550456 0.6641010617904411
7680243 -0.7480681546602499 0.6640068522481801
7681817 -0.7471939470855881 0.6645472724422351
7683391 -0.7476690211886722 0.6641816464296851
7684965 -0.7472871387458232 0.6653409604489411
7686539 -0.7478274804441474 0.6647472100345081
7688113 -0.7479917190573708 0.6635529385791388
7689688 -0.7462465546517452 0.66546314852143
7691262 -0.7468929826883336 0.6652143094174913
7692836 -0.7470814386232427 0.6643798571030647
7694410 -0.746496541567393 0.665825790214234
7695984 -0.7467370956605988 0.666273156375886
7697558 -0.747144840865043 0.6650137668209026
7699132 -0.7466447495455265 0.6662164376209875
7700707 -0.7455532125806521 0.6663472179117522
7702281 -0.7463723707816217 0.6659563151056329
7703855 -0.7466189349963215 0.665745259549327
7705429 -0.7465405647354926 0.6668294064120072
7707003 -0.7461143175079981 0.6656905368872967
7708577 -0.7464962731962166 0.666351527936921
7710152 -0.745674286128868 0.6669333632371182
7711726 -0.7461997853048303 0.6660113281273917
7713300 -0.7465812426482376 0.6657661277535687
7714874 -0.7449993808113973 0.6676249814243282
7716448 -0.7458783392164066 0.6677889995858951
7718022 -0.7465903867192991 0.6670168113300037
7719597 -0.7451171741977398 0.6684781811384326
7721171 -0.745787960058134 0.6680008510664677
7722745 -0.7456947654219942 0.6676649053897058
7724319 -0.7450818474734666 0.6682829822933897
7725893 -0.7443797181281036 0.667925457142221
7727467 -0.7448133143554162 0.6678719663425392
7729042 -0.7444749617269891 0.6685391014532571
7730616 -0.7441185534256529 0.6687941532328913
7732190 -0.7451218622828926 0.6671178753583921
7733764 -0.7449836571313723 0.6670597340210155
7735338 -0.7447634067303261 0.668446534280264
7736912 -0.7444625031122865 0.6677132105921598
7738486 -0.7448683573492922 0.6683382578263161
7740061 -0.744230644530734 0.6696204537400273
7741635 -0.7448146291524019 0.6689159988249321
7743209 -0.7453153712603132 0.6684164419039632
7744783 -0.7441077251372306 0.6698928738423832
7746357 -0.7441291272681767 0.66948728712856
7747931 -0.7443231811819302 0.66855546095935
7749506 -0.7426339223204563 0.6704945997663273
7751080 -0.7431698880058514 0.669723872493517
7752654 -0.7432652152785595 0.6687155290992151
7754228 -0.742779950030212 0.6703198713929314
7755802 -0.7423179981469654 0.6695425568815206
7757376 -0.7427095611002958 0.6686365904336503
7758951 -0.7430718927153748 0.6699831083740626
7760525 -0.7423713159095765 0.6702806841927295
7762099 -0.7435769717357837 0.6688507128946444
7763673 -0.7432628407165937 0.6694465273181923
7765247 -0.7428807298828279 0.6707608459858246
7766821 -0.7427864863610987 0.6693736683240793
7768396 -0.7432865240511914 0.6701477269834484
7768396 -0.7429089288171645 0.670638748752869
7770002 -0.7428660432859329 0.6706623724427586
7771609 -0.7429050595164455 0.6700174510673217
7773216 -0.742415232653095 0.6701383367652921
7774822 -0.7419358628019722 0.671972731388929
7776429 -0.741659582346763 0.6708295844354102
7778036 -0.74215524275102 0.6705701149385709
7779642 -0.7419007728531023 0.671931013596428
7781249 -0.7415836749742544 0.6721284962577863
7782856 -0.7414828350172326 0.6715616560220729
7784463 -0.7417492678908579 0.6713967214478055
7786069 -0.7408568362412499 0.6724318469503595
7787676 -0.7407227781040415 0.6717557364432867
7789283 -0.7420867192340063 0.6715528975221403
7790889 -0.742481025894053 0.6716242152002202
7792496 -0.7414346255952942 0.6725499637983245
7794103 -0.7421967612275525 0.6720005412623097
7795710 -0.742295678209424 0.671093805687691
7797316 -0.7410901106073106 0.6732988446590028
7798923 -0.7399841664704863 0.6724334851407893
7800530 -0.7405498041805757 0.6727079020872369
7802136 -0.7406785445344063 0.672976936630368
7803743 -0.7398334816080087 0.674738423494369
7805350 -0.7396055820997549 0.6735365118423946
7806957 -0.7401925077040832 0.6728036831774882
7808563 -0.7397679162831045 0.674237759746284
7810170 -0.7392712855295382 0.67474307809573
7811777 -0.7395580877798673 0.6728607424836454
7813383 -0.7401910775485933 0.6726446059369479
7814990 -0.7386850413564245 0.6742613511392012
7816597 -0.7390990247192109 0.6736648536087285
7818204 -0.7400121464879338 0.6727564510486934
7819810 -0.7400075651172562 0.6739316964068546
7821417 -0.7390435066092927 0.6739522657520585
7823024 -0.7394651448465838 0.6740244364199462
7824630 -0.7402133919328805 0.6742681532622974
7826237 -0.7391242648253902 0.6762102257833963
7827844 -0.7387492018066804 0.6749618258398791
7829450 -0.7384896460825815 0.6737180092800099
7831057 -0.7388009398821269 0.6752876885516595
7832664 -0.7378096946641688 0.6754010989430169
7834271 -0.7381997905939568 0.6745140465614751
7835877 -0.7380423598945182 0.6745900783297785
7837484 -0.7372289949369945 0.6764926162353555
7839091 -0.7376287093669092 0.6756724308790494
7840697 -0.7381173594935424 0.6748803397545722
7842304 -0.7380476941553322 0.6757820039652359
7843911 -0.73724911428435 0.6754263899409382
7845518 -0.7376177998015891 0.6755315777531452
7847124 -0.7370983565016961 0.6757134813461639
7848731 -0.7372007315833049 0.6756021747852163
7850338 -0.7382413106455279 0.6748362412001424
7851944 -0.7376703938963498 0.6767437067544827
7853551 -0.737639937208538 0.6767014169187502
7855158 -0.7369499328184845 0.675834965961455
7856765 -0.7372586984596782 0.6759396445925203
7858371 -0.7356341003811995 0.6775352962355852
7859978 -0.7358623019949081 0.6773058545370222
7861585 -0.7362261502998856 0.6766657723681153
7863191 -0.7359236812174789 0.6779677222717069
7864798 -0.7359497455314674 0.6778893946657124
7866405 -0.7359256493551224 0.6773386359456343
7868012 -0.7363117425263629 0.6763765057330233
7869618 -0.7350486223718282 0.6785604315767468
7871225 -0.7355195665990936 0.6776459563500831
7872832 -0.7361432024076302 0.6765397970095102
7874438 -0.7367092426118655 0.6766827391568289
7876045 -0.7354302115702088 0.6777516067163932
7877652 -0.7356147245184174 0.6779383839659446
7879258 -0.7368992637496058 0.6772716064892017
7880865 -0.7356293322033775 0.6785909671682387
7882472 -0.7350554403265945 0.6786045065554526
7884079 -0.7354214578806494 0.677978149889655
7885685 -0.7354731332483864 0.6785182607109925
7887292 -0.7339534603680544 0.6793638683656853
7888899 -0.7344732400356674 0.6793117643709586
7890505 -0.7352956971621795 0.6793671246154885
7892112 -0.7344589643163834 0.6802896492787103
7893719 -0.7339612420752495 0.6799959284306796
7895326 -0.7342300294004417 0.6786456694246272
7896932 -0.7343893543881456 0.6791234443338071
7898539 -0.7337933733179918 0.6799573439405815
7900146 -0.7335457330456673 0.6798327701457715
7901752 -0.7348755420366135 0.6789228194920676
7903359 -0.7335531170254859 0.6800123849422437
7904966 -0.7335769363319004 0.6800425598822052
7906573 -0.7338937808796265 0.6786470049043805
7908179 -0.7346309533180853 0.6797919523476679
7909786 -0.7329143026635824 0.6808239010817396
7911393 -0.7327500320208193 0.680761385868226
7912999 -0.7332125621143212 0.6801011311142573
7914606 -0.7325342913285802 0.6816024043494054
7916213 -0.7321878964737798 0.6814218215325137
7917820 -0.7328207330257039 0.6801477000056666
7919426 -0.7326856277539388 0.6808839917976194
7921033 -0.7318645536441652 0.6817187171165044
7922640 -0.7321298186429532 0.6805355773469055
7924246 -0.733095433745698 0.6804759922649043
7925853 -0.7314602394805817 0.6815676585801096
7927460 -0.7314159494933902 0.6816730919325151
7929067 -0.731603460910887 0.6807675183330146
7929067 -0.731242157995923 0.6814374070183176
7930706 -0.7323382070191942 0.6807596951333362
7932346 -0.7321267064215534 0.6817434743088231
7933986 -0.7313695877607262 0.6830199980944095
7935626 -0.7313844316341853 0.6826333859681392
7937266 -0.7322046878542313 0.6812983647281577
7938906 -0.7318306974495529 0.6819848960245519
7940546 -0.7311774494772987 0.6828615250528487
7942186 -0.7304811619994858 0.6824508620950348
7943826 -0.7314642812819407 0.6815719980839774
7945466 -0.7321807961469969 0.6813652183436136
7947106 -0.7308198207990845 0.6831620026330735
7948746 -0.7304371086234036 0.6827130709458716
7950386 -0.73091205314317 0.682395547455605
7952026 -0.7312913081398529 0.6825375632338953
7953666 -0.7305427707717971 0.6837083152172869
7955306 -0.7294172750786407 0.6835705365441793
7956946 -0.7298206458346683 0.6831663625935405
7958586 -0.7303195436533784 0.6836682469640388
7960226 -0.7297240146800569 0.6844745203503357
7961866 -0.728784195114652 0.6847968981126772
7963505 -0.7290100810795538 0.6845688211177422
7965145 -0.7306777634018224 0.6836135613946841
7966785 -0.7300347761916347 0.6845922045859507
7968425 -0.7287477524150788 0.6845921402300742
7970065 -0.7288896600596129 0.6847410316823721
7971705 -0.7291593572781743 0.684559826296915
7973345 -0.728948742964722 0.6860138687554523
7974985 -0.7283946637448401 0.686433197322535
7976625 -0.7283557087487693 0.6854306647221243
7978265 -0.7294538612483056 0.6845414969953586
7979905 -0.7283395385922222 0.6858510622983879
7981545 -0.7278315304374924 0.6859334845963497
7983185 -0.7276672463725071 0.6847287453393316
7984825 -0.7280963696424606 0.6850654260217528
7986465 -0.7290311467934687 0.6859148082057461
7988105 -0.7283080860969213 0.6867515580467406
7989745 -0.7285516122266422 0.6852386974499995
7991385 -0.7284010729519603 0.685162127789739
7993025 -0.7286113466826916 0.685898395269678
7994665 -0.7275598628316501 0.6864944186743781
7996304 -0.7273594440013852 0.6854957396563645
7997944 -0.7281392175975654 0.6852619542227378
7999584 -0.7274918851763951 0.6863582960576762
8001224 -0.7269061600047083 0.6862080373803896
8002864 -0.7266747819059632 0.6862794632853368
8004504 -0.7271384056386878 0.6863492269885977
8006144 -0.7264840190269353 0.687325605080719
8007784 -0.7256732420763591 0.686893047904891
8009424 -0.7261205492564387 0.6872483316625745
8011064 -0.7263266772584901 0.6866670080207687
8012704 -0.7258025592438707 0.6882938253602316
8014344 -0.7253573379047676 0.6882694469396572
8015984 -0.7254750095209341 0.6877436711967834
8017624 -0.7260085764163001 0.6868838648568388
8019264 -0.7260872018211316 0.6876549524286442
8020904 -0.7247893527243554 0.6883992564398993
8022544 -0.7252777565705649 0.6869461026250423
8024184 -0.7257583569928955 0.6871117106486223
8025824 -0.7267484928646808 0.6868845123588639
8027464 -0.7253972322455127 0.6882963226438211
8029103 -0.7254385831981018 0.687581886562944
8030743 -0.725038475906061 0.687629626521986
8032383 -0.7255710858445398 0.6876840712780975
8034023 -0.7247668951838592 0.689602857449017
8035663 -0.7241539026564456 0.6888486567493349
8037303 -0.7245142532806461 0.6884608002020838
8038943 -0.7248730929025352 0.6886204837147338
8040583 -0.7241374042744063 0.6894951201758548
8042223 -0.7227918445903398 0.6897235301940556
8043863 -0.7234393937551977 0.6887050243289834
8045503 -0.7236958306693776 0.6887839644437095
8047143 -0.7241956371167366 0.689294303649539
8048783 -0.7229848189078477 0.6903353472720374
8050423 -0.7225417801470242 0.6895998165366577
8052063 -0.7231166410668236 0.6887306738165219
8053703 -0.7236397774337558 0.6891096359397312
8055343 -0.7235639931656518 0.6899464762642475
8056983 -0.7224934126023604 0.6906713612560991
8058623 -0.7232911654567027 0.6901258777182999
8060263 -0.7227907861176007 0.6902325404223612
8061902 -0.7234349744430624 0.6900937941804582
8063542 -0.7221725508953374 0.6910550128989567
8065182 -0.7219163288832993 0.6908914866760876
8066822 -0.7227484233915386 0.6900738408491494
8068462 -0.7231119069765714 0.6912564121410152
8070102 -0.7226434430940359 0.6921468162880656
8071742 -0.7218914999683432 0.6923063135454649
8073382 -0.7215817695507197 0.6914926387636652
8075022 -0.7219726762716183 0.6908516280527734
8076662 -0.722375605231811 0.6916444825521053
8078302 -0.721075803520392 0.6925212695721631
8079942 -0.7211397029127267 0.6923830575716747
8081582 -0.7223448407919478 0.6913105970469078
8083222 -0.721810740823773 0.6916086376703495
8084862 -0.7212676186974452 0.6927194064858433
8086502 -0.7207585443587685 0.6916951663355316
8088142 -0.7212047082485893 0.691372023865899
8089782 -0.7209401064705885 0.6915601066085567
8091422 -0.720182161487147 0.69285648283324
8093062 -0.7196365660273742 0.692671041810696
8093062 -0.7201386944250819 0.6929843427516638
8094735 -0.7197622319311369 0.6933686238562704
8096409 -0.7195951081125899 0.692971321094804
8098083 -0.7203710229434641 0.6926814529114766
8099757 -0.7201437889440119 0.6934245860054432
8101431 -0.7190001363262153 0.6938674623442582
8103105 -0.7180784480906021 0.694231309173881
8104779 -0.7187958430565198 0.6932910646929826
8106452 -0.7199192475155847 0.6930522770893414
8108126 -0.7201651749633384 0.6941663336167903
8109800 -0.7193795788302998 0.6942455831414768
8111474 -0.7189266169789608 0.6936692699941046
8113148 -0.7196482502888168 0.6933632898047531
8114822 -0.7203010769954641 0.6935440702753274
8116496 -0.7203817264242708 0.6944894548795152
8118169 -0.7187013493686444 0.6951011319966904
8119843 -0.7186133179532652 0.694309118065382
8121517 -0.7191195935564192 0.6940186514852553
8123191 -0.7189145427775496 0.6945362028991575
8124865 -0.7187169300520622 0.6947016947234727
8126539 -0.7175086230880944 0.695847443985844
8128213 -0.7176462770410822 0.6956453297475557
8129886 -0.7178945633786503 0.6950139325000219
8131560 -0.7186088145392882 0.694973760013432
8133234 -0.7181820871260057 0.6952294908130717
8134908 -0.7177030190805598 0.695667607921443
8136582 -0.7178691858212829 0.695065054569132
8138256 -0.7176860863712884 0.6946724440584662
8139930 -0.7180752091319722 0.69482841318319
8141603 -0.71732038784741 0.6955391304564884
8143277 -0.7165322947563733 0.6967925319503449
8144951 -0.7168564041187677 0.696349731359381
8146625 -0.717507555408514 0.695925340136728
8148299 -0.7170718727481209 0.6962583042911233
8149973 -0.7164296111894076 0.697312667115291
8151647 -0.7154602916557272 0.6968778915163304
8153320 -0.7158811638194006 0.6961057913016909
8154994 -0.7164522328211851 0.6959348508382707
8156668 -0.7165955438330938 0.6964052272643221
8158342 -0.7158545776480492 0.6968325318868429
8160016 -0.7160583102805075 0.6967766981764187
8161690 -0.7168909436677083 0.6966471420232844
8163364 -0.716320375511866 0.6970521191254792
8165037 -0.7163257584239757 0.6975417451749499
8166711 -0.7147120265092023 0.6978423628863542
8168385 -0.7148740241027443 0.6977978790951778
8170059 -0.7147806159445965 0.6978690063805638
8171733 -0.7151877661645907 0.6979170259001786
8173407 -0.7158158458528981 0.6978479814610286
8175081 -0.7163144139281291 0.6987868016124317
8176755 -0.7160322013753573 0.6986085261052903
8178428 -0.7149166699495031 0.6984305219655423
8180102 -0.7145475049231039 0.6983379497720626
8181776 -0.7143913539819938 0.698392611501789
8183450 -0.7143572675046465 0.6993499619460403
8185124 -0.7138333024828615 0.6992104831858957
8186798 -0.7132495260895031 0.6993185724448657
8188472 -0.7136856283096533 0.6983270698623382
8190145 -0.7144191591671173 0.6987328121951245
8191819 -0.7147372019683326 0.6987176261298105
8193493 -0.7140614040384071 0.6992101292066547
8195167 -0.7138230519104412 0.6993900902160428
8196841 -0.7141194907114308 0.6990598128399232
8198515 -0.714747462432051 0.6993254010813783
8200189 -0.7145678743694159 0.699727117037242
8201862 -0.7135270821418161 0.7004717697082776
8203536 -0.712827173812889 0.7004410472044887
8205210 -0.712992429187555 0.7003335714269469
8206884 -0.7135765039078161 0.7001169912746776
8208558 -0.7133166996727475 0.699961749857866
8210232 -0.7123108598349939 0.7005163882596415
8211906 -0.7125986710126487 0.7004556205559098
8213579 -0.7126570918421756 0.6996030254933744
8215253 -0.7122836616224498 0.700332555390357
8216927 -0.7125775968864435 0.7007538629594435
8218601 -0.7112143537176073 0.700960496337654
8220275 -0.7118097771861788 0.7015327121970908
8221949 -0.7123452057492639 0.7003938706046972
8223623 -0.7122232631698548 0.7014963602750275
8225296 -0.7118661295042487 0.7014777000431103
8226970 -0.7107926831535003 0.7014691113044311
8228644 -0.7111821273757789 0.7008643147216514
8230318 -0.7116889766685793 0.7009990252301443
8231992 -0.7124439698607681 0.7011531310332657
8233666 -0.7115785857019149 0.7016041105819845
8235340 -0.7106762559251554 0.7019990267989152
8237013 -0.7103879585203043 0.701940708189091
8238687 -0.7109084838324286 0.7028019886248901
8240361 -0.7113021559389654 0.7025897112743946
8242035 -0.7097454941444059 0.703546735507227
8243709 -0.7102176335417072 0.7032442131005521
8245383 -0.7101733372385649 0.7026130198122759
8247057 -0.7106881577142492 0.7032483909584204
8248730 -0.7107773638314291 0.7029638180699407
8250404 -0.7089750070732697 0.7033856435656076
8252078 -0.7097316876247616 0.7028147694532065
8253752 -0.7096844647319878 0.7026520268358402
8255426 -0.7107161303014567 0.702941635521309
8257100 -0.7096662900335798 0.7035085203695256
8258774 -0.7097214720003888 0.7034153109042067
8260448 -0.7099772517115811 0.7031007405616566
8260448 -0.710558893509953 0.7028611833517087
8262156 -0.7098946310642289 0.7036380324296175
8263864 -0.7090647919800325 0.7036567800839852
8265573 -0.7092706471510494 0.7042658921677952
8267281 -0.7095817509230109 0.7038181568790736
8268990 -0.7098258217265841 0.7040909859044548
8270698 -0.7090432279972639 0.704531877254688
8272407 -0.7086855170124625 0.7049626551809333
8274115 -0.7077952474150628 0.703882066308628
8275824 -0.7084194821073557 0.7047392200558723
8277532 -0.7083079781114121 0.7040551339352026
8279241 -0.7077848061864928 0.7050751688179177
8280949 -0.7087578374740069 0.7046946786825143
8282658 -0.7081373992466609 0.705369246889979
8284366 -0.7077493508675096 0.705270161851796
8286075 -0.7075683635206802 0.7045801970761841
8287783 -0.7080879306691961 0.704541682875361
8289492 -0.7084485182950953 0.7048144558014886
8291200 -0.7081887350176345 0.7047949201615975
8292909 -0.707320433280475 0.7053782456373097
8294617 -0.7066705028056162 0.706425595171135
8296326 -0.7066318607990227 0.7062890214246805
8298034 -0.7065323394572488 0.705941791182373
8299743 -0.7068383472404256 0.7065042637910472
8301451 -0.7071635850984579 0.7063812019545513
8303160 -0.7059547947335212 0.7066403944728984
8304868 -0.7059911644861038 0.7068129997405546
8306577 -0.7066018760390917 0.7068457122130549
8308285 -0.7065266695877471 0.7064558798412057
8309994 -0.7072012677477968 0.7064960352777427
8311702 -0.7063667705935818 0.7063080560260867
8313411 -0.7057443955543118 0.7071173672020901
8315119 -0.7057707280384676 0.7070363488907505
8316828 -0.7064078571291778 0.7075389673903983
8318536 -0.7056143233471263 0.7072611745363413
8320245 -0.7062687076448659 0.7077467349185067
8321953 -0.7054142415009753 0.7074374805194369
8323662 -0.7042679124694831 0.7077624334510517
8325370 -0.7041540797051586 0.7076264523863185
8327079 -0.7040936039270376 0.7080998804767837
8328787 -0.7045266563033206 0.708018093340508
8330496 -0.7047837192167969 0.7083424522107503
8332204 -0.7046450872160366 0.7085581986049401
8333913 -0.7032490544862366 0.7082179254286223
8335621 -0.7037395996908249 0.7083457525537228
8337330 -0.7039104569781635 0.7084571924117391
8339038 -0.7035590474369057 0.708366640874562
8340747 -0.7040555092711084 0.7080881840083838
8342455 -0.7034848354048678 0.7087063578756362
8344164 -0.704370446201251 0.7088272219719293
8345872 -0.7042922299399417 0.7086855104883012
8347580 -0.7032029334315966 0.7086270137715733
8349289 -0.7030190181299348 0.7087209335375206
8350997 -0.7035613472312522 0.7090775453687201
8352706 -0.7032725274518347 0.7095027722121763
8354414 -0.7037551429576718 0.7099781285643596
8356123 -0.7032367991865209 0.7097548868389377
8357831 -0.7018838303474215 0.7107377795605001
8359540 -0.7020222651529642 0.7106097245579145
8361248 -0.702387062613952 0.7095656023997255
8362957 -0.7027522699823805 0.7100383734151345
8364665 -0.7029297510085317 0.7101567246369757
8366374 -0.7024068829906829 0.7099634025279159
8368082 -0.7014621952884191 0.7103807863028456
8369791 -0.7015588471535211 0.7104753301692247
8371499 -0.7018099370111803 0.7101242044970072
8373208 -0.7017049514355806 0.7105883752426185
8374916 -0.7024528219725784 0.7103201693382271
8376625 -0.70117801328494 0.7107933630087918
8378333 -0.7011982743797007 0.7113915777163274
8380042 -0.700830983766411 0.7118281454456414
8381750 -0.7006575797740359 0.7121090802374549
8383459 -0.7006929965098183 0.712487817168865
8385167 -0.7009641991979007 0.7125562764838459
8386876 -0.7001626633521603 0.7120917432252921
8388584 -0.7002858290193233 0.7113638041903341
8390293 -0.6999566304569159 0.7116581152441118
8392001 -0.7003615219872936 0.7118329749594848
8393710 -0.7007243158816853 0.7112876099344019
8395418 -0.700627422682213 0.7115336655301367
8397127 -0.7001894847077482 0.7116682924257206
8398835 -0.6994801019690303 0.7121730088102187
8400544 -0.6996895447790368 0.7125956881050346
8402252 -0.6997908265948931 0.7125531265008241
8403961 -0.7004061402543206 0.7132277803155194
8405669 -0.6999817884887637 0.7132945234012878
8407378 -0.6994526686892947 0.7132575710032298
8409086 -0.698982875489202 0.7134795748007561
8410795 -0.6987283122410256 0.7138491293243397
8412503 -0.6986315935874371 0.7137173780122377
8414212 -0.6989923219958768 0.7136069741543545
8415920 -0.6986745893374511 0.7129950734522835
8417629 -0.6983086729444532 0.7142460771787452
8419337 -0.698202941569788 0.7132028592274172
8421046 -0.6981921416530703 0.7143208313797599
8422754 -0.6988548062867911 0.7141888340497597
8424463 -0.6988227931944181 0.7140714711244607
8426171 -0.6981052459565554 0.7139073496541618
8427880 -0.6970576597507112 0.7137126846086677
8429588 -0.6975970167169705 0.7145388428532842
8431297 -0.6974744318917089 0.7145805507693195
8431297 -0.6985120648780966 0.7145581156320072
8433040 -0.6980149451817036 0.7148532748948008
8434784 -0.6971397997870677 0.7149688853524709
8436528 -0.697146540118516 0.7161103808284216
8438272 -0.6966733501363733 0.7154825305149698
8440016 -0.6966106402335861 0.7160091142425505
8441759 -0.6962243251794609 0.7158753703954375
8443503 -0.696710437367191 0.7155615316602965
8445247 -0.6970563162714973 0.7148960378496809
8446991 -0.6969512477167704 0.7151207990013635
8448735 -0.6967816250170256 0.7151369002728429
8450479 -0.6959029813485372 0.7156958548545428
8452222 -0.6956584446964635 0.7154875478692035
8453966 -0.6957157170940685 0.7157836767293471
8455710 -0.6957576040271546 0.7158742485214487
8457454 -0.6953767738787611 0.716371867348997
8459198 -0.6961643548591139 0.7161287379446969
8460941 -0.6957349309357442 0.7160830742302001
8462685 -0.6958390928539874 0.7159838649555066
8464429 -0.695351623963502 0.7162217360661404
8466173 -0.6948630353586017 0.716502243600001
8467917 -0.6944109124455483 0.7169327605727153
8469661 -0.6942172350104391 0.7168962453007706
8471404 -0.694182861227538 0.7166893195595948
8473148 -0.6943463891519324 0.7174083146206673
8474892 -0.6939277968597899 0.7167350410572568
8476636 -0.6946193976397269 0.7171058436733038
8478380 -0.6948297079523951 0.7169300651506945
8480123 -0.6945637215961354 0.7170346974081973
8481867 -0.6942307171091489 0.7172447248861321
8483611 -0.6938521758607571 0.7177570538174128
8485355 -0.6935113366388964 0.7182263115468169
8487099 -0.6927422620059273 0.7189953551618308
8488843 -0.6930483934246476 0.7183987697116022
8490586 -0.6932859750526501 0.7182621566865944
8492330 -0.6932814146727052 0.718508650301108
8494074 -0.6931989939904604 0.7184179696166332
8495818 -0.6932339670066868 0.718632854857364
8497562 -0.6931451179367757 0.7180026534957445
8499305 -0.6927697627295745 0.718248371274602
8501049 -0.6925951146722893 0.7181605328797076
8502793 -0.692338086560857 0.7191073521603669
8504537 -0.6921922281822892 0.71888244877223
8506281 -0.692122728801136 0.7192023921391574
8508025 -0.6924090879291139 0.719453338871694
8509768 -0.6919678011296786 0.719756921834603
8511512 -0.6920356064411002 0.7202750120070894
8513256 -0.6921718708778875 0.7203001542814906
8515000 -0.6914915558060323 0.720262978607969
8516744 -0.6909014450170059 0.7204843927107585
8518488 -0.6913827690759736 0.7205485301431301
8520231 -0.6908526582933331 0.7203533803390146
8521975 -0.6915779223170276 0.7203664165997457
8523719 -0.6910265147742696 0.7203376497834623
8525463 -0.6905981225825115 0.7205437556153672
8527207 -0.691074905837797 0.7210659699433196
8528950 -0.6906320645231784 0.7212444689453827
8530694 -0.6913051717290113 0.7205470298549034
8532438 -0.6908966221725342 0.7209261510122609
8534182 -0.6909765663385473 0.7208103924440014
8535926 -0.6898013572717692 0.7214165147893336
8537670 -0.6889168573663648 0.7219375203718972
8539413 -0.6887492427795774 0.7219999573192177
8541157 -0.6886915475622741 0.7221627214744268
8542901 -0.6893143406090612 0.7213838891192255
8544645 -0.6903323747898442 0.721514207014029
8546389 -0.6900900703162314 0.7209910117615531
8548132 -0.6900195702461055 0.7217621003589892
8549876 -0.6893446843516241 0.7227958681463281
8551620 -0.6893573115769558 0.7230894557153388
8553364 -0.6888896695375625 0.7233700655651915
8555108 -0.6887668623079569 0.7219367577779555
8556852 -0.689580903261432 0.7215625539072824
8558595 -0.6892415583495894 0.722080813764199
8560339 -0.6890873367120437 0.7222705632636666
8562083 -0.6883772752850774 0.722432338211493
8563827 -0.6870771235908094 0.7230804669266306
8565571 -0.6880386284609219 0.7237607134440303
8567314 -0.6871737869427279 0.7242293605463733
8569058 -0.6874766806922556 0.7237369444013044
8570802 -0.6874044225438793 0.723972278056424
8572546 -0.6876966730687256 0.7238538062929505
8574290 -0.687759554898307 0.7242189538380256
8576034 -0.6870968637967289 0.7243292617926068
8577777 -0.6870611406341368 0.7235907935815089
8579521 -0.6870849803312417 0.7241644908358327
8581265 -0.6874080268713111 0.7236669165265576
8583009 -0.6880999568552824 0.7240529968065645
8584753 -0.6873100863973072 0.724403481580084
8586496 -0.6880663835594033 0.7243747244393125
8588240 -0.6872233845847354 0.7244382796265288
8589984 -0.6861183060300597 0.7254377790951453
8591728 -0.6857484896698102 0.725643240500411
8593472 -0.6853505701304463 0.7257368643151235
8595216 -0.6856703858864618 0.725057127489545
8596959 -0.6853229504348883 0.7246683004234953
8598703 -0.6855895857398314 0.7247999269751839
8600447 -0.6857729514028276 0.7258477273731436
8602191 -0.6858547909891636 0.7261026363269945
8603935 -0.6853076140339767 0.7265202843488057
8605679 -0.6855391978859612 0.726272757331296
8605679 -0.6850094415970918 0.7265126956329734
8607458 -0.6854321976677349 0.7255261540541391
8609238 -0.6848850479943269 0.7250374118692018
8611018 -0.6851478169620745 0.7259602577288607
8612798 -0.6849721926461473 0.7250101861967392
8614578 -0.6851065018188834 0.7263378979310212
8616358 -0.6842377835308847 0.7259446187306473
8618138 -0.6834758460788187 0.7268927201132108
8619918 -0.6834355474205691 0.7274722611631753
8621697 -0.6833988935097216 0.7279339273849292
8623477 -0.6827326484894578 0.7273749831692594
8625257 -0.6825676756290658 0.7268722892630834
8627037 -0.6827496672116293 0.7267422741531504
8628817 -0.6831337029573514 0.726398346533746
8630597 -0.6838242475921054 0.7261476604343801
8632377 -0.6836302858883693 0.7265282225083214
8634157 -0.6837859543895852 0.7266774712547992
8635936 -0.6829157139190811 0.7277761712266779
8637716 -0.6832011290947216 0.7278039697559014
8639496 -0.682498548270682 0.7284190757814653
8641276 -0.6828315795246425 0.7281997155552409
8643056 -0.6826065051935472 0.7281808878616317
8644836 -0.6825387072252735 0.7282115674715791
8646616 -0.6821566787744159 0.7281011064075089
8648396 -0.6819504291513543 0.7287798152619022
8650176 -0.681294781128581 0.728562572180599
8651955 -0.6812530011183637 0.7288344905302786
8653735 -0.6807742039530328 0.7288175226670409
8655515 -0.6807982628018634 0.7298880339195603
8657295 -0.6812928846399595 0.729778036258231
8659075 -0.6810685552887583 0.7294282049076706
8660855 -0.6815453809599777 0.7285571699437048
8662635 -0.6813705910259814 0.7295533578047004
8664415 -0.6817846667006534 0.7290851980401104
8666194 -0.6818250797697452 0.7293262563489228
8667974 -0.6814529661511505 0.7295008403769155
8669754 -0.680776035325775 0.7294686880667025
8671534 -0.6804497656895978 0.7298585960624254
8673314 -0.6799228703483619 0.7304382099244774
8675094 -0.6793834269541924 0.7312208259633439
8676874 -0.678695205240942 0.7309795816931416
8678654 -0.678879872473515 0.7309416463980732
8680433 -0.679311308885275 0.7311012936673327
8682213 -0.6796419750593733 0.7303307425428057
8683993 -0.6792266083632813 0.7300914634089201
8685773 -0.6801617027994795 0.7308954476305287
8687553 -0.6795245465959866 0.7307046062362417
8689333 -0.6793829283342174 0.7311181935193743
8691113 -0.6799143298563688 0.7311063275488472
8692893 -0.6795153768648415 0.7306430678077799
8694673 -0.6790295306318186 0.730626593715919
8696452 -0.6784102319020531 0.7309075169636536
8698232 -0.6777183197951049 0.732021556608689
8700012 -0.6770230375692377 0.7326324270543859
8701792 -0.6771096184450812 0.7335795550222095
8703572 -0.6767462482643352 0.7325304019510431
8705352 -0.6773705530529173 0.7325143210068574
8707132 -0.6775309371931093 0.7321792503857562
8708912 -0.6779425279966222 0.7317534542840879
8710691 -0.6780263882286988 0.7323410634658567
8712471 -0.6783712426007945 0.7320257454148716
8714251 -0.6773794251724045 0.7319305334235141
8716031 -0.677555071409757 0.7326524185561677
8717811 -0.67730909112278 0.7333044015105982
8719591 -0.6771923627810567 0.7334416678798782
8721371 -0.6764891582233726 0.7336296413714476
8723151 -0.6772627282308541 0.7329694681283462
8724930 -0.6766312518622456 0.7330542624307546
8726710 -0.6761971848046276 0.7333656640256258
8728490 -0.6768708622903324 0.7330031733716318
8730270 -0.6759974826898336 0.7335791894110679
8732050 -0.6761579632541495 0.7342345258881542
8733830 -0.6756099517483046 0.7344313999806195
8735610 -0.6753439264540203 0.7345016756527613
8737390 -0.6740407405012953 0.7344364204844062
8739170 -0.6753212482333903 0.7343829677544491
8740949 -0.6751124284879931 0.7349607078217318
8742729 -0.6759320937360391 0.7347967157170467
8744509 -0.6755316385635892 0.7348016347550915
8746289 -0.6758874111150661 0.7347281878603693
8748069 -0.6754367003603317 0.7341688534457183
8749849 -0.6752281209916857 0.734720631076602
8751629 -0.6744433504497673 0.7342152988216637
8753409 -0.6735657744737966 0.7346629667533017
8755188 -0.6731707532577034 0.735204335356168
8756968 -0.6737992378277683 0.7358997615236273
8758748 -0.6728906827753621 0.7359091274087942
8760528 -0.67344528424192 0.736239789660938
8762308 -0.6729896093580792 0.7360437557723065
8764088 -0.6731102915699027 0.7361632741560442
8765868 -0.6741018348651046 0.73594495463767
8767648 -0.6734214358211037 0.7361536246524899
8769427 -0.6735680140375524 0.7359510714176734
8771207 -0.6731498963323579 0.7366701980298299
8772987 -0.6730788952689413 0.7365065387217387
8774767 -0.6725354535678695 0.7371806408100798
8776547 -0.6723342407424397 0.736895498635298
8778327 -0.6720882699745568 0.7372766596457765
8780107 -0.6724262784975744 0.7366921378322605
8781887 -0.6717802158222296 0.7365695521582114
8783667 -0.6725309436176489 0.7364343820443363
8783667 -0.6718804781885993 0.7372165721264802
8785483 -0.6713628959272684 0.7376090550503003
8787300 -0.6708851882960002 0.7378974122784419
8789117 -0.6709677257106998 0.7380764889102431
8790933 -0.6707553105443441 0.7378862103316467
8792750 -0.6715469002389789 0.7378748072032635
8794567 -0.6713612818870879 0.7383374556078679
8796383 -0.6717624888854481 0.7377663215842158
8798200 -0.6718724532056365 0.737667408691526
8800017 -0.671972262745188 0.7377157344357552
8801834 -0.6713575477122362 0.7382449650448315
8803650 -0.671066113993186 0.7386927369921285
8805467 -0.6704220372393634 0.7386967015451247
8807284 -0.6702377533670303 0.7390940100173743
8809100 -0.6691349222883446 0.7398133582126841
8810917 -0.6692733906431549 0.7402326404537889
8812734 -0.668939711223443 0.7402533580971181
8814550 -0.6690586432529948 0.7395958337965891
8816367 -0.6689651985386588 0.7396235429522782
8818184 -0.6697002229760415 0.7391001374607209
8820001 -0.6692390010507935 0.7391871234401913
8821817 -0.669753158841024 0.7395124663065586
8823634 -0.6695166594697068 0.7403736966145534
8825451 -0.6695588384355899 0.7402586991218952
8827267 -0.6685435917480942 0.7400885920660093
8829084 -0.6679083732142789 0.7402798614625188
8830901 -0.6678597848417973 0.7404923151571989
8832717 -0.6682213113027392 0.740897844350721
8834534 -0.6680679167266074 0.740371376947576
8836351 -0.6680572658972918 0.7404981977414514
8838168 -0.668061307907551 0.7410765015104608
8839984 -0.6680122536233422 0.7415503535039407
8841801 -0.6671637011932506 0.7421427373688674
8843618 -0.6673527979209293 0.7421723124251906
8845434 -0.6669386164602435 0.7417598306740353
8847251 -0.6671404190381931 0.7415310828292131
8849068 -0.6665299955398466 0.7414924113803641
8850884 -0.6666882029685041 0.7412948512630843
8852701 -0.6660932426331968 0.7410570786778532
8854518 -0.666660853733018 0.7413243984850741
8856335 -0.6672362201821725 0.7413988116990268
8858151 -0.6674013955127771 0.741550357547484
8859968 -0.6669919261924575 0.74189744905352
8861785 -0.6663795814858957 0.741873506502299
8863601 -0.6663182211640791 0.7418884890568259
8865418 -0.6660368462215421 0.7419930776567591
8867235 -0.6657946397020755 0.7422623859204854
8869051 -0.6655669953402136 0.7424473844659422
8870868 -0.6653583297458806 0.7429344916537141
8872685 -0.664612297796098 0.7435621356236571
8874502 -0.6651043779637897 0.7436794101631929
8876318 -0.6641866387959808 0.7438210203616054
8878135 -0.6638156839633536 0.7437427669835973
8879952 -0.6629029236475737 0.7434547063981014
8881768 -0.6631693211736158 0.7436736374016396
8883585 -0.6638368149779137 0.7436030300877433
8885402 -0.6641920585237443 0.7438142203203616
8887218 -0.6644964523326004 0.7438700937319503
8889035 -0.6635607332338623 0.7441743798248038
8890852 -0.6640079790566253 0.7444170485776817
8892669 -0.6631311328587061 0.7451932576769811
8894485 -0.6634258493124474 0.7447013143513858
8896302 -0.6621761793122956 0.7451450395463303
8898119 -0.6616136222084079 0.7455221159927989
8899935 -0.6617065044979666 0.7449570120744081
8901752 -0.6623451346326518 0.7452386003934078
8903569 -0.6619695849268604 0.7449321477045053
8905385 -0.66254970031344 0.7450087487965993
8907202 -0.6621778250513809 0.7444452782452857
8909019 -0.662313365387009 0.7443674760856455
8910836 -0.6621270590029528 0.7445286648655219
8912652 -0.6619416333574735 0.7453198207689279
8914469 -0.6615090373342281 0.7455062205465389
8916286 -0.6612626274065574 0.746173963682889
8918102 -0.661210412973128 0.7458344071929464
8919919 -0.6614258894547219 0.7462348102949207
8921736 -0.6617291866784131 0.7459903795542889
8923552 -0.6617411249917945 0.7459159023675058
8925369 -0.6612697768762597 0.7458975797157814
8927186 -0.6609453538468645 0.7463578496818833
8929003 -0.6604481838022825 0.7464072431833165
8930819 -0.6601154874223051 0.7467450844614488
8932636 -0.6599286000568503 0.747075184090476
8934453 -0.6600319171665089 0.7478502689483393
8936269 -0.6599871412085431 0.747770727230146
8938086 -0.6598653587572879 0.7480572312547248
8939903 -0.66017249679328 0.7474508289180236
8941719 -0.6598274723624481 0.748127952085214
8943536 -0.659486873228748 0.7480178053655805
8945353 -0.6588662778261116 0.7485575257491878
8947170 -0.658598858751312 0.7483804975503885
8948986 -0.6584477314903144 0.7492224185487384
8950803 -0.658099236357988 0.7488864913214007
8952620 -0.6582191724808036 0.7487760453465127
8954436 -0.6580651554792926 0.7486559526982044
8956253 -0.658624708810879 0.748442300633841
8958070 -0.65867358031822 0.7486254271927475
8959886 -0.6581960428837732 0.7482831140013266
8961703 -0.6582803898845009 0.7479906921181646
8963520 -0.658072504332878 0.748841093457196
8965337 -0.6584065329168272 0.7484743268372798
8965337 -0.6573654794105527 0.7492760579600067
8967191 -0.6572178759457747 0.7495006083993427
8969045 -0.6568380770155974 0.7499148219045201
8970899 -0.6565329362562834 0.7502541957912279
8972754 -0.6567324236772674 0.7500731219257475
8974608 -0.656782658114532 0.7500770810354119
8976462 -0.6563497711219516 0.7496462500395854
8978316 -0.6563409580149929 0.7501985576549617
8980171 -0.6563801245275964 0.7497504824864618
8982025 -0.6562189832436588 0.7500698503494292
8983879 -0.6561511482425416 0.7504149558063513
8985734 -0.655940195733676 0.7514822691000786
8987588 -0.6554914668320719 0.7511080214026353
8989442 -0.6556932571417109 0.7512980310214199
8991296 -0.6554651485967515 0.7511496837934412
8993151 -0.6548655000815705 0.7514708307834641
8995005 -0.6544135506649653 0.7513506405352093
8996859 -0.654078999636553 0.7512249800640148
8998714 -0.6543466976228367 0.7508947066712295
9000568 -0.6545442863363048 0.7509623946939914
9002422 -0.6545898354897612 0.7512762261681435
9004276 -0.6548732062876379 0.75157832614738
9006131 -0.6548447810614875 0.7520418906392266
9007985 -0.6546073297079155 0.7519453932138627
9009839 -0.6547856139268109 0.7521523936790566
9011694 -0.654246824005039 0.7524448706402036
9013548 -0.6538819717368687 0.7520382653317081
9015402 -0.6536020045940908 0.7525744309562284
9017256 -0.6534749139933144 0.7525292096633247
9019111 -0.6536042380052566 0.7525958593251257
9020965 -0.6538511289796736 0.7521775477707846
9022819 -0.6539016716403893 0.7530227285229074
9024673 -0.6535568623672199 0.7530540899582133
9026528 -0.6534594524477569 0.7535406517254551
9028382 -0.6532170995923283 0.7537662719070128
9030236 -0.6525877774486174 0.7536990860793725
9032091 -0.6527434523711586 0.7536479582216308
9033945 -0.6519814853881966 0.7535052857770262
9035799 -0.6521385004777991 0.7534668760656664
9037653 -0.6516282485539091 0.753756558697686
9039508 -0.6523115533471935 0.7537743996675638
9041362 -0.6523931635065356 0.7538513385804805
9043216 -0.6516671508078202 0.7539224886305496
9045071 -0.6506138630334791 0.7547456271897152
9046925 -0.6498095372148852 0.7545407697008732
9048779 -0.6494391816467052 0.7551629200966726
9050633 -0.6501752635459688 0.754824052268919
9052488 -0.6497490684726317 0.7549233834247107
9054342 -0.6504090378160912 0.7545936790801332
9056196 -0.6503605141399734 0.7551329764791461
9058051 -0.6507747330096249 0.7552137296228324
9059905 -0.6501421876135403 0.7555305149618874
9061759 -0.6506952690949652 0.7552126614636883
9063613 -0.649711596280196 0.7561853869011491
9065468 -0.649876653648785 0.7561529360616903
9067322 -0.6487691709969535 0.7572112194059242
9069176 -0.648787791103034 0.7565336266228689
9071030 -0.6485356442895306 0.7562691364737066
9072885 -0.6482071646545458 0.7563265354744116
9074739 -0.6482924621690918 0.7568268063144088
9076593 -0.6486800674282519 0.7564207659502806
9078448 -0.6487816979042224 0.7566919963900166
9080302 -0.6488126160763138 0.7562872375013768
9082156 -0.6486751408419305 0.7568892757208828
9084010 -0.6485564062246627 0.7569832800655073
9085865 -0.6479888170955508 0.7572759314195484
9087719 -0.6478030900724003 0.7573233486034815
9089573 -0.6471930242464534 0.75765708861358
9091428 -0.6469625649245467 0.7576158676149968
9093282 -0.6469112090775538 0.7580844968382885
9095136 -0.6469986829278784 0.7578613908480859
9096990 -0.6467901915166089 0.7584523751910759
9098845 -0.6466717600616976 0.7583339490894687
9100699 -0.6469140672793265 0.758680390638771
9102553 -0.6470236181025933 0.7584132535128136
9104408 -0.6465136528650834 0.758480617803576
9106262 -0.646501697262052 0.7584487676671491
9108116 -0.6458161961902372 0.758179077462066
9109970 -0.6457586122781036 0.7581308596300417
9111825 -0.6452973310173543 0.7587581171046054
9113679 -0.6456691059241009 0.7591439282229422
9115533 -0.6450458258513627 0.7600336863749586
9117387 -0.6452050278007029 0.7599436920218089
9119242 -0.6444898942858638 0.7601123964447841
9121096 -0.6446818004177144 0.7604755990995754
9122950 -0.644620392416601 0.7607135923934771
9124805 -0.6444238482038317 0.7604119011578465
9126659 -0.6437849285058872 0.7602267768086894
9128513 -0.6438531308258255 0.7605602948428353
9130367 -0.6433880477851701 0.7608011599081429
9132222 -0.6435290746734887 0.7608408158605012
9134076 -0.6426387187176166 0.760887204977603
9135930 -0.6428782774781706 0.7610654756469823
9137785 -0.6424322944228453 0.7611651646435296
9139639 -0.6426198968875156 0.7615383368102608
9141493 -0.6425205545738761 0.7612506329183707
9143347 -0.6426459602513003 0.7616960439009667
9145202 -0.6426307671136844 0.7615133462973029
9147056 -0.6424951286487359 0.7618735204581034
9148910 -0.642069685688405 0.7617606658504988
9150765 -0.6419603122929278 0.7618426653911078
9150765 -0.6425768331443725 0.7620936242224335
9152657 -0.6421227378274152 0.7621858209621533
9154550 -0.6421214039682986 0.7622355868040669
9156442 -0.6414080235404463 0.7619972210783202
9158335 -0.6410479103200487 0.7620972931974371
9160228 -0.6410882118026549 0.7622732253941394
9162120 -0.6414048632694116 0.762433037261335
9164013 -0.6409880061160361 0.7625347119388455
9165905 -0.6410984802204955 0.762849575609167
9167798 -0.6406880414894883 0.7632402064660784
9169691 -0.6408678456739102 0.7632761871104645
9171583 -0.6402804086113582 0.7634076906896711
9173476 -0.6400110602531394 0.7634525117975037
9175369 -0.6393809509133099 0.7632609379232319
9177261 -0.639571665390474 0.7632192956121555
9179154 -0.6389071752210828 0.7631500485365824
9181046 -0.6396428707420246 0.7635592862405662
9182939 -0.6391189850321358 0.763577577117651
9184832 -0.6389347171916038 0.7638075587776841
9186724 -0.6384263809293702 0.7643302876547999
9188617 -0.6383691518814208 0.7645382729740327
9190510 -0.6384003335178388 0.7652984697705036
9192402 -0.6385050472832279 0.7648445694489948
9194295 -0.6375351413408515 0.7644931896489738
9196187 -0.6377933881851927 0.7647776211702579
9198080 -0.6376340319367853 0.7649702201892883
9199973 -0.6375007033665601 0.7653291471894174
9201865 -0.6369904033266651 0.7655889697963812
9203758 -0.6371454533929282 0.765522613032783
9205650 -0.6371011054020622 0.7659675447281241
9207543 -0.6373803414632099 0.7661895847759036
9209436 -0.6369208729614908 0.7661771085803806
9211328 -0.6368936867675763 0.7659094110091871
9213221 -0.6358524159942169 0.7660778706643814
9215114 -0.6354390158290101 0.7666068769945589
9217006 -0.6354535540664573 0.7661338909789376
9218899 -0.6352032387824232 0.7665158054237574
9220791 -0.6351256792052258 0.7669945726212475
9222684 -0.635518557498727 0.7672225438619779
9224577 -0.6353279629428982 0.7666805390128367
9226469 -0.635303309867556 0.7669392881145178
9228362 -0.6351144575010547 0.767080933300733
9230255 -0.6349634119475257 0.767164311259257
9232147 -0.6344785800003647 0.76795976388224
9234040 -0.6344647304103939 0.7677511058335907
9235932 -0.6338857920220762 0.7684407741937539
9237825 -0.6338934248446262 0.7685853853157913
9239718 -0.6336792678513345 0.7683411965145235
9241610 -0.6339478623579212 0.7681777007587459
9243503 -0.6338894592732387 0.7690970671166136
9245396 -0.633984052090989 0.7683773727044001
9247288 -0.6335266412635008 0.7685674893431266
9249181 -0.6333450256836493 0.7690306293878543
9251073 -0.6324756940332982 0.7692563695355379
9252966 -0.6322155850723797 0.7692674032915381
9254859 -0.6319852521204947 0.7696479246953162
9256751 -0.6314571684421235 0.7692740237377065
9258644 -0.631435335701115 0.769721767885989
9260536 -0.6314869300637778 0.7693532538766369
9262429 -0.6320228964526059 0.7693874186394604
9264322 -0.6317452012296879 0.7694629862288308
9266214 -0.6318108818968333 0.7698417809178478
9268107 -0.6314171434567885 0.7698994965664575
9270000 -0.631654369342957 0.770361114508245
9271892 -0.6310737365934983 0.7702514550323504
9273785 -0.6308302372818654 0.7709819889313777
9275677 -0.6306245238604774 0.7703307630868363
9277570 -0.6303635430939568 0.7713903533575764
9279463 -0.6300618604889705 0.7708664231426856
9281355 -0.6302734759786341 0.7713336015902325
9283248 -0.6300838028003211 0.7710159399070519
9285141 -0.6298152362508652 0.7711065173436129
9287033 -0.6292593569371504 0.7714738596206168
9288926 -0.6290343246647063 0.7716643534862172
9290818 -0.6285699953830957 0.7718235127922274
9292711 -0.6286505290741675 0.7720061743483603
9294604 -0.628021877200904 0.772335687428147
9296496 -0.6276143214803294 0.7722145321313527
9298389 -0.6281295184929957 0.7719097398983646
9300281 -0.6284608073066943 0.7718808836542677
9302174 -0.6267771021539558 0.7723403273052053
9304067 -0.6272829275264691 0.7733127352298761
9305959 -0.6262527642776909 0.772806273302246
9307852 -0.626346574821135 0.7738074206492769
9309745 -0.6264447973795584 0.7735005167922223
9311637 -0.6270806370458731 0.7735543326135328
9313530 -0.626626600568922 0.7734609064803989
9315422 -0.6270966863163242 0.7739132294479215
9317315 -0.6260642088572453 0.7743499504241123
9319208 -0.6265596472336679 0.774121583905638
9321100 -0.6262076859981359 0.7742181555337091
9322993 -0.6254302980782082 0.7745297091574052
9324886 -0.6246950101719411 0.774914188854117
9326778 -0.6245892811088395 0.775023545926644
9328671 -0.6248152297332268 0.7751765328833303
9330563 -0.6253271006449038 0.7749078262217786
9332456 -0.6253209786764261 0.7748852686168185
9334349 -0.6255964523326976 0.7747066512235777
9336241 -0.625329233265185 0.7746946815546945
9338134 -0.6257479444163251 0.7758997298188096
9340027 -0.6238572649065381 0.7742693892344893
9340027 -0.622831525027285 0.7770175793961709
9341958 -0.6233464170182935 0.7775182803862787
9343890 -0.6227958353402524 0.7766582648824725
9345822 -0.6235801935233781 0.7770044368808868
9347754 -0.6231596467453306 0.7766220445065449
9349685 -0.6228045987410352 0.7763766847057724
9351617 -0.6230247033192821 0.7759551646211884
9353549 -0.6227981089738303 0.7761870110672408
9355481 -0.6227027906231047 0.7764456965335881
9357412 -0.6221405288905268 0.7767723762307434
9359344 -0.6220003866227863 0.7772368154076139
9361276 -0.6217101803168223 0.7774139800392571
9363208 -0.6220626887628198 0.7776674227061187
9365140 -0.62109677713638 0.7776800430973798
9367071 -0.6210495055733689 0.7773285021449458
9369003 -0.6206815651493348 0.7777332661542904
9370935 -0.6210972648509631 0.7769160657636286
9372867 -0.6207913743760702 0.7777390594630038
9374798 -0.6210024691446133 0.7780546709457846
9376730 -0.6203341098507136 0.7784867782733116
9378662 -0.6200716282089277 0.7787762565242983
9380594 -0.6193418352559387 0.7787680438582368
9382525 -0.6194556089334841 0.7789323857415282
9384457 -0.6192094487465966 0.7790213090248458
9386389 -0.6191173993618938 0.7793081642076249
9388321 -0.6184646748879509 0.7793479110473694
9390253 -0.6186590266066597 0.7802484954040496
9392184 -0.6186251004039284 0.7799051191045041
9394116 -0.6187696638189029 0.7802506581304719
9396048 -0.6185543452858956 0.7805426857761774
9397980 -0.618144995846466 0.7803987845958594
9399911 -0.6174035153413013 0.7811162479891542
9401843 -0.6165199861228837 0.7808954128945942
9403775 -0.6167620189396072 0.7810574454981527
9405707 -0.6166254267577976 0.7803092331785623
9407638 -0.6166916844792995 0.7803803053285937
9409570 -0.6165701503320118 0.7813643185119996
9411502 -0.6164877938703431 0.7812563937407498
9413434 -0.6165475489721992 0.7820131778470424
9415366 -0.6169529080666531 0.7819924792453906
9417297 -0.616032345553484 0.7823128046917482
9419229 -0.6158899162606738 0.7822776391714262
9421161 -0.6151243833729537 0.7824175772124279
9423093 -0.6148565123576923 0.7820567813433368
9425024 -0.6148829597221847 0.7821487155613772
9426956 -0.6147724862982324 0.7820277534101898
9428888 -0.6146162185300774 0.7828578831003384
9430820 -0.614417694179245 0.7833012825119051
9432751 -0.6139088130774298 0.7833402198669291
9434683 -0.613714050884545 0.7836084783233602
9436615 -0.6136871610989911 0.7835492089993547
9438547 -0.6135424876421735 0.7842347083802348
9440479 -0.6133587547633399 0.7840952848733711
9442410 -0.6131573600448607 0.7845380593482756
9444342 -0.6130478211336109 0.7843708553064579
9446274 -0.6126746975463511 0.7846179308501758
9448206 -0.6123247097334241 0.7845477335979533
9450137 -0.6120511962821913 0.7845915437935336
9452069 -0.6114587581102252 0.7843176611206082
9454001 -0.6113784207145812 0.7847264404852015
9455933 -0.6113680942749562 0.784136682462134
9457864 -0.6112982156447307 0.7842310064020923
9459796 -0.6110575204802041 0.7842969898686231
9461728 -0.6106277533239115 0.7845106723030975
9463660 -0.61068773411074 0.7854468153721129
9465592 -0.6109358282233833 0.7853880592364499
9467523 -0.6100147574479968 0.7856114862074349
9469455 -0.6104451803609281 0.7859587506297583
9471387 -0.6101805629885259 0.7863219857281001
9473319 -0.6097069282808971 0.7867463298753742
9475250 -0.6094051003025239 0.7870066674357051
9477182 -0.6088573822390946 0.7876667495251264
9479114 -0.608441031982251 0.788031724515977
9481046 -0.6083917889986145 0.7874815681665489
9482977 -0.6074764696485241 0.7877099679468098
9484909 -0.6076997385355145 0.787796362466792
9486841 -0.607610871006106 0.7878961176984587
9488773 -0.6075222358629091 0.7877144568153582
9490705 -0.607398736958531 0.7876569377206089
9492636 -0.6070677900639387 0.7875173948394633
9494568 -0.6072882742803645 0.7879640095545755
9496500 -0.6072277263120436 0.7875513876467584
9498432 -0.6068260655271204 0.7877392934644554
9500363 -0.6067290089012021 0.7877872176639146
9502295 -0.606761565744046 0.788406146510129
9504227 -0.6057623306864777 0.7885071964675517
9506159 -0.6059661021073579 0.7893124312606192
9508090 -0.6056909498549699 0.788731552255653
9510022 -0.6051254115523298 0.7895533015283335
9511954 -0.6040414413741031 0.7897191734558255
9513886 -0.6035414532112728 0.789794524465267
9515818 -0.6037988157361787 0.789755720327543
9517749 -0.603945362780436 0.7903319814351052
9519681 -0.603412562337836 0.7901029529728623
9521613 -0.6033735024683416 0.7906376839795883
9523545 -0.6031839954223857 0.7908302562615704
9525476 -0.6030854923806693 0.7912515502999078
9527408 -0.6029474810385418 0.7910281480329182
9529340 -0.6027102356558737 0.7919803883939011
9531272 -0.6026594243733129 0.7921778859860388
9533204 -0.6025622228277779 0.7919688368790558
9533204 -0.6023175879501262 0.7921258745475892
9535175 -0.6023345284506892 0.7922346127668659
9537147 -0.6016287695782936 0.7925056889095939
9539119 -0.6014688376706282 0.792493634592611
9541090 -0.601345043729558 0.7923915952530192
9543062 -0.6004702810513302 0.79255387161041
9545034 -0.6002639506707915 0.7928260714929786
9547006 -0.5999668108360168 0.7927570307622561
9548977 -0.5994857737368231 0.7927624927777452
9550949 -0.5995291277945898 0.7931247503861096
9552921 -0.5994704125371023 0.7930913859803679
9554893 -0.5998948336509304 0.7940993161011266
9556864 -0.5991931721628129 0.7936382103145176
9558836 -0.599532500602863 0.794109257619753
9560808 -0.5986331745449248 0.7944391933746373
9562779 -0.5982264018199493 0.7947708258189052
9564751 -0.5971634865270282 0.7948639034907329
9566723 -0.5970793431643202 0.7950778481228297
9568695 -0.5966382586282986 0.7960130768743705
9570666 -0.5968951773002157 0.7959563114555956
9572638 -0.5967645639034064 0.79626700896826
9574610 -0.5961760566890412 0.795649771341624
9576582 -0.5956913578727188 0.7963218741143747
9578553 -0.5956679135900305 0.7962357856461371
9580525 -0.5951511542126631 0.7964628274587745
9582497 -0.5947852915039566 0.7965495204687127
9584468 -0.595171563602454 0.7968921382719587
9586440 -0.5945023054650187 0.7967055003886109
9588412 -0.5948714039436666 0.7969674418886463
9590384 -0.5937576923847703 0.7969329331862072
9592355 -0.5943921965474925 0.7975851941818108
9594327 -0.5935327259172294 0.7974408650301568
9596299 -0.5938015499516841 0.7977228281770861
9598271 -0.5918028547798698 0.7981961691118467
9600242 -0.5931207927717334 0.7988838225400874
9602214 -0.5922016571376378 0.7995873842350117
9604186 -0.5924170915594981 0.7993686129777321
9606158 -0.5914421148342925 0.7995165994605441
9608129 -0.5921398915275176 0.7991558872268814
9610101 -0.5911444636456447 0.7997782420938371
9612073 -0.5908331207734528 0.7993291274439218
9614044 -0.5908616323765978 0.7998298432992246
9616016 -0.5904187603188951 0.8000917986155647
9617988 -0.5901318716328519 0.8000752945571115
9619960 -0.5895722727556405 0.8001952846040328
9621931 -0.5891878210855076 0.8011894000708527
9623903 -0.5889310757604451 0.8014181132938796
9625875 -0.5889238066345641 0.8015725316843602
9627847 -0.588496086020248 0.8015492047651267
9629818 -0.5881071070254911 0.8014586442433972
9631790 -0.587952318589043 0.8021671723275643
9633762 -0.587548790498206 0.8019164591242904
9635733 -0.5857478312142316 0.8024070140187265
9637705 -0.5864309166279472 0.8016474832123301
9639677 -0.5862613663273795 0.8014852430373977
9641649 -0.5855281810597012 0.8022118449401898
9643620 -0.5863407883632957 0.8021743269995715
9645592 -0.5856013506632348 0.8027541833348969
9647564 -0.5853803852047713 0.8032492026006945
9649536 -0.5845296602830699 0.8038542617989636
9651507 -0.5837313009402063 0.8038766543705983
9653479 -0.5840482673362767 0.8046474148941687
9655451 -0.5832068627277787 0.8043415258283957
9657422 -0.5832360397506741 0.8046507838678503
9659394 -0.5832797073466368 0.8043928214407958
9661366 -0.5831147147891098 0.8047539168800147
9663338 -0.5827609134632136 0.8052718620880669
9665309 -0.5829466086243306 0.8050946787928815
9667281 -0.5820934657593325 0.8058196986038088
9669253 -0.5821248588478624 0.8058725852599506
9671225 -0.5817259906187482 0.8060770720156324
9673196 -0.5817161377674084 0.8062690844180257
9675168 -0.5806995971296797 0.8067348532655328
9677140 -0.5802209134469414 0.806671324601568
9679112 -0.5798214662215324 0.8076996699733305
9681083 -0.5792237862901047 0.8075961754856366
9683055 -0.5787069050791391 0.8074525456187519
9685027 -0.5775336046295613 0.8075411800752991
9686998 -0.5775794941340339 0.8080989505547583
9688970 -0.5777924587577511 0.8079569233906402
9690942 -0.5780617696997584 0.808249369918336
9692914 -0.5770156214328555 0.8085248478946551
9694885 -0.5767221836615932 0.8090539402559787
9696857 -0.575562428708931 0.8092600556792287
9698829 -0.5754421441836947 0.8096085324298511
9700801 -0.5749939762454337 0.810124231658888
9702772 -0.5751272045381641 0.810405935801367
9704744 -0.5741846971103418 0.810730982974778
9706716 -0.5745774533639842 0.8105781710619598
9708687 -0.573826569263505 0.8104757432312829
9710659 -0.5732954237912997 0.8113490803083689
9712631 -0.5735102141113586 0.8111394305305836
9714603 -0.5727854786170702 0.8110106231909788
9716574 -0.5722604822099383 0.8118325904408298
9718546 -0.572168663365262 0.8119734296938194
9720518 -0.5720039290858062 0.8124623186633724
9722490 -0.5709774663725906 0.8124209813978417
9724461 -0.5708592516925756 0.813173893445285
9726433 -0.5705199920698377 0.8127772571114888
9728405 -0.5702881132058006 0.8133024984563648
9730377 -0.5699130112736103 0.8133463609574932
9730377 -0.5691365362985532 0.8134681748125356
9732389 -0.5690079198869837 0.8138984401157997
9734402 -0.5684557289652008 0.8141010589668932
9736414 -0.5681508057074667 0.8138139944013733
9738427 -0.5677915091663591 0.8142755552000591
9740439 -0.5674929427382002 0.8139881059957084
9742452 -0.5670418989120949 0.8145635597036489
9744464 -0.56640827771464 0.8146633048018237
9746477 -0.5658206055665902 0.8155635802376623
9748489 -0.5659871135212479 0.8155655023002731
9750502 -0.5658549063706867 0.8164227939424685
9752514 -0.5649547380974292 0.816674235098107
9754527 -0.5637975915936719 0.8173974593011392
9756539 -0.5634058418830008 0.8183940337232745
9758552 -0.5628036480979205 0.8183359221757721
9760564 -0.5621656819287735 0.8188561048728363
9762577 -0.5621881446530048 0.8184361416757014
9764589 -0.5620048169090526 0.8186269182247148
9766602 -0.5610910784876877 0.8191738417595534
9768614 -0.5605204216658153 0.8191453426760662
9770627 -0.5599757155305524 0.8193434753159828
9772639 -0.5592988524244841 0.8199258278431516
9774652 -0.5593475658242524 0.8200582045917024
9776664 -0.5594378371660613 0.819944695791965
9778677 -0.5587487207300439 0.8197855339421954
9780689 -0.5578795150322837 0.8202457515060535
9782702 -0.5576315245600115 0.8210794908805913
9784714 -0.5572619575219944 0.8211773037166317
9786727 -0.5563735250985185 0.8213376821113408
9788739 -0.5559650792833709 0.8217426300382614
9790752 -0.5552867045538715 0.8224407358199677
9792764 -0.5547624863986289 0.8222919604617567
9794777 -0.5539831625018908 0.8222245058875183
9796789 -0.5530777522613994 0.8224441731234283
9798802 -0.5531305657489768 0.8235565257268603
9800814 -0.5531896379296986 0.8235547343835599
9802827 -0.5523724582561589 0.8237243931464004
9804839 -0.5515866054471863 0.8242829121584045
9806852 -0.5508194426021705 0.8244765934849051
9808864 -0.5503642189947281 0.8251386833992477
9810877 -0.5498460126485847 0.8257739144474975
9812889 -0.548998470015937 0.8264068433117812
9814902 -0.5487482794642412 0.8263144683866979
9816914 -0.548217104237896 0.8269488261433352
9818927 -0.5463393461825716 0.8275985495584918
9820939 -0.5459837450939848 0.8278943570376235
9822952 -0.5457609985308682 0.8284653845814841
9824964 -0.5446481783763462 0.8284091501050852
9826977 -0.5440402943975381 0.828775959980255
9828989 -0.5431217043615859 0.8288533792816997
9831002 -0.5431074990158442 0.8296170599450402
9833014 -0.5422292685286131 0.8300881883974763
9835027 -0.5414132180314453 0.8296649401114693
9837039 -0.5403432963619605 0.8304811987001542
9839052 -0.5405317436421333 0.8308272546984982
9841064 -0.5389711315009965 0.8314419955118895
9843077 -0.5385787867234296 0.8316028369916596
9845089 -0.5384355856202074 0.8322725052931191
9847102 -0.5377007261729785 0.8322371323379247
9849114 -0.5369867337053761 0.8323374418951666
9851127 -0.5358337152842091 0.8327761272115443
9853139 -0.5353449937285518 0.833019362337247
9855152 -0.5340592469826233 0.833660567891429
9857164 -0.5336931356925633 0.8337884094470074
9859177 -0.5331442694463013 0.8341140890229151
9861189 -0.5323728801606542 0.8343194314746611
9863202 -0.5310217026268348 0.8358258899023433
9865214 -0.5300280706717024 0.8360724478293367
9867227 -0.5300429276551502 0.836394790423064
9869239 -0.529493635118692 0.8366002132634867
9871252 -0.5288222235570027 0.836940168750502
9873264 -0.5272799083587587 0.8371813273847964
9875277 -0.526852633110818 0.8382739395646243
9877289 -0.5255707159787011 0.8393144455104454
9879302 -0.5244743270254976 0.8394733407849917
9881314 -0.5235502280282812 0.8390697426206583
9883327 -0.5214234214965568 0.8393060399011248
9885339 -0.5208847549760702 0.8406965236804272
9887352 -0.5196378977771745 0.8416213749500236
9889364 -0.5192857923733032 0.842264929144268
9891377 -0.5188961461832917 0.8423525616851407
9893389 -0.5174094200734168 0.8426009445809183
9895402 -0.5163396739653665 0.8431728829944375
9897414 -0.5153447793759587 0.8439326664498249
9899427 -0.5140904666782274 0.8442757384602005
9901439 -0.5138814796793931 0.8442937960451466
9903452 -0.5125303879393267 0.8446551220614186
9905464 -0.5113331603640162 0.8453659313353885
9907477 -0.5098761218932814 0.8464407680745363
9909489 -0.5095567526072547 0.8469161058548421
9911502 -0.5084930651284835 0.847114856596344
9913514 -0.5073167316995973 0.8476135421592395
9915527 -0.5057394984832506 0.8478708759376861
9917539 -0.5040935698247976 0.8480397806136211
9919552 -0.5029141313737576 0.8488081820461567
9921564 -0.5018547405512859 0.8498396672430317
9923577 -0.5009634320446945 0.8501392437807557
9925589 -0.4998320516555664 0.8509208654244605
9927602 -0.4982302822080995 0.8513409507107815
9929614 -0.49667979608777935 0.85202468634911
9931627 -0.49580390210587144 0.8522891808052347
9931627 -0.4955069706984097 0.8526253495750454
9933681 -0.4945817529608836 0.8530616801108735
9935735 -0.49312985196743453 0.8537767596532448
9937789 -0.49101675886959584 0.8544964509432521
9939843 -0.4893216907486859 0.8551902264243922
9941897 -0.4882179959161147 0.8561902241483131
9943951 -0.48666066527139307 0.8567382746667589
9946005 -0.48515637548366236 0.8571255134774659
9948060 -0.48303445564506325 0.8579537697939016
9950114 -0.48111065251778096 0.8581846123835227
9952168 -0.47994663931336284 0.8593775913537713
9954222 -0.4784721591947549 0.8600473562525227
9956276 -0.476466224527168 0.8600591118098201
9958330 -0.47455477235350546 0.8611622838861526
9960384 -0.47251510855860596 0.8616415208810603
9962438 -0.47067196312708093 0.8624543268735257
9964493 -0.4684459290577291 0.8629465398989601
9966547 -0.4665621314823752 0.8637323109232727
9968601 -0.4647097794187423 0.8642150329550503
9970655 -0.46188183656127907 0.8650859537544203
9972709 -0.46043419447442907 0.8657317803252713
9974763 -0.4583592126315274 0.866762038364978
9976817 -0.4559936718665106 0.8671051890077212
9978871 -0.4535492171786506 0.8680350473588079
9980926 -0.4510042917390438 0.8686603534248197
9982980 -0.44940648863283494 0.8693261897114297
9985034 -0.4467697498310041 0.8704028913177412
9987088 -0.444318161962499 0.8713588689976405
9989142 -0.44201575956623484 0.8720085519430264
9991196 -0.4388959460452148 0.8729857580303089
9993250 -0.4364132524200712 0.8740801410068393
9995305 -0.43318284362437753 0.8750201389300394
9997359 -0.43012344003538283 0.875438422952997
9999413 -0.4271157820105054 0.8758319604067731
10001467 -0.4239279084647489 0.8774893670608669
10003521 -0.4210486174308333 0.8782081842498404
10005575 -0.4181030802151785 0.879058431125477
10007629 -0.41434304514274944 0.8793283283481264
10009683 -0.41108680030629563 0.8797308737542143
10011738 -0.4076501026407329 0.8811651354274846
10013792 -0.40387774445803504 0.8821367355711707
10015846 -0.40040044617500536 0.8829791439360836
10017900 -0.396544034928086 0.8836937802916219
10019954 -0.392177473436562 0.8839434269607209
10022008 -0.38791627232866616 0.8848614966401217
10024062 -0.3840564931342553 0.8860109675901879
10026116 -0.3794160215340009 0.8872515149653726
10028171 -0.3751472502818971 0.8874549773722674
10030225 -0.3694039940339251 0.888208837425295
10032279 -0.36499314085438034 0.8890401639327984
10034333 -0.36020499554019897 0.8900896805792742
10036387 -0.3549923904631586 0.8903961052429248
10038441 -0.3490745019674558 0.890765394115015
10040495 -0.34302777352910696 0.8910139638003095
10042550 -0.3366932588159258 0.8924389190941082
10044604 -0.3308591967623468 0.8921583296324022
10046658 -0.3241021298206784 0.8926895318118858
10048712 -0.31722706288071106 0.8939365526914834
10050766 -0.3103839059337499 0.8939179729371495
10052820 -0.3027496066864797 0.8941811133810242
10054874 -0.29517995242453504 0.8937438975301145
10056928 -0.28708419223085224 0.8938116312809223
10058983 -0.2783062837200296 0.8932955406728957
10061037 -0.2700647420222612 0.892987778982674
10063091 -0.2612383448464935 0.8921200338283951
10065145 -0.2514963827972541 0.8915321910998585
10067199 -0.24053655445243852 0.8900143578536379
10069253 -0.23048363270033517 0.8883316141961984
10071307 -0.21945532916026103 0.8868678725532994
10073361 -0.20732133473525058 0.8855842002423617
10075416 -0.19466484921650756 0.883481095136947
10077470 -0.1817218001469375 0.879786814750869
10079524 -0.1689811291384218 0.8761428315642223
10081578 -0.15389753697758343 0.8726682493705666
10083632 -0.13872512327192574 0.8683028765986747
10085686 -0.12326359071147601 0.8619583309897223
10087740 -0.10770972504221914 0.8559090034633955
10089795 -0.09032094930863788 0.8492487107168193
10091849 -0.07133641394284593 0.8407774070308299
10093903 -0.052004163990680266 0.8292698748917086
10095957 -0.03305535615409905 0.8172685051294
10098011 -0.01279449860977315 0.8038452820567498
10100065 0.009651478268570383 0.7885471643525948
10102119 0.03212188102598371 0.7696174329298242
10104173 0.05281528610432286 0.7491349875213359
10106228 0.07420074017564834 0.7259312337232074
10108282 0.09840794648478216 0.6998589350259508
10110336 0.12099998099323829 0.6680785829574701
10112390 0.13931498248044694 0.6342372519959403
10114444 0.15648621900301393 0.5962165608695572
10116498 0.17631042304662517 0.553050191389813
10118552 0.19021672209932836 0.5037748631615783
10120606 0.19566965095719235 0.4529163437103984
10122661 0.1979044531504349 0.39735760938449655
10124715 0.19611243417933566 0.33683216791206283
10126769 0.18573759912050067 0.27309409889217245
10128823 0.16097408307177333 0.21324055901857966
10130877 0.13195422235175056 0.1529593804113411
10132931 0.09302363369524819 0.09296431169274987
10134985 0.044862412019101176 0.038213571561844045
10137040 -0.012457240136672964 -0.004456966458020816
10137040 -0.013488581731276806 -0.0061582560542409555
10139136 -0.07537065094391712 -0.04109533552850638
10141233 -0.1419994070520645 -0.06819048134077473
10143329 -0.21123840955511866 -0.0899964967787448
10145426 -0.28155727990753965 -0.09636384731399249
10147523 -0.3442466071261171 -0.093303833640768
10149619 -0.40465991924974415 -0.08293575307983236
10151716 -0.46402734104489146 -0.0701069422735974
10153812 -0.5165447487796316 -0.048070546123317695
10155909 -0.5589566374746413 -0.022488103732084416
10158006 -0.5984303968959015 0.004307580517223168
10160102 -0.6344188940821127 0.032295159793936795
10162199 -0.6651256173206996 0.06281062907007383
10164296 -0.6878706114746964 0.09192670455511945
10166392 -0.7098080310592958 0.12081173396054772
10168489 -0.7285662991502752 0.1496589916782417
10170585 -0.7434086584942632 0.17698810162454573
10172682 -0.7549701313277859 0.20279541367018875
10174779 -0.7649576418336481 0.22793775509772804
10176875 -0.7726462806749659 0.2520924014430812
10178972 -0.7801061160431806 0.27501147897412004
10181069 -0.7847083128413848 0.29650368290102036
10183165 -0.7879178093224003 0.3164740462910003
10185262 -0.790600615264688 0.33541209326278326
10187358 -0.7937830755042761 0.35396574667939673
10189455 -0.7949577310404522 0.3707847877910469
10191552 -0.794906168186059 0.3865037265417907
10193648 -0.7942029207593169 0.4012141954473302
10195745 -0.7951116263489776 0.4162275500743044
10197841 -0.7939438376092667 0.42991195640198293
10199938 -0.793003681670428 0.44194221850781573
10202035 -0.791016472729626 0.4533146561061678
10204131 -0.790409233150596 0.465071832341978
10206228 -0.788820329205906 0.4768612111901755
10208325 -0.7872016779846274 0.48647442672703134
10210421 -0.7856715012906866 0.4964143443387867
10212518 -0.7830731270478359 0.5046544749149218
10214614 -0.7814593579773508 0.5143703058041719
10216711 -0.7793872858761387 0.5221492569993573
10218808 -0.7772712264218613 0.5299859535618288
10220904 -0.7748029960382361 0.53745905664582
10223001 -0.7731137691763249 0.5455632270484106
10225098 -0.7710049168559685 0.5522939837322889
10227194 -0.7686124294246385 0.5586816364259136
10229291 -0.7665786506928948 0.5644075075097418
10231387 -0.7639349091558127 0.5706050427967129
10233484 -0.7621752120508003 0.576395441091856
10235581 -0.7596910609356136 0.5817357064366012
10237677 -0.7575920149041568 0.5863825985477737
10239774 -0.7552656582826764 0.5922419875372076
10241871 -0.7534925801543029 0.5968831833448983
10243967 -0.7518291429902478 0.6021942206125303
10246064 -0.7491967719991537 0.6064305035294423
10248160 -0.7472756362503413 0.6103397452888435
10250257 -0.7450088780765886 0.6141696296608813
10252354 -0.7428872438240811 0.6181800307312981
10254450 -0.7411500477964265 0.6221808851078743
10256547 -0.7395885806931188 0.6254693728842702
10258643 -0.7371632608979484 0.6295695766097421
10260740 -0.7354219734494885 0.632816295072869
10262837 -0.7339371706231427 0.6358443846201924
10264933 -0.7320380520746413 0.6389937968853812
10267030 -0.7302143362649176 0.6420195058368424
10269127 -0.7285423329334944 0.6453871196936242
10271223 -0.7265658934299 0.6475929161920835
10273320 -0.7251053783935493 0.6499582490098258
10275416 -0.7232816869059154 0.6531095714965102
10277513 -0.7222297276084779 0.6562599222136666
10279610 -0.7211462429602594 0.6584362816170614
10281706 -0.720009145916926 0.6608649473872903
10283803 -0.7177010629650772 0.6631021399407733
10285900 -0.7161746283090058 0.6653263916885995
10287996 -0.7146345648924797 0.6677617291117419
10290093 -0.713139713284884 0.6699596141003352
10292189 -0.7119426977257682 0.6725814863295733
10294286 -0.7103763225082741 0.6741035147076155
10296383 -0.7093233904012507 0.6768011125768234
10298479 -0.7078437969528204 0.6787886054610408
10300576 -0.7062662165188663 0.6808372146724949
10302672 -0.7050786703568257 0.6826800238506113
10304769 -0.7039075857847475 0.6841480205469103
10306866 -0.7023733897010723 0.6864383465499385
10308962 -0.7010297971005007 0.687287268780801
10311059 -0.7001424680801404 0.6893562943554299
10313156 -0.6990162458457657 0.6909214721468859
10315252 -0.6981899082629629 0.6928431849642583
10317349 -0.6965823677927353 0.6940598774867069
10319445 -0.6958170206076105 0.6958978661830703
10321542 -0.6938477343181213 0.697359177929659
10323639 -0.6927084825076554 0.6985303918815625
10325735 -0.6915172382794121 0.6998845438699542
10327832 -0.6902740247899037 0.7011107060246582
10329929 -0.6895319100137037 0.7026324451219103
10332025 -0.6884979094720838 0.7038245601414423
10334122 -0.6876736501646922 0.7055831534914802
10336218 -0.6865974001198402 0.7070398073458747
10338315 -0.6856838632591997 0.7081412648860798
10340412 -0.6849772795561677 0.7089000951768353
10342508 -0.683568196725484 0.709922536544183
10344605 -0.6826546793525374 0.7106535669615636
10346702 -0.6817746108283768 0.7122056038475959
10346702 -0.6812692211439928 0.7122436434446838
10348841 -0.6811569819056107 0.7134303570982045
10350981 -0.6800699053520132 0.7155710155628727
10353121 -0.6790025607669652 0.7166614901310957
10355261 -0.6779101472741967 0.7178690897237443
10357401 -0.6774679274679997 0.7188153401576135
10359541 -0.6765689861073695 0.720442685038284
10361681 -0.6755404707290046 0.7205800026238197
10363821 -0.6749248227581475 0.7210626364834167
10365961 -0.6741784637853006 0.722177836357981
10368101 -0.672842555482374 0.7239352073241823
10370241 -0.6726732668865766 0.7240444646418038
10372381 -0.6717017075191345 0.7256772882885721
10374521 -0.670934928392855 0.7265198523839885
10376661 -0.6696563687375687 0.7274881647311059
10378801 -0.6689709833116103 0.7290270133880814
10380941 -0.6679458507101054 0.729959529014856
10383081 -0.6669345320949923 0.7305180975348944
10385221 -0.6660838805938797 0.7309936997005694
10387361 -0.6646573302529254 0.731642707933844
10389501 -0.6643675307719518 0.7325081891834709
10391641 -0.6637687615242418 0.7329760028917006
10393781 -0.6629341130306386 0.7338773614747698
10395921 -0.6621072776253765 0.7348872355163427
10398061 -0.6617568103689094 0.7357925296635073
10400201 -0.6609917835137666 0.736529676344254
10402341 -0.6599441714290694 0.7373535055877617
10404481 -0.65975031115148 0.7377409590364721
10406621 -0.659003257615814 0.7391291690449131
10408761 -0.658235153569002 0.7388201799596865
10410901 -0.65771141317771 0.7396535700643465
10413041 -0.6567940754636271 0.7406227675621404
10415181 -0.6558487271053001 0.741244306651372
10417321 -0.6556686083258799 0.7420167444550259
10419461 -0.655589682979379 0.742676169801329
10421601 -0.6551692722739509 0.7430893518754768
10423741 -0.6546950059559541 0.7437359886552058
10425881 -0.6538773757195724 0.7448413525356282
10428021 -0.6528292225524643 0.7444223438103074
10430161 -0.6525034642377301 0.7454869119551739
10432301 -0.6514782354255705 0.7467354338279583
10434441 -0.6505811799693252 0.7470451534663947
10436581 -0.6502544341397241 0.7474363311857781
10438721 -0.6500527064063001 0.7486218436354416
10440861 -0.6493273773466283 0.7487985591882237
10443001 -0.6482234027405066 0.7491726618910843
10445141 -0.6482518291303911 0.7498279536342215
10447281 -0.6478737065699097 0.751034654778388
10449421 -0.6473938370062962 0.7509451434072103
10451561 -0.6474267560269749 0.7520398347367239
10453701 -0.64594175866871 0.7522963812157103
10455840 -0.6455895868689352 0.7531542808118898
10457980 -0.6447986898688662 0.7538473541306859
10460120 -0.6440095385709121 0.7544541452318121
10462260 -0.6437118590557228 0.7546911309330996
10464400 -0.643451247788416 0.7551246548253041
10466540 -0.6425524518800244 0.7553228515032423
10468680 -0.6421571930956725 0.7560744980765749
10470820 -0.6419927029503094 0.7568311119570102
10472960 -0.6412800888761241 0.7568791625768739
10475100 -0.6407916477946547 0.7577758589169459
10477240 -0.6398003735521302 0.7583561609833828
10479380 -0.6392934179349278 0.7588428615645754
10481520 -0.6386137540879725 0.7587874748592324
10483660 -0.6379491322493832 0.7598003958860927
10485800 -0.6374239805188479 0.759346455721938
10487940 -0.6372116292199754 0.7599459928724601
10490080 -0.6369109521175799 0.7609978973083803
10492220 -0.6361376992296767 0.7606510127838659
10494360 -0.6365031633008971 0.7613028738228073
10496500 -0.6358392919639597 0.7612924670297331
10498640 -0.6348745621998759 0.7625959239749218
10500780 -0.6344010749467941 0.7622389055630507
10502920 -0.6346113217776684 0.7623375084664498
10505060 -0.6341544555277945 0.7637648988412361
10507200 -0.6332105782009296 0.7639796194459252
10509340 -0.6333314692530719 0.764501497083413
10511480 -0.6328800502062685 0.7650133343549258
10513620 -0.6323789832646969 0.7658064386474346
10515760 -0.631673912366716 0.7663282133382688
10517900 -0.6313569397076602 0.7659618058505521
10520040 -0.6307858077041982 0.7664407558204468
10522180 -0.6300274870154652 0.76646727776599
10524320 -0.6299171460070095 0.7672599845593612
10526460 -0.6296060786365877 0.7671953469193961
10528600 -0.6293426222142788 0.7686179715327773
10530740 -0.628840894318053 0.7683764293026056
10532880 -0.6281930008445649 0.7683249966458421
10535020 -0.628270162646917 0.7695158057443451
10537160 -0.6281394638337742 0.7698251907385071
10539300 -0.6279973296835837 0.7703622162792065
10541440 -0.6269711978212478 0.7706117670954816
10543580 -0.6259930954200839 0.7712118755374381
10545720 -0.6262773328293865 0.7715827946365645
10547860 -0.6256274687401029 0.7711683088851357
10550000 -0.6252957243451062 0.7719790028668599
10552140 -0.6254353842312764 0.7720945952872132
10554280 -0.6246740676639745 0.7726642662298342
10556420 -0.6241781483587032 0.7727249010332691
10558560 -0.6231371796982186 0.7730829775421847
10560700 -0.6236678666761625 0.7733590901588805
10560700 -0.6226670524490057 0.7735126628539176
10562884 -0.6234983043387737 0.7740355608410932
10565068 -0.6234776954799229 0.7744803831020121
10567252 -0.6222255952039375 0.7743993115908646
10569436 -0.6219888979070128 0.7747062647870423
10571621 -0.6215695100112134 0.7749083720589337
10573805 -0.6205742783294151 0.7754199415266487
10575989 -0.620388175128884 0.7758060292314913
10578173 -0.619935224968389 0.7761524679529839
10580358 -0.619199100407267 0.7765227357656432
10582542 -0.6191191586851603 0.7767609158321447
10584726 -0.6187095008825236 0.777272913878854
10586910 -0.6183277961526442 0.778057543618667
10589094 -0.6182074949231846 0.7773661607667578
10591279 -0.6178015013578395 0.7778184922854275
10593463 -0.6178895051042109 0.7782391687786915
10595647 -0.617043042443602 0.7781517382845097
10597831 -0.6167327979135946 0.7790329174359929
10600016 -0.6162493370606276 0.7794826234622939
10602200 -0.615877036871545 0.7795094490540404
10604384 -0.6156060074893943 0.7799130089771946
10606568 -0.6151615517601249 0.7805557157109542
10608753 -0.615169463007201 0.7807117517579286
10610937 -0.6147365987360404 0.7808691555450495
10613121 -0.6140886570082034 0.7810763124462949
10615305 -0.6137383057758149 0.7811010077762263
10617489 -0.6135037567644894 0.781475529679234
10619674 -0.6130251417826573 0.7815549132493443
10621858 -0.6126234527801674 0.7815773394306611
10624042 -0.6120926559982173 0.7823786324373095
10626226 -0.6122623252261251 0.7826889510529126
10628411 -0.6112758967595425 0.7823424348170124
10630595 -0.6111821486221833 0.7830426762011226
10632779 -0.6113101274246711 0.7834933834314841
10634963 -0.6109447457446932 0.7834713939410939
10637148 -0.6103657595495101 0.7840656837925506
10639332 -0.6102731700866555 0.783964640968299
10641516 -0.6101630056953735 0.7837242392312308
10643700 -0.6094966704995609 0.7840180450131876
10645884 -0.6095789718469959 0.7846626232523376
10648069 -0.6093057969961128 0.7846405209017918
10650253 -0.6086682138321705 0.785570769113551
10652437 -0.608911784568363 0.7861449478255036
10654621 -0.6088205877355023 0.7861676661781366
10656806 -0.6082243112130101 0.7865913702147938
10658990 -0.6081733943084838 0.7872165721337506
10661174 -0.607702938170081 0.7869003437820107
10663358 -0.606885267849799 0.7867576015130011
10665543 -0.6064534290659117 0.7873755183522704
10667727 -0.6063029016815441 0.7873830888735011
10669911 -0.6062411161693774 0.7880550611378929
10672095 -0.6058967266997919 0.7885978530654896
10674279 -0.6059324747676493 0.7888797907118563
10676464 -0.6050922410602362 0.7883604196511453
10678648 -0.6045303622729972 0.7884648939050405
10680832 -0.6048922139886679 0.7885717326130721
10683016 -0.6044271366875266 0.7885565539267902
10685201 -0.6038614476586841 0.7892708488416397
10687385 -0.6042421360276561 0.7895718483993034
10689569 -0.603407520265587 0.789287855481642
10691753 -0.6027017355132219 0.79004568710637
10693938 -0.6027347957054154 0.7901592494308037
10696122 -0.6026196515272787 0.7904464182377048
10698306 -0.6020385603819466 0.7910492811281816
10700490 -0.6029080433002333 0.7913153327944312
10702674 -0.6018503985405514 0.7913238513676724
10704859 -0.6013850151875485 0.7921404396313592
10707043 -0.6014290380374341 0.79137438347258
10709227 -0.6005792812418047 0.7918056927988028
10711411 -0.6007365805880528 0.7919686774901755
10713596 -0.6005278768371309 0.7918955184475008
10715780 -0.6004247149936155 0.7923682917531282
10717964 -0.5994358910524245 0.793595223622686
10720148 -0.5995757427581448 0.7926380399083435
10722333 -0.5990813908639597 0.7936111552785315
10724517 -0.5990005246932898 0.7945800114285969
10726701 -0.5994551223419202 0.7939589337263315
10728885 -0.5992188672129048 0.7944495165943817
10731069 -0.598718480909312 0.7950270177779168
10733254 -0.598553853032915 0.7940789544281336
10735438 -0.5977930109076085 0.7940395422418782
10737622 -0.5976531296726717 0.7947675380722059
10739806 -0.5975092846113109 0.7947433173286199
10741991 -0.5976095603510676 0.7952957109667635
10744175 -0.5968984245844602 0.7959887419790868
10746359 -0.5969772290837809 0.7958718684871801
10748543 -0.5965307173636756 0.7958694271004639
10750728 -0.5960728944928148 0.7964094231915363
10752912 -0.5957555907891349 0.7963745212789031
10755096 -0.5951039453305993 0.7971215685759491
10757280 -0.5952406311678807 0.798069967360793
10759464 -0.5952845402827247 0.7974547291138869
10761649 -0.594572899256464 0.7977153515304487
10763833 -0.594691038132528 0.7979712955978264
10766017 -0.5941489705806398 0.7978697793747295
10768201 -0.5935180305211852 0.7981059519032567
10770386 -0.5937587236050795 0.7990123795970402
10772570 -0.5930895310140969 0.7989657696138028
10774754 -0.5925804069479794 0.7992270644028319
10776938 -0.5926562474702838 0.7991313901386229
10779123 -0.5922348493715353 0.7993229990431612
10779123 -0.5923948431631013 0.7991429149609852
10781352 -0.5916321808681807 0.7991790345440651
10783581 -0.5914404169123681 0.7986061167576359
10785811 -0.5911046403280917 0.799110591419906
10788040 -0.5909447339743094 0.8001765928505212
10790270 -0.5906893650796959 0.7999566294928185
10792499 -0.5903149733608091 0.8006150406313449
10794728 -0.5907710903711341 0.8009946891704274
10796958 -0.5900615623234089 0.800760824865353
10799187 -0.5895894151019906 0.8016988731155654
10801417 -0.589686734478705 0.8013608591480834
10803646 -0.5887335353730955 0.8010742374572315
10805876 -0.589018215823968 0.8019341656084147
10808105 -0.5889161814767427 0.8015309346232278
10810334 -0.5885825800213792 0.8021826881873114
10812564 -0.588574561926693 0.8019772620389706
10814793 -0.5879028325086532 0.801606181373379
10817023 -0.5879052116617005 0.802983753664717
10819252 -0.5878582223365495 0.8026700102720652
10821481 -0.5868195445093843 0.8027497486341181
10823711 -0.5871426851175863 0.8031224493611921
10825940 -0.5865352627658715 0.8034404019672633
10828170 -0.5862537252618445 0.8035678380338719
10830399 -0.5860870953920595 0.8032587267275243
10832629 -0.586078154411679 0.8032836867538304
10834858 -0.5861342460611584 0.8043236072342906
10837087 -0.5861683784078007 0.8035823510543914
10839317 -0.5858951774754806 0.8045062293639141
10841546 -0.5855711670691578 0.8043285004749865
10843776 -0.5851453180524419 0.8045489141401259
10846005 -0.5844831564722498 0.8054868118310208
10848235 -0.5841242909996505 0.8051344878602084
10850464 -0.5840621464049162 0.8059223637313296
10852693 -0.5840358739731852 0.8058452520374136
10854923 -0.583751616536032 0.8056665792460852
10857152 -0.58284455065623 0.8055557628115743
10859382 -0.5828404766437527 0.8048035928886593
10861611 -0.5823342656719352 0.8054439333965774
10863840 -0.5827196260257095 0.8063724908353113
10866070 -0.5828080631740257 0.8056869270394441
10868299 -0.5824264347056206 0.8071597846996351
10870529 -0.5823695866242493 0.8071726172493353
10872758 -0.581736433243114 0.8067922559211602
10874988 -0.5812556278080071 0.807731495677165
10877217 -0.581840670280139 0.807218346099866
10879446 -0.5813969940852484 0.8083160500494442
10881676 -0.5811157159194397 0.807900204932782
10883905 -0.5808012049696238 0.8087216721209002
10886135 -0.5806247904076209 0.8085543874656583
10888364 -0.580488374058417 0.8082283737920396
10890594 -0.579678741488952 0.8082249595614636
10892823 -0.579867063748175 0.8080788158715414
10895052 -0.5794344477578731 0.8091896415333139
10897282 -0.5795078468598707 0.8088880511645206
10899511 -0.578859027017262 0.8090238744486214
10901741 -0.5791523465388996 0.8101088278629656
10903970 -0.5783144763796022 0.809368128665651
10906199 -0.5779085159972213 0.8103669648560803
10908429 -0.5777490075041055 0.8099349438166253
10910658 -0.5775450058315433 0.8100034704512676
10912888 -0.5772865952542617 0.8102385948671319
10915117 -0.5774379221412389 0.8098445298224132
10917347 -0.5771466780241211 0.810731793195286
10919576 -0.5773120164885885 0.8103893289520869
10921805 -0.5766738438525622 0.8111695527300677
10924035 -0.5765204204776043 0.8113850423573621
10926264 -0.5762168244930984 0.8112180690824586
10928494 -0.5763410744281773 0.8117599518328703
10930723 -0.5761050945410036 0.811837433560477
10932952 -0.5753189431840768 0.8120208706071147
10935182 -0.5757264255540927 0.8126065658411097
10937411 -0.575141116533704 0.812523935775816
10939641 -0.5755751230693767 0.8127324630290009
10941870 -0.5748588916699531 0.812422608195458
10944100 -0.5747134159804562 0.8129028282474575
10946329 -0.5749605728363761 0.8127171514026359
10948558 -0.5741757150199165 0.8130609443075871
10950788 -0.5742566467863551 0.8129676636222494
10953017 -0.57383589903007 0.8132664223216799
10955247 -0.5738487523929171 0.813644184527929
10957476 -0.5737994132173727 0.8138901081989783
10959706 -0.57308139577704 0.8143252626747853
10961935 -0.5729857424869917 0.8138648090417554
10964164 -0.5723075121047456 0.8134558405515139
10966394 -0.5722115368121361 0.8140294961854877
10968623 -0.572659920158815 0.814485762423978
10970853 -0.5714652004837262 0.8142733226658757
10973082 -0.5716151506406003 0.8150371991621321
10975311 -0.5710720630683305 0.8144221831454046
10977541 -0.571466012556929 0.8147632997378961
10979770 -0.5717095479680337 0.8148804175037033
10982000 -0.5709490886121327 0.8148145224929838
10984229 -0.5710118795881917 0.8155060902752852
10986459 -0.5709314494901094 0.8148183390784897
10988688 -0.5706019546321333 0.8157016092637729
10990917 -0.5703244310140969 0.8157985823548864
10993147 -0.5695085435554031 0.8158488112023642
10995376 -0.5695213972079877 0.8160785014696103
10997606 -0.569211921977053 0.8159079656769034
10999835 -0.5691698997326035 0.8161931889216961
11002065 -0.5687610478337292 0.8160174942845634
11002065 -0.5688915106990893 0.8160384476338534
11004340 -0.5680670962652166 0.8162994813090557
11006616 -0.5683463682528931 0.8165930323569333
11008891 -0.5681461120130895 0.8173174853681103
11011167 -0.5685047611550982 0.817427639332235
11013442 -0.5679501484925444 0.8176964955463832
11015718 -0.5682303510130916 0.8182865486688023
11017993 -0.5682568145684316 0.817627885327698
11020269 -0.5671554755197095 0.8184580844709713
11022544 -0.5673947695588022 0.8181026092352432
11024820 -0.5667340092488512 0.818325131518937
11027095 -0.5670178091539844 0.8188191815771437
11029371 -0.5665221341378446 0.8181146748073904
11031646 -0.5668650501757294 0.8187953210301876
11033922 -0.5658372348200019 0.8183761392745506
11036197 -0.5656638039052484 0.8189433734545468
11038473 -0.565928048373639 0.8189032858047023
11040748 -0.565394897260076 0.8190405192814777
11043024 -0.5656704819510174 0.8192463545480001
11045299 -0.5650036404514637 0.8191995167629538
11047575 -0.5654913175288602 0.8191690316258347
11049850 -0.5644709768524124 0.8189027576166613
11052126 -0.5640171991564176 0.8197909974019071
11054401 -0.5640564230626273 0.8194702060045137
11056677 -0.563128086162194 0.8201424641357038
11058953 -0.5634183739320077 0.8204370919191738
11061228 -0.5626239331890701 0.8210996130406418
11063504 -0.5633015178807182 0.8214024288321486
11065779 -0.5627057232933157 0.8210969679320708
11068055 -0.562845757870414 0.8219414480167289
11070330 -0.5626518892441782 0.8213836594282601
11072606 -0.5620905974196017 0.8220258326686414
11074881 -0.5621221073904463 0.8221012920804763
11077157 -0.5621686850657573 0.8222914861568387
11079432 -0.5620006906928977 0.822548856347052
11081708 -0.5616986036416834 0.8221094481696222
11083983 -0.5617783361050714 0.8226181814662024
11086259 -0.5613873925388267 0.8223760171501389
11088534 -0.5607817163239395 0.8226379734095001
11090810 -0.5607824176576647 0.8226741026153434
11093085 -0.5600412889799857 0.8225051803819527
11095361 -0.5596024486816205 0.8229991246948264
11097636 -0.5589301569963331 0.8224595724983912
11099912 -0.5594799304989996 0.8229749596522603
11102187 -0.5590621133273712 0.8226055074959172
11104463 -0.5591180278812119 0.8228478783120902
11106738 -0.5585247510100516 0.8228925036977794
11109014 -0.5586154497017154 0.8234784146102905
11111289 -0.5586882613676167 0.8239866985547227
11113565 -0.5576628904931594 0.8240541572121101
11115841 -0.558123378382434 0.8245263571899095
11118116 -0.5574900123730828 0.824614867473398
11120392 -0.5578363196457681 0.8245826788092754
11122667 -0.5576393441199143 0.8243724652338145
11124943 -0.5571344227965939 0.8240352883927329
11127218 -0.557558245369415 0.8243871076528683
11129494 -0.55657116626956 0.8242977972988518
11131769 -0.5571077350142665 0.8244843029378462
11134045 -0.556428302590009 0.8242741346754412
11136320 -0.5563456668851758 0.825032639278803
11138596 -0.5560365543846442 0.8248370596401517
11140871 -0.5560959578293798 0.8251428122172859
11143147 -0.5562230097188556 0.8252026137847327
11145422 -0.5555939980702091 0.8256309770761004
11147698 -0.5559680423544914 0.8259098410695468
11149973 -0.555565273377153 0.825876375407395
11152249 -0.5551663443134015 0.8255978585024129
11154524 -0.5547361233754633 0.8254119593706277
11156800 -0.5546422220782706 0.8258216911134155
11159075 -0.5543792918669322 0.8262143752722794
11161351 -0.5543995991507817 0.8265396911699888
11163626 -0.5546645227293373 0.826817631527873
11165902 -0.5541128543035766 0.8271140021929015
11168177 -0.554287431683283 0.827297413940658
11170453 -0.5539140989729495 0.8274615566915136
11172729 -0.5537333329674178 0.8278559012143156
11175004 -0.553109220755562 0.8277293727209372
11177280 -0.5530195674965459 0.8278602877077716
11179555 -0.5528046893679848 0.8281571814391151
11181831 -0.5525989848321721 0.8282235498194701
11184106 -0.5522762009854629 0.8284202784577032
11186382 -0.5517905217617377 0.8286270589366146
11188657 -0.552183397655814 0.8284854547017119
11190933 -0.5516039986616206 0.8289380565947567
11193208 -0.551555360335168 0.8293871286972072
11195484 -0.5518403358426174 0.8295508256823588
11197759 -0.5515101066938694 0.8299935154808551
11200035 -0.5511098039438849 0.8296581663630511
11202310 -0.5510379477123946 0.8294142878209351
11204586 -0.5507373698974615 0.8296146743632783
11206861 -0.5502528478062056 0.8297382758976757
11209137 -0.5503018060537936 0.8298438597136458
11211412 -0.5499119385555333 0.8297705913371605
11213688 -0.55009101706352 0.830549989514222
11215963 -0.5496025500206732 0.8307159814517816
11218239 -0.5498448581606543 0.8299958430275136
11220514 -0.5500285792038845 0.83089897181942
11222790 -0.5489779705668728 0.8306775887698956
11225065 -0.5489995656523167 0.8307259768872374
11227341 -0.5483157829613966 0.8307814319297775
11229617 -0.5484728132021103 0.8313715078813207
11229617 -0.5482375268967737 0.8319413039347804
11231939 -0.5481082099144226 0.8322268494777503
11234262 -0.547887631529642 0.8324052654976754
11236584 -0.5477059633107114 0.8321522893130058
11238907 -0.5479933859985205 0.8319757175530225
11241229 -0.5470328912798619 0.8319100478121121
11243552 -0.5475279232300977 0.8317669595195073
11245875 -0.5473499091909806 0.8323258548103971
11248197 -0.5472928141017149 0.8322442424515981
11250520 -0.546897387763547 0.832553656235757
11252842 -0.5472625030704092 0.8330358910852197
11255165 -0.5469118547464072 0.8334252590749831
11257488 -0.5466404746666172 0.833207992317965
11259810 -0.5460299368332522 0.8335097591442936
11262133 -0.5458914012937137 0.8336709047078302
11264455 -0.5458075526959507 0.8339039757578554
11266778 -0.5454955822337337 0.8334805093062144
11269101 -0.5447394678532209 0.8328288915847915
11271423 -0.5448031443960049 0.8333031369169802
11273746 -0.5446129593080279 0.8335064728559293
11276068 -0.544228757479972 0.8335475150089972
11278391 -0.5443036654688482 0.8337665546033339
11280713 -0.5439943721144143 0.8339695138544608
11283036 -0.5438793135118326 0.8345298046139032
11285359 -0.543358082163436 0.8345109379704195
11287681 -0.5434683412995935 0.8350272326652363
11290004 -0.543176145775829 0.8350009618786713
11292326 -0.5428102270329671 0.8354566170418364
11294649 -0.5427360939768379 0.8349693319436087
11296972 -0.5426965022977162 0.8351134643804085
11299294 -0.5427231283751034 0.8344157687131426
11301617 -0.5422558773747104 0.8350356653560569
11303939 -0.5423423230910233 0.8350508314293505
11306262 -0.542228915803122 0.8355713303071778
11308585 -0.542095003206896 0.8351774305262601
11310907 -0.5417000084906392 0.8357309416509306
11313230 -0.5417302747217134 0.8355404955450957
11315552 -0.5413977410306952 0.8363586441860064
11317875 -0.5410888073280572 0.8359105151842952
11320198 -0.5410410920999754 0.8366715965279176
11322520 -0.5407357091404176 0.8367941505140433
11324843 -0.5408703622433781 0.8372110426721338
11327165 -0.540208233171915 0.8373447567503536
11329488 -0.5400990523342468 0.8372146622398879
11331810 -0.5395548010283725 0.8374635623725708
11334133 -0.5398514573497228 0.8375670751207926
11336456 -0.5392456414724641 0.8373388234577726
11338778 -0.5391008880390149 0.8375434830844783
11341101 -0.5391853960480023 0.8376149156587942
11343423 -0.5392464737728847 0.8377776304592606
11345746 -0.5395087428980226 0.8378900456845061
11348069 -0.5388235733450943 0.838473993653322
11350391 -0.5390181283179905 0.8384880313275446
11352714 -0.5384405607510997 0.8395310268379881
11355036 -0.5379957880508172 0.8391013963123761
11357359 -0.5376380701104658 0.8388153411438675
11359682 -0.537369088830675 0.838724592028067
11362004 -0.5373830097761986 0.8391852550249677
11364327 -0.536964093472125 0.8390147718122198
11366649 -0.5363766035360152 0.838842782109618
11368972 -0.5368542221156214 0.8391753338670861
11371294 -0.5361968513909274 0.839587732979375
11373617 -0.5365422189689492 0.8393720507925683
11375940 -0.5358272289288792 0.8396120135208613
11378262 -0.5355586480692661 0.8393123437854443
11380585 -0.5350931256670274 0.8398248591606192
11382907 -0.5347754121814251 0.839909112295954
11385230 -0.5341778791384479 0.8408441432408255
11387553 -0.5345943230201573 0.8403766970971783
11389875 -0.5340341052606238 0.8409140920496271
11392198 -0.5345491700937092 0.8408941542182644
11394520 -0.5343862869951543 0.841100477826933
11396843 -0.5344025863987277 0.840937856099288
11399166 -0.5338350473009336 0.8410246156711492
11401488 -0.5342924076622286 0.8414950171259498
11403811 -0.5334021196401788 0.8413616911430433
11406133 -0.5334972750370003 0.841367243427644
11408456 -0.5326561364166363 0.8417791682776916
11410779 -0.532329126218388 0.8412282838351349
11413101 -0.53224043437305 0.8421215472230179
11415424 -0.531531120125989 0.8421060713988738
11417746 -0.5320281936990541 0.8424899336465933
11420069 -0.5312320528237565 0.8425720365367623
11422391 -0.531995449440484 0.8426731569350403
11424714 -0.5311101806437324 0.842989594555256
11427037 -0.5314714858397944 0.8428308248454078
11429359 -0.5309687910948014 0.8429864433991399
11431682 -0.5312677946410198 0.8432292569924136
11434004 -0.5304773122578592 0.8430738076617535
11436327 -0.5307985169704538 0.8429729542358745
11438650 -0.5296807081366582 0.843468198981247
11440972 -0.5301119475311401 0.8428625881945371
11443295 -0.5295717319972572 0.8433962013832133
11445617 -0.5293716415270505 0.8434547258536702
11447940 -0.5292394665102729 0.8437151646126141
11450263 -0.5294756369665758 0.8440071051423677
11452585 -0.5286506376675002 0.8440521531193275
11454908 -0.5292587159889636 0.8442321259963991
11457230 -0.528594793699825 0.844450014989633
11459553 -0.5290263187466657 0.8444098122758128
11461876 -0.5288888416544177 0.8451903572240029
11461876 -0.5285277171368978 0.8450136855714393
11464246 -0.5286909816356953 0.8450382624907479
11466617 -0.5282966225114546 0.8454118766861116
11468987 -0.5276484288513055 0.845562296461044
11471358 -0.5280301738747388 0.8458093005911992
11473729 -0.5269819475293802 0.8454493855437294
11476099 -0.5273875517581751 0.8455799227381736
11478470 -0.52699955659471 0.8461546996754029
11480841 -0.526714717258625 0.8456834214754115
11483211 -0.5271399487216907 0.8461526618125461
11485582 -0.5264723483715776 0.8460924199159835
11487952 -0.526131165921684 0.8460782994951721
11490323 -0.5259261992651865 0.8469109296253096
11492694 -0.5261425102168538 0.8465474990423646
11495064 -0.5256818411252385 0.8468027730053945
11497435 -0.525787961882282 0.8467537817999296
11499806 -0.5258961214334753 0.8467761242757404
11502176 -0.5252495578075388 0.8471864853384852
11504547 -0.5248608485370112 0.8473798298045176
11506917 -0.5242542163987988 0.8475977018971719
11509288 -0.5244313257159092 0.8470408126211493
11511659 -0.5241206762676157 0.8483840017436342
11514029 -0.5241593046271704 0.8476736720142848
11516400 -0.524582045828251 0.8483670269898698
11518771 -0.5237912616475295 0.8485946453266057
11521141 -0.523681786217631 0.8487909769019922
11523512 -0.5231205435700926 0.849068232752362
11525883 -0.5241198410959351 0.8487002672239131
11528253 -0.5237554946024208 0.8487189089072965
11530624 -0.5236761996178938 0.8487830569864554
11532994 -0.5234855150720503 0.8483252678798097
11535365 -0.5227584913048475 0.8479868122364387
11537736 -0.5231147967632424 0.8483037784862806
11540106 -0.5219405689533627 0.8486568072945893
11542477 -0.5221151628778051 0.848740727475386
11544848 -0.5219679249599692 0.8490481505572567
11547218 -0.5217124758368625 0.8492328513617698
11549589 -0.5220994161425363 0.8496853131500748
11551959 -0.5213408259334859 0.8499739791174578
11554330 -0.5217575433723577 0.8497381888886659
11556701 -0.5207237184843956 0.8498573996845542
11559071 -0.5204172192655246 0.8497816283724599
11561442 -0.5206400269458944 0.8498421913679857
11563813 -0.5204759805231107 0.8498121717422676
11566183 -0.5207137259992473 0.8508152706877322
11568554 -0.5200795633560682 0.8508747542500277
11570924 -0.5201733124937202 0.8504644552413813
11573295 -0.5195542930722541 0.8510218496563934
11575666 -0.5199343430387589 0.8508264569557523
11578036 -0.51939595977292 0.850916451016685
11580407 -0.5189825479818334 0.85129120902788
11582778 -0.5184889232925028 0.8515785426934237
11585148 -0.5187352522000298 0.8515406325015602
11587519 -0.5176855788534894 0.8514959781571061
11589890 -0.5186052279742902 0.8512552786940464
11592260 -0.5172438963332587 0.8515658774224847
11594631 -0.5178193904760402 0.8515315666336074
11597001 -0.517193294869886 0.852750577576163
11599372 -0.5167722284306998 0.8519331580010898
11601743 -0.5167401348322627 0.8524269134746222
11604113 -0.5165830992364221 0.8526752182485798
11606484 -0.516539374299085 0.8527192562041449
11608855 -0.5166214754340547 0.8527747131174486
11611225 -0.5164643730601398 0.8531142026153851
11613596 -0.5156207633259741 0.8532110536933363
11615966 -0.5160615431708819 0.8535259196207376
11618337 -0.5154213816081169 0.853525985989016
11620708 -0.515943910346908 0.8537316319428762
11623078 -0.515286814082166 0.8535931547003988
11625449 -0.5155722351354044 0.8538962105775091
11627820 -0.5149013716498524 0.8541571086958235
11630190 -0.5151162772741483 0.8540195801305842
11632561 -0.5149757336905504 0.8545401775723886
11634931 -0.5153923034719545 0.8541013805685596
11637302 -0.5144132742872014 0.854352251507995
11639673 -0.5140778696973172 0.8538957759220989
11642043 -0.5138601004022879 0.8545303890065502
11644414 -0.5130518670420685 0.8541104306192151
11646785 -0.5130242008692015 0.8543377041998875
11649155 -0.5125988749526104 0.8547900773318065
11651526 -0.5129946511930612 0.8549528910996675
11653897 -0.5128584085445567 0.8550187247790327
11656267 -0.5131335201445558 0.8554708090088996
11658638 -0.5126945231072727 0.8553640522266501
11661008 -0.5135406288707853 0.8555187524772363
11663379 -0.5125178730126754 0.8555946070205028
11665750 -0.5131469665626902 0.8556259652893622
11668120 -0.5126607271663326 0.8560683811273162
11670491 -0.5126026863917347 0.8557524402795761
11672862 -0.5120853211552597 0.8562324323633554
11675232 -0.5120898948647281 0.8562491405525339
11677603 -0.5114117387621343 0.8564814562520728
11679973 -0.5109467428728778 0.8562639729758444
11682344 -0.5108585148363389 0.8570889353759261
11684715 -0.510702436883456 0.8565128555020557
11687085 -0.5111964105537686 0.8565132027309106
11689456 -0.5099574276118186 0.8565570256652709
11691827 -0.5107147192895837 0.8569378182074742
11694197 -0.5102702547674642 0.8571267969219817
11696568 -0.5105438319392587 0.857767694729133
11698939 -0.5099403015656799 0.8577692258991857
11698939 -0.5100100521944914 0.8573951557394986
11701358 -0.5093803095946958 0.8583060960616992
11703778 -0.5094379116111194 0.8578227398854836
11706197 -0.5096162579882861 0.858033435069117
11708617 -0.5088988642213947 0.8581962499471385
11711037 -0.509189012743062 0.8577804267222437
11713456 -0.5086583445397538 0.8581356314072098
11715876 -0.5078892499379791 0.8584260714100554
11718296 -0.5082877417489324 0.8585255442743179
11720715 -0.5072770151226242 0.8584784895626171
11723135 -0.5077812224743599 0.858089324298657
11725555 -0.5074889131233117 0.8583680701784923
11727974 -0.5070874337070537 0.8584482661637346
11730394 -0.5071125856193255 0.8589588242766678
11732814 -0.5065195396696003 0.8587211092517605
11735233 -0.5066689379558271 0.8588275185078371
11737653 -0.5058946496517445 0.8590698636777898
11740073 -0.506340313815292 0.8588639865938953
11742492 -0.5059071024627094 0.8595859737703496
11744912 -0.505619512560957 0.8590543057368986
11747332 -0.5062999835121037 0.8591382939665367
11749751 -0.5056927609021169 0.8601943183283481
11752171 -0.5054621887310857 0.8604979503958389
11754590 -0.5057346615986484 0.8614162247722017
11757010 -0.504908918321521 0.8609224153832258
11759430 -0.5056363262562916 0.860509846237729
11761849 -0.5051148847129934 0.8610100593028431
11764269 -0.5047343832872808 0.8603840302536901
11766689 -0.5044938781470423 0.8606521835698969
11769108 -0.5044607684134927 0.8610806911191352
11771528 -0.5044169901250771 0.8608692103277374
11773948 -0.503793888290006 0.8609110971062859
11776367 -0.5045158344697799 0.8612865756846957
11778787 -0.503446770396448 0.8616121686869869
11781207 -0.5034251308454484 0.8615159737790274
11783626 -0.5033131888052734 0.8620416923339007
11786046 -0.5029023543737796 0.8620386930443995
11788466 -0.5031520876154164 0.8623252838089746
11790885 -0.5025606683406287 0.8623184823470129
11793305 -0.5025381694882352 0.8617526877550672
11795725 -0.5024568870778292 0.8625679528743088
11798144 -0.5018867851309566 0.861984720967695
11800564 -0.5025064514323606 0.8624458957635186
11802983 -0.5013688528276481 0.862953027681664
11805403 -0.5016511464221002 0.8630514265349841
11807823 -0.5015106649023555 0.8630191968859586
11810242 -0.501307958516108 0.8630142036826651
11812662 -0.5007250447401733 0.8631262224698641
11815082 -0.500292707728683 0.8628723839513337
11817501 -0.500989045519974 0.8628923371346835
11819921 -0.5006602787720879 0.8626207231417309
11822341 -0.5009908013895013 0.8625468831904626
11824760 -0.4998994318161173 0.8634321632776479
11827180 -0.49971797567138 0.8629155103099441
11829600 -0.5002235250294625 0.8639291861540788
11832019 -0.49971292305243187 0.8638781207668659
11834439 -0.4999540886789356 0.8643261632622234
11836859 -0.4992865615712848 0.8640829596996418
11839278 -0.49944849118509854 0.8649364714776387
11841698 -0.49856529818229395 0.8649190091001335
11844118 -0.4988429771380061 0.8650718254325522
11846537 -0.4986235461067445 0.8651274165719806
11848957 -0.4985254431752043 0.8646884451183072
11851376 -0.49819324371584406 0.8647849463863408
11853796 -0.49765897709753726 0.8644361048662723
11856216 -0.4978264948337536 0.8653108687025096
11858635 -0.49750450311401145 0.8651706767976365
11861055 -0.4976658654476134 0.8655004557597862
11863475 -0.4972492358359991 0.8658178888895621
11865894 -0.4967536254239563 0.8651941506262242
11868314 -0.4969247448921781 0.8657765578593336
11870734 -0.49621942256561197 0.8660096668885084
11873153 -0.4970569701156394 0.8661149803853155
11875573 -0.4972486884086411 0.8661835670458261
11877993 -0.4965751733094454 0.8657831353221288
11880412 -0.49687041125882137 0.8660905289838283
11882832 -0.4964542513163653 0.8660473030023977
11885252 -0.4963816651019319 0.8663284998993906
11887671 -0.496417422022513 0.8667720234828118
11890091 -0.49586617333590366 0.8666043050471759
11892511 -0.49624809267827413 0.8672949632168646
11894930 -0.49565243826443334 0.8672863326497245
11897350 -0.4951354856085864 0.8673127611610518
11899769 -0.4950837769012316 0.8675623462016894
11902189 -0.4943860787942248 0.8672943656151572
11904609 -0.49455675626191065 0.867725831906732
11907028 -0.49404481513446946 0.8674686206543122
11909448 -0.49462274423254243 0.8676944166294308
11911868 -0.4943227991123951 0.8679474166353589
11914287 -0.4937267851414859 0.8672970328646915
11916707 -0.4940452834142451 0.8679548155500589
11919127 -0.49307708210559953 0.8678286308305191
11921546 -0.4937996851101427 0.8674907065937622
11923966 -0.49333781747335353 0.8678889335171718
11926386 -0.49311443351219114 0.8676867323856687
11928805 -0.49334921038866314 0.8683282324733073
11931225 -0.49269135896152844 0.8689832648649646
11933645 -0.49349935016737506 0.868933956313422
11936064 -0.4930890564140029 0.8685889417059655
11938484 -0.4933838860030102 0.8685995939337844
11940904 -0.49251114542550545 0.8691318805153725
11940904 -0.49191685481053515 0.8692139826877512
11943373 -0.49148135088370704 0.8684837534135981
11945843 -0.49210407422209784 0.8694467624216292
11948313 -0.4913037174718201 0.8692372515395357
11950782 -0.4912525327166597 0.8684313696693042
11953252 -0.4916525282134557 0.8692789596495906
11955722 -0.49078925530634143 0.8688295161323363
11958191 -0.49104108140458097 0.8684883307177381
11960661 -0.49121120588832357 0.8697485647119977
11963131 -0.4906201933955098 0.8698257268058766
11965601 -0.4908848796284946 0.8704358362990342
11968070 -0.49064291680560107 0.8708183505123419
11970540 -0.49000593173322793 0.871110566373071
11973010 -0.49036504554004956 0.8712959411227598
11975479 -0.4899036349658303 0.8714793553821951
11977949 -0.48958608093013045 0.8707803015464199
11980419 -0.48950755105341875 0.8707450495070368
11982889 -0.48918607545886716 0.8705501101915528
11985358 -0.48890138217511975 0.8701405437478433
11987828 -0.48913307472903556 0.8714137542539963
11990298 -0.48886514189990765 0.8717443110999261
11992767 -0.4887579769624707 0.8719191474117044
11995237 -0.4888949301436768 0.8722525184551945
11997707 -0.4879211933898588 0.8721224996826575
12000177 -0.48855274629596945 0.8720720747365202
12002646 -0.4879807244110085 0.8722939615120275
12005116 -0.4877702333580972 0.8721282208316626
12007586 -0.48743031003882736 0.8723220594467994
12010055 -0.48727318684091836 0.8722289712193446
12012525 -0.4872756533018263 0.8721534794496522
12014995 -0.4872794698388165 0.8728238209872493
12017465 -0.4871692622499907 0.8727672935600052
12019934 -0.4866424842143806 0.872915631225433
12022404 -0.48659884291424227 0.873079540767294
12024874 -0.4860613281271112 0.8726482470886391
12027343 -0.486193596874131 0.8732419200932308
12029813 -0.48621007359832624 0.8736056216663629
12032283 -0.4855145661473924 0.873503024177855
12034752 -0.4855384270567246 0.8732464243615355
12037222 -0.485620267538197 0.8727719109990524
12039692 -0.4853716258492857 0.8725318315981571
12042162 -0.48580457105677916 0.8730103043319746
12044631 -0.48617459277598896 0.873276069501431
12047101 -0.48571549473153536 0.8732712949601615
12049571 -0.4859131723530648 0.874354898218809
12052040 -0.4854540437826929 0.8741066360470768
12054510 -0.4847575141276257 0.874026491610442
12056980 -0.48434162367218186 0.8753693121851668
12059450 -0.48406787872821694 0.8754588155721889
12061919 -0.48392990966803806 0.8756362080722212
12064389 -0.4837722874756491 0.8754755820600968
12066859 -0.48334787442282423 0.874825535440067
12069328 -0.4833043261638784 0.8745970844157334
12071798 -0.4838725368288569 0.8744480812849519
12074268 -0.4830882806541744 0.8741453302464819
12076738 -0.4828440390380363 0.874444216927846
12079207 -0.48285227500231964 0.8749995171183149
12081677 -0.48277297257284746 0.8749267159449288
12084147 -0.4825411845117564 0.8754524480384223
12086616 -0.48263667348219935 0.8757528301746436
12089086 -0.4818399889705407 0.8755445056545207
12091556 -0.48164560472878165 0.8758806946002897
12094026 -0.48096919520922543 0.876109253425411
12096495 -0.4807665964563381 0.8763681533795968
12098965 -0.48052410413662716 0.8759540624211597
12101435 -0.48039879746644826 0.8758182328000311
12103904 -0.48098752956565544 0.8758492035937777
12106374 -0.48052410200701157 0.8756578923762345
12108844 -0.4805445680448173 0.8763897220531365
12111313 -0.4810737127479485 0.8764137707149112
12113783 -0.4806792167053964 0.8769626658914265
12116253 -0.48053732581362313 0.8774643717274163
12118723 -0.4804528255670233 0.8781431463925986
12121192 -0.47957763469517445 0.8786790263339816
12123662 -0.47933649438202486 0.8784628993594302
12126132 -0.47893634378501787 0.8783027104442436
12128601 -0.4778463698287298 0.8783887221759117
12131071 -0.4778870436569005 0.8779788108782174
12133541 -0.4782136195571531 0.8778066326613169
12136011 -0.4778241640686527 0.877815018268433
12138480 -0.4778776969025241 0.877549795939574
12140950 -0.4781725878014047 0.878318273068148
12143420 -0.47835773664556586 0.8785252402768605
12145889 -0.47775758955652164 0.8785379097962381
12148359 -0.47806201432627454 0.87882752288806
12150829 -0.477495849850888 0.8786500014665943
12153299 -0.47718215957440313 0.8788750695997142
12155768 -0.47801142678206726 0.8788518965838191
12158238 -0.4774463739564723 0.8787436732249885
12160708 -0.47731325389408813 0.878381485582374
12163177 -0.4774415591994385 0.8788616840294659
12165647 -0.47683345087462375 0.8792611843228642
12168117 -0.47664226507678015 0.8789887237612788
12170587 -0.47658650314444484 0.8795851220542124
12173056 -0.4759730982936478 0.8798809547500996
12175526 -0.47597482692288173 0.8792175812898391
12177996 -0.47576436768611874 0.879542016783878
12180465 -0.4748840477866821 0.8796609479451573
12182935 -0.4744554666074064 0.8794300552405775
12185405 -0.4740609495009572 0.8800386453936652
12187875 -0.47395184456967965 0.8797640021051039
12187875 -0.4741381950582197 0.8796954705335216
12190395 -0.47386973465627713 0.8797263625828224
12192916 -0.47383827657178257 0.8801217584529911
12195437 -0.4743138578169252 0.880410524753165
12197958 -0.47444933098488984 0.8802001667120126
12200478 -0.47442472975943095 0.880351490383755
12202999 -0.4741689790841177 0.8805569176207588
12205520 -0.47385439879770547 0.8802194715206699
12208041 -0.47349137268537606 0.8806607756555089
12210562 -0.4733870597350061 0.8812142502936225
12213082 -0.47343607222396245 0.8807796261912934
12215603 -0.47274871572667326 0.8808173252729441
12218124 -0.47227976464322186 0.8812574995401861
12220645 -0.4729883826886709 0.8810783744560983
12223165 -0.47229761739615833 0.8810006930780647
12225686 -0.47186184820141885 0.8808182174839466
12228207 -0.47209590626301157 0.8805156785803916
12230728 -0.47207293875000045 0.881325237469523
12233249 -0.47206151863266965 0.881768785294775
12235769 -0.4717936252746048 0.8821746591230349
12238290 -0.4718079575113661 0.8828035861409285
12240811 -0.4714641090630331 0.8826803470809176
12243332 -0.47087118742017076 0.8833621747803263
12245852 -0.4710548650732345 0.8831717487443639
12248373 -0.47077539768546 0.8825026693372392
12250894 -0.46980006901725946 0.8822754383849548
12253415 -0.47031934963958605 0.8822128809841306
12255936 -0.47027431561141725 0.8826445835929925
12258456 -0.46985699307261497 0.8821679144866419
12260977 -0.4702167236627437 0.8825922801365679
12263498 -0.4700419386694048 0.8827599570442013
12266019 -0.46996133399625023 0.8825953232624988
12268539 -0.4692219166689347 0.8838201404949827
12271060 -0.4690290473519429 0.8834340789872219
12273581 -0.46878361780327843 0.8831329939965108
12276102 -0.4684677345009296 0.8834718596780308
12278623 -0.4687492950843061 0.8839061675631322
12281143 -0.4685467492160062 0.8842166035684472
12283664 -0.46822653532380676 0.8842605746590706
12286185 -0.4678277195064551 0.8844041092619209
12288706 -0.4677525906230347 0.8838502423328113
12291226 -0.46824299379553985 0.8836523088530497
12293747 -0.467464326427269 0.8842507403174318
12296268 -0.46765518100334186 0.8845619472712732
12298789 -0.4680961185563442 0.8843219899334043
12301310 -0.4673438435274852 0.8849692338394762
12303830 -0.4673515218225282 0.8847990641026887
12306351 -0.4682274706862257 0.8851265690020031
12308872 -0.46750092618564604 0.8845856122184664
12311393 -0.46682696172969834 0.8847108676696767
12313914 -0.4665763683391094 0.8847446107244701
12316434 -0.46651751690767146 0.8847066889941918
12318955 -0.46527397027798423 0.8849016551276683
12321476 -0.4652281047572096 0.8847767171611182
12323997 -0.46579690076656094 0.8844807264438311
12326517 -0.46592637306389656 0.8847278443780493
12329038 -0.465014057549319 0.885743988518303
12331559 -0.4651084419963242 0.8862197572428766
12334080 -0.46570431886792873 0.8865090564660881
12336601 -0.46419829317691835 0.8863500396144786
12339121 -0.46388329171149484 0.8858772312292117
12341642 -0.4642657698000687 0.8854529144888418
12344163 -0.46390776695573976 0.8856330767333261
12346684 -0.46376398255618523 0.8856590628671586
12349204 -0.46403871977002387 0.8854363890423138
12351725 -0.46405657335040884 0.8861813262667696
12354246 -0.46300490864824595 0.8866694605855512
12356767 -0.4630264580115945 0.886763400162415
12359288 -0.46363386930280154 0.8870333297568757
12361808 -0.4623024439609515 0.8864792995545983
12364329 -0.46231867262417103 0.8872859889973264
12366850 -0.4626736276078537 0.8871432231232945
12369371 -0.46263250222207347 0.8867418757797649
12371891 -0.462091879325162 0.88696753366139
12374412 -0.4623303430239712 0.8870821479402868
12376933 -0.46268199646061964 0.8871650413729014
12379454 -0.46203404031238704 0.8880917345529108
12381975 -0.46166956568188044 0.8881236456436459
12384495 -0.4618047073277176 0.8871258075441272
12387016 -0.4609418107491916 0.8873345442241466
12389537 -0.4603832668600039 0.8874845034062356
12392058 -0.46120899080205857 0.887548275633386
12394578 -0.4608940242582979 0.8883852140643523
12397099 -0.46042471229665893 0.8891072650455745
12399620 -0.4606375872002245 0.8890434235697559
12402141 -0.46066146341696884 0.8887321390915031
12404662 -0.4598239058163989 0.8890107874888342
12407182 -0.4603863527930018 0.8879391567088077
12409703 -0.4601719441575063 0.8882850915415228
12412224 -0.459353674414493 0.8891996980794081
12414745 -0.45911389398802543 0.8894000630399569
12417265 -0.45981498615864436 0.8894338920684143
12419786 -0.45953306941955624 0.8896150759829881
12422307 -0.45918418975118164 0.8893003886587137
12424828 -0.45922417453003284 0.8893400361604781
12427349 -0.45934177324135117 0.8894208178652229
12429869 -0.45833090393233455 0.8894372028181128
12432390 -0.45844127536986923 0.8895422018259911
12434911 -0.45907919453986173 0.8892337116892784
12437432 -0.4578426752366025 0.8893184036962681
12439953 -0.45788452207490205 0.8893515215394947
12439953 -0.4580401817268092 0.8892404034147822
12442525 -0.4577528199414993 0.8892886675411674
12445098 -0.45774368736023846 0.8895225116471409
12447671 -0.45704859341067355 0.8901656399015965
12450244 -0.45653653907913355 0.8905020819787319
12452817 -0.45712527795022123 0.8902742523351377
12455390 -0.4570307619213955 0.8906549296824106
12457963 -0.4564822357501384 0.8911773492792795
12460536 -0.4561768627628716 0.8907353131974691
12463109 -0.4569666842197558 0.8904491804293712
12465682 -0.4566553583437219 0.8913593231192553
12468255 -0.45575459059078005 0.8911001970364605
12470828 -0.4559287224327233 0.8910877886027823
12473400 -0.4562887660922742 0.8913153418889224
12475973 -0.4559456593621517 0.8919820025384005
12478546 -0.45535005436830733 0.8917359036540232
12481119 -0.4548642653524028 0.8917474852615049
12483692 -0.45539278937582384 0.8915593029034021
12486265 -0.45506755296680285 0.8915213955170622
12488838 -0.4541867981518924 0.8918916297480861
12491411 -0.4541610373819092 0.8919757196924945
12493984 -0.45419297813991516 0.8915865305024961
12496557 -0.45452076869075775 0.8921161738756289
12499130 -0.4539073833843863 0.8925613146731666
12501703 -0.4533607501447959 0.8926093408688291
12504276 -0.4537501697325907 0.8923544729092012
12506848 -0.4536350079098425 0.8925555191746052
12509421 -0.45294367226163845 0.8925994440206105
12511994 -0.45269839080727303 0.8922779265064281
12514567 -0.453185194955198 0.8923440508905582
12517140 -0.45265103354746594 0.8923554178656006
12519713 -0.45224608349925893 0.8925443388699611
12522286 -0.45223614297182396 0.8922824978253671
12524859 -0.4522671419851628 0.8925265898708443
12527432 -0.45205341624341266 0.8930020239362354
12530005 -0.4514754797753926 0.8932438375944926
12532578 -0.45124184005919854 0.8931877112145614
12535151 -0.45169947302521296 0.8925073355612032
12537723 -0.45202115211794874 0.893262401137988
12540296 -0.4508704231724533 0.8937733583387674
12542869 -0.4504182897557181 0.8941414615383478
12545442 -0.45121451313038446 0.8942615897069537
12548015 -0.45054331388364216 0.8946504876526769
12550588 -0.44972368152170183 0.8941668079103464
12553161 -0.44955536339271435 0.8935475681335533
12555734 -0.4506208343897878 0.8938943179382541
12558307 -0.449788064014061 0.8943375226078334
12560880 -0.44926287740904197 0.8944187146528497
12563453 -0.4493433445005034 0.8945345451473098
12566026 -0.44958072784317316 0.8943100191553669
12568599 -0.4499330641273904 0.8944462642864848
12571171 -0.44942959735500193 0.8946012978501415
12573744 -0.4487905851663417 0.8944346012337598
12576317 -0.4489126446876961 0.8941863598306439
12578890 -0.4492762667303799 0.895183002420848
12581463 -0.4485836933124017 0.8954277859624166
12584036 -0.44836472722501824 0.8954021599092639
12586609 -0.4487684883395572 0.8955211751829674
12589182 -0.44919286932550684 0.8966495400882888
12591755 -0.4480128844843042 0.896386066774292
12594328 -0.4475362308009324 0.8957981400739925
12596901 -0.44784516667808333 0.8950363196583567
12599474 -0.44784778477129794 0.8952803929574906
12602046 -0.4469526605413467 0.8952388738877038
12604619 -0.44667124656592416 0.8956876089922966
12607192 -0.44668718031589594 0.895978392570095
12609765 -0.4469424695941628 0.8959936246149819
12612338 -0.4466747914317841 0.896162234292531
12614911 -0.44554854187559934 0.8961899743018368
12617484 -0.4458674089252026 0.8961165134636867
12620057 -0.4460112723057663 0.8962018556373138
12622630 -0.44572999746425074 0.8969629229190426
12625203 -0.4444530736948228 0.8975821437912715
12627776 -0.4448605878420223 0.8971893187270412
12630349 -0.445059925064399 0.8974129147160331
12632922 -0.4445717037898099 0.8982260579124034
12635494 -0.4441288911557949 0.8980241135435666
12638067 -0.4447285097767976 0.8978800626724474
12640640 -0.4448343791003084 0.8975420077642261
12643213 -0.44510519215665184 0.8975473075432602
12645786 -0.4441283948937272 0.898087340968618
12648359 -0.4440490944122339 0.8985148980504312
12650932 -0.443778088880795 0.8985296903270307
12653505 -0.443574085866266 0.8993241537050897
12656078 -0.4431007830144556 0.8987164881137526
12658651 -0.44246397942539795 0.898156610781854
12661224 -0.44345586452366076 0.8983261218033621
12663797 -0.44330204737960405 0.8987785659585675
12666369 -0.442536116513411 0.8983887087541813
12668942 -0.44235496421662046 0.8983296930417949
12671515 -0.4420748921157494 0.8986832141797689
12674088 -0.4421302994135776 0.8994312649814209
12676661 -0.44169488106939203 0.8991191502212583
12679234 -0.44100789221034264 0.8990634593006788
12681807 -0.44126031807593696 0.8998179699370896
12684380 -0.4412783425063548 0.8995934631305832
12686953 -0.4412411169943299 0.8996724259841095
12689526 -0.44027905209942797 0.8999658788199166
12692099 -0.4405676281726933 0.8992062811782953
12694672 -0.4408539550785004 0.8994314099311058
12697245 -0.44063353377870706 0.8996028454059817
12697245 -0.4405376802703405 0.8994956577849613
12699871 -0.440153169444356 0.8994475333250967
12702497 -0.4405043358933787 0.900183767142164
12705123 -0.4399092831555769 0.8998769316612318
12707749 -0.4393502986830058 0.8994321305620556
12710375 -0.4397507494383551 0.8994104882423306
12713001 -0.44013027822136125 0.8995870766307684
12715627 -0.4391248037418153 0.9001577533082518
12718254 -0.43938014310343854 0.8999499807850209
12720880 -0.4389045285576734 0.9003823678879348
12723506 -0.43833592695574936 0.9005712863137625
12726132 -0.4383591603215595 0.9005791006685467
12728758 -0.43820297352289184 0.9008789139998981
12731384 -0.4383832873559541 0.9012011543070313
12734010 -0.4385167354901052 0.9012075210136188
12736636 -0.43817540245822445 0.9013876235463364
12739263 -0.4381728583210462 0.9010041208307377
12741889 -0.4369942879785293 0.9008695157474564
12744515 -0.4373121363770097 0.9013035215265652
12747141 -0.43729825859304 0.9017170582231168
12749767 -0.43731223936644953 0.9016109842342324
12752393 -0.4370675700107197 0.9016258182114899
12755019 -0.43693142583554473 0.9014067077865561
12757645 -0.4360408328613645 0.9014644918076139
12760272 -0.4360108361373247 0.9018238762227154
12762898 -0.43624098845615994 0.9021919168633283
12765524 -0.4360017778813477 0.9022985429572431
12768150 -0.4359530305396321 0.9026647435259177
12770776 -0.43578272394125267 0.9024200823639819
12773402 -0.4360143076176924 0.9019259719353978
12776028 -0.43508724675202354 0.9019609716853156
12778655 -0.43507364873084203 0.9024235895242716
12781281 -0.4352545683374698 0.9027406314696756
12783907 -0.43554589848070346 0.9029885068650362
12786533 -0.43489883519178846 0.9031283643498634
12789159 -0.4341077358741932 0.9028209622201541
12791785 -0.4334585706963848 0.902869849051092
12794411 -0.4336472033640632 0.9025446894480603
12797037 -0.4337824828738742 0.9034099540431598
12799664 -0.4332769315928561 0.9025218643127945
12802290 -0.433623298956171 0.9032871519616361
12804916 -0.433454581466809 0.9032668803534281
12807542 -0.4333486690635805 0.9030296065746106
12810168 -0.43335091741097614 0.9031677906205366
12812794 -0.43351858422082756 0.9038195517045778
12815420 -0.43355750958355893 0.9038818324537253
12818046 -0.4326008571345029 0.9040754904091983
12820673 -0.43249321741127483 0.9037846941753169
12823299 -0.4315259739755039 0.9035690113562799
12825925 -0.4318730011424887 0.9037535313343367
12828551 -0.43179812303132437 0.9039789695335269
12831177 -0.43153861225727946 0.9046012062285407
12833803 -0.4310727873405926 0.9041007910621933
12836429 -0.4311243521779138 0.9043745808121011
12839056 -0.43106925275222774 0.9045709653050916
12841682 -0.43088590283675016 0.9047673854394762
12844308 -0.43112486017055235 0.9049912822990949
12846934 -0.4309801790552176 0.9050477407092027
12849560 -0.4298042615408829 0.904556305779811
12852186 -0.43005185035437626 0.9040798783766186
12854812 -0.4300616786806758 0.9050071366203174
12857438 -0.4296221102001648 0.9055396068145617
12860065 -0.42994615151253723 0.9051570155527537
12862691 -0.4296235775444289 0.9050647526216571
12865317 -0.4292961533710085 0.9053525865022098
12867943 -0.429323617616552 0.9053482867132443
12870569 -0.4294533025137973 0.9058175623992482
12873195 -0.4291476046393891 0.9057865180634466
12875821 -0.4287718040040419 0.9053394148309054
12878447 -0.42891892063832293 0.9057070793959278
12881074 -0.4280387424114942 0.9059314194896744
12883700 -0.42780899364547564 0.9058484978393082
12886326 -0.4276219829900706 0.9060109911952475
12888952 -0.42758679995331117 0.9063659714577297
12891578 -0.42697676195434314 0.9055297705552275
12894204 -0.42670091770512836 0.9056852535146344
12896830 -0.42750829943280094 0.9057481445557062
12899457 -0.4277436945834066 0.9064856034074759
12902083 -0.42726538114568424 0.9065133129781523
12904709 -0.4272850150251844 0.9057918510835923
12907335 -0.42718556940376556 0.9065600609045978
12909961 -0.4262968363196861 0.9064408929669279
12912587 -0.4256446333803378 0.9064946237896354
12915213 -0.4260107242073443 0.9065605615433783
12917839 -0.4256286083727342 0.9065601108942394
12920466 -0.42529555445606143 0.907031537116475
12923092 -0.4248697457723007 0.9071996440481209
12925718 -0.4252860434185465 0.9075365369505224
12928344 -0.42509242505945594 0.9075461800496931
12930970 -0.4254620147516394 0.9066142077172789
12933596 -0.42515330909446664 0.9075234428363655
12936222 -0.4245238488756106 0.9080431785800294
12938848 -0.4245844173976896 0.9080616573926588
12941475 -0.4247220794999484 0.9082729135576005
12944101 -0.42449020020935657 0.9086667152448472
12946727 -0.42383269102614374 0.9080090177256649
12949353 -0.42358825099688524 0.9080465817208606
12951979 -0.4236321524354144 0.9080622963461151
12954605 -0.42307102838906663 0.9082973349672931
12957231 -0.4234274718605792 0.9081471028327291
12959858 -0.42299038777789355 0.9082991782623823
12959858 -0.4226699392421306 0.9085251322680087
12962538 -0.422443333686386 0.9093311358859683
12965218 -0.4220228983213564 0.9097555247368737
12967899 -0.42162978871083395 0.9096333275283692
12970579 -0.4221854248435981 0.9095436579480278
12973260 -0.42198251286785426 0.9091470399000701
12975940 -0.42198314645972823 0.9087844949941069
12978621 -0.4219178478104688 0.9082143477511025
12981301 -0.42187231253960134 0.9083655222391405
12983982 -0.42142706423223486 0.9085065002991873
12986662 -0.4213395015464233 0.9092533792215114
12989342 -0.4215060667685499 0.9099674527689017
12992023 -0.4215357600165528 0.9102698982097948
12994703 -0.4207702467043475 0.910286176737168
12997384 -0.42075068284055395 0.9097724805077976
13000064 -0.4209203283188731 0.9092370292027494
13002745 -0.42007284279812884 0.9098513374640853
13005425 -0.4197035242303622 0.909686670382931
13008106 -0.4195297135727986 0.9093807650259736
13010786 -0.4193719036297806 0.9098965080113334
13013467 -0.41913082770031385 0.909542830271991
13016147 -0.419685397561595 0.9095531433591776
13018827 -0.41958000181405114 0.9099333900360882
13021508 -0.4191810773427967 0.9101647845951796
13024188 -0.4190290582334296 0.9104013172194295
13026869 -0.41876428684451167 0.9106331191426655
13029549 -0.41925302457114316 0.910562969835678
13032230 -0.4184483515506546 0.9102454399718697
13034910 -0.41842492381674157 0.9096220106041591
13037591 -0.418777505593908 0.9105085601153815
13040271 -0.4179632958923067 0.9104789384250305
13042951 -0.4182232246439404 0.9109716361046316
13045632 -0.4178558002578243 0.9109515638777554
13048312 -0.4176165431690109 0.9115290493838503
13050993 -0.41760443561477917 0.9113491504142822
13053673 -0.4168606320380339 0.9113811816891212
13056354 -0.4171092248984429 0.9110396070477871
13059034 -0.41694072841503826 0.9116432727579901
13061715 -0.41616427441623477 0.910775830611461
13064395 -0.41601737357937363 0.9116600859315468
13067076 -0.41565041584755263 0.9126844826961806
13069756 -0.41522976176590876 0.9131775357325964
13072436 -0.41579493636621057 0.912664710718896
13075117 -0.4157552029014601 0.9123399383584695
13077797 -0.41535160857182196 0.9122698450655736
13080478 -0.4153403328942763 0.912064142313858
13083158 -0.41503298398878075 0.9116909454164334
13085839 -0.4143862527086889 0.9119500175943318
13088519 -0.41396368948136214 0.9123250897055292
13091200 -0.41441548481300367 0.9126759515472618
13093880 -0.4144564520285488 0.9131183643976554
13096560 -0.4132718033207167 0.9132910312850552
13099241 -0.41370565041593027 0.9128402203966665
13101921 -0.4142935439790148 0.9121488985006941
13104602 -0.41379501542846 0.912884740870717
13107282 -0.41302283506622167 0.912319744373642
13109963 -0.41254683788949753 0.9137295438844045
13112643 -0.41266324271780275 0.9134183458065314
13115324 -0.41264522395236564 0.9137471194770838
13118004 -0.4126565316860037 0.9132098675402626
13120685 -0.41287941176720805 0.9134790877180464
13123365 -0.4129241816261572 0.9129202734676464
13126045 -0.4123711749193488 0.9134321150238207
13128726 -0.4123733586373773 0.9138246141470557
13131406 -0.4123448341457805 0.9141816472587045
13134087 -0.4120679821718077 0.9138066576672558
13136767 -0.4119894637362912 0.9138649011146794
13139448 -0.41144353697417285 0.9138605305793781
13142128 -0.41190534375990906 0.913723145533719
13144809 -0.41160409222612065 0.9140226494782938
13147489 -0.4113039727118095 0.9140938447258542
13150169 -0.41070364861055336 0.9147322796982398
13152850 -0.41055669363962005 0.914603056432985
13155530 -0.41022383585036315 0.9144734050414349
13158211 -0.41021736480115906 0.9148412122997064
13160891 -0.410485653728296 0.9149269093474589
13163572 -0.41005310985702786 0.9146928043826955
13166252 -0.4102565275130602 0.9151138403037773
13168933 -0.40914688251884607 0.915427389876431
13171613 -0.4081835273679458 0.9155744065923436
13174294 -0.4082956293503351 0.9151198352690884
13176974 -0.408393852762937 0.9152721153529927
13179654 -0.408420384994971 0.9155638943763553
13182335 -0.4081047387405358 0.9154620850450348
13185015 -0.4088722798682802 0.9154597710726009
13187696 -0.4083677318960843 0.9153834342972196
13190376 -0.4077507995997949 0.9159377336570563
13193057 -0.4073598636620387 0.9158162865967198
13195737 -0.4077266014880464 0.9159847358449502
13198418 -0.40763876517463 0.9158987430966672
13201098 -0.40732863598148233 0.9158296085222806
13203778 -0.4076333266286829 0.9150948911268023
13206459 -0.407665762983073 0.9150685366293309
13209139 -0.407279432698225 0.9158304289249578
13211820 -0.4064799650149967 0.9161088095536182
13214500 -0.40686834209745354 0.9164463000258543
13217181 -0.40673095386594393 0.9166556286332276
13219861 -0.4059690060177167 0.9169810089730465
13222542 -0.4064649357914953 0.9164403186644411
13225222 -0.4065161660548071 0.9161372071060404
13227903 -0.4057570592621665 0.9168074067792111
13227903 -0.40498701890410627 0.9165607104957559
13230638 -0.4054671370279673 0.9162607869523643
13233374 -0.4055308062779405 0.9166705646917652
13236110 -0.4057441402632916 0.9164126954547607
13238846 -0.40565605019610335 0.9168128177351074
13241582 -0.40578192049895734 0.9166310558579894
13244318 -0.4049345959289865 0.916772384561433
13247054 -0.4044286882454713 0.9172212213807479
13249790 -0.4039404893357369 0.9177052858482699
13252526 -0.4035148791987992 0.9178166004074834
13255261 -0.40317459359678837 0.9177408383522954
13257997 -0.40288448397411175 0.9175214236046204
13260733 -0.40314880406607717 0.9176536674092862
13263469 -0.4029970488038369 0.9173248947486934
13266205 -0.4028610907804304 0.9177275843136378
13268941 -0.4029429466176902 0.9174842197070695
13271677 -0.4031866233954553 0.9180586158736185
13274413 -0.40248436077626437 0.9177992983882274
13277149 -0.4024328374785504 0.9177296326141537
13279884 -0.40255550022985187 0.916703870670947
13282620 -0.4023335658812563 0.9172387190079374
13285356 -0.4017392036059197 0.9178249099829998
13288092 -0.4013861483738194 0.9177758514223724
13290828 -0.4012662560003315 0.9182904566089434
13293564 -0.4009031433647917 0.9181886422565608
13296300 -0.4008566867875841 0.9179754452023832
13299036 -0.40071698557189556 0.9176708196316027
13301772 -0.4010591943243737 0.9176396260858632
13304507 -0.40040253231191836 0.9181472613769632
13307243 -0.40033991432909205 0.9184189342090887
13309979 -0.40055525250023577 0.9186993246320567
13312715 -0.4004257327805103 0.9189282545758323
13315451 -0.400066456639636 0.9188765020264119
13318187 -0.40005548861756735 0.9194393431007258
13320923 -0.39997996791765006 0.9192499418959189
13323659 -0.4000490622058627 0.919430440563969
13326395 -0.39992275280055617 0.9198259395536231
13329130 -0.3993217297157317 0.9201854841307285
13331866 -0.39890157461645304 0.9196604816192746
13334602 -0.398351274331066 0.919836249601532
13337338 -0.39807997057628947 0.9196662752280367
13340074 -0.3978445784738101 0.9198189324442275
13342810 -0.3977172210006795 0.9203786148212273
13345546 -0.39795039696446644 0.9204419320415215
13348282 -0.3973068818546344 0.9204098615946922
13351018 -0.39789932419640245 0.920087278570812
13353753 -0.3984667864948152 0.9207721282725434
13356489 -0.3981447910477268 0.920740167805668
13359225 -0.3974066827877768 0.9204156203712117
13361961 -0.3977819754651559 0.9202120757507578
13364697 -0.39766063450660055 0.9207326876960286
13367433 -0.39671727899309067 0.9206130803988326
13370169 -0.39610348446571164 0.9203559069348725
13372905 -0.3964832683666644 0.9208575624704249
13375641 -0.39616748225587606 0.9210780694065412
13378376 -0.3956082904679065 0.9213788509700712
13381112 -0.39536099702153804 0.9208783137259187
13383848 -0.39540718019821514 0.9215146604618649
13386584 -0.3955308592570883 0.9215269682905038
13389320 -0.39537994134475096 0.9214683404333143
13392056 -0.39516231100787813 0.9204684583194799
13394792 -0.39473781657293444 0.921103967170977
13397528 -0.394365718051343 0.9218584561154544
13400264 -0.3941015555879466 0.9218651025825912
13402999 -0.39427568391499174 0.9211938354879428
13405735 -0.39438096795167327 0.9211997044984598
13408471 -0.39397855505972174 0.9214588161262576
13411207 -0.39367672970601725 0.921470156095335
13413943 -0.39334048066680966 0.9218473703357981
13416679 -0.39403422556823464 0.9228294883445985
13419415 -0.3935337829535894 0.9233807398622443
13422151 -0.393584531475855 0.9233235604048693
13424887 -0.39305057876567173 0.9227317495211792
13427622 -0.39266038489187544 0.9221721094768912
13430358 -0.3921231468725073 0.9219172765060138
13433094 -0.3919703238027331 0.9222532318755494
13435830 -0.3921767392865297 0.9224316724412525
13438566 -0.3927969845943838 0.9231245166347424
13441302 -0.39222942767700913 0.9232741339818658
13444038 -0.3917658724482505 0.9234385894377839
13446774 -0.3911397948753087 0.9233013088329427
13449510 -0.3909060449221759 0.9231767368843549
13452245 -0.39079301200112326 0.9232582763723094
13454981 -0.3909641494314815 0.9235280970294729
13457717 -0.3915175974323358 0.923388808595717
13460453 -0.39104910344992055 0.9236653656535494
13463189 -0.39021362435042917 0.9236415506217733
13465925 -0.3898736398803931 0.9233931889784365
13468661 -0.38966185604276665 0.923585416621377
13471397 -0.3897481464003757 0.9241102725312139
13474133 -0.39009234152125905 0.9237305976732395
13476868 -0.38984998104310803 0.9242471586641584
13479604 -0.39003984167890937 0.9243539278375913
13482340 -0.38932617719261364 0.9243619760250154
13485076 -0.3888597654905642 0.9246806948206727
13487812 -0.38881869538917596 0.9242893678536762
13490548 -0.38915644595372095 0.9248349691073156
13493284 -0.38945563895661656 0.924991387880735
13496020 -0.3889154324502827 0.924546128517486
13498756 -0.3891576584777007 0.9244815107245982
13501492 -0.3886664811938894 0.9246425588676705
13501492 -0.38805421195644013 0.924457523432144
13504284 -0.3884264998370293 0.9243602186187236
13507076 -0.3878444023680846 0.9244347624436345
13509869 -0.38808738678009824 0.9247189715807076
13512661 -0.3882758909911579 0.9248164579147424
13515454 -0.38767110357379264 0.9247768862722471
13518246 -0.3880079876581741 0.9252276888574001
13521039 -0.3868189538945857 0.9255211317451727
13523831 -0.3863666805144455 0.9256399309920879
13526624 -0.38652154955369805 0.9254491409641028
13529416 -0.3858422794117588 0.9259793224492501
13532209 -0.38596389488229493 0.9267417011098662
13535001 -0.3859103931028798 0.9265246729259272
13537794 -0.3856700685908023 0.9261661414827278
13540586 -0.3849602549853586 0.9262736042537526
13543379 -0.385031415971477 0.9262806271436331
13546171 -0.38496657373877424 0.9261399857846053
13548963 -0.3851982188274813 0.9257290654149296
13551756 -0.3848561014689159 0.926241374431421
13554548 -0.38476455561197825 0.9262725323590074
13557341 -0.3841804021688325 0.9262728528088663
13560133 -0.3837173847821246 0.9265826007868935
13562926 -0.3839113961257482 0.926800824735563
13565718 -0.3833708100129368 0.9269957535513722
13568511 -0.38375047480666147 0.9271600197328203
13571303 -0.3833431225980417 0.9268744798895012
13574096 -0.3835204002128649 0.9274106408128545
13576888 -0.3838048889177349 0.9276353719296133
13579681 -0.38316458927344615 0.9275156579524519
13582473 -0.3831584604057906 0.9272568149392773
13585266 -0.3830653131832186 0.9273000891543314
13588058 -0.3826998481546159 0.9269215579754578
13590851 -0.3824411808584524 0.9272883716334225
13593643 -0.38230888056081225 0.9272225596881474
13596435 -0.3821512182245592 0.9280419121907387
13599228 -0.38172467632161355 0.9281958393023041
13602020 -0.3818066923700397 0.9277259578581811
13604813 -0.3814563568010527 0.9281495965520947
13607605 -0.3809863334267783 0.9281929331214673
13610398 -0.38120637429052506 0.9282738036537249
13613190 -0.38098404115652623 0.9279526576656154
13615983 -0.3814156624128405 0.9281516090622691
13618775 -0.3811373118217081 0.9285524472118792
13621568 -0.3809170050352506 0.9282895117493489
13624360 -0.38038911504652223 0.9282430816249014
13627153 -0.380014053744801 0.9280973907744801
13629945 -0.3791190739317008 0.9278294588175962
13632738 -0.37895756148512977 0.9280736652083915
13635530 -0.3785665008740717 0.9283602661012281
13638323 -0.37862290406500465 0.9282667475465881
13641115 -0.3788128533232479 0.9281853388466484
13643907 -0.37866405646577966 0.9288229158248081
13646700 -0.3788539947576056 0.9290669396104412
13649492 -0.37891740581924627 0.9284438083738739
13652285 -0.37900056405453364 0.9287287506573667
13655077 -0.37840553813570654 0.9287373303138238
13657870 -0.3780523558802721 0.9290120148064627
13660662 -0.37847518715405043 0.9295427595806541
13663455 -0.37814772955303216 0.9294504952741331
13666247 -0.3778154250224556 0.9292152416415417
13669040 -0.37779882145625276 0.9291425807830093
13671832 -0.3774443120162063 0.929054688090121
13674625 -0.37755084215037116 0.9290566337391651
13677417 -0.37728014986641656 0.9294294766483866
13680210 -0.3769280315897003 0.9294297670843721
13683002 -0.37704432096258766 0.9297329879703756
13685795 -0.37666417047667794 0.9299108199412168
13688587 -0.3764622715744297 0.9303785807316701
13691379 -0.376326772099649 0.9299995680639711
13694172 -0.3766138109778242 0.9301591152807096
13696964 -0.3761967516629381 0.9300122775621993
13699757 -0.3758836813332501 0.9303426006684563
13702549 -0.3758661128514134 0.9299800301833205
13705342 -0.37535204614259987 0.9297111042458213
13708134 -0.3748457814135241 0.9301318930806316
13710927 -0.3754391118016561 0.9298527985227336
13713719 -0.3749371628403209 0.9303453448634132
13716512 -0.37498983388734114 0.9297844866387556
13719304 -0.3751570212244893 0.930417734450342
13722097 -0.3743101528735817 0.9305658892660339
13724889 -0.3744963978623174 0.9306005733246163
13727682 -0.3747303263834952 0.9303050400156022
13730474 -0.3744962068911513 0.9311059777463927
13733267 -0.3741072203784326 0.931031817121659
13736059 -0.37364567182039243 0.9308968517240735
13738851 -0.3738030624941887 0.931183816341579
13741644 -0.3728505308689792 0.9317012650537482
13744436 -0.37234840795699337 0.9311088423130686
13747229 -0.37238168702015306 0.9311481983984199
13750021 -0.37218038632788225 0.9311766256482729
13752814 -0.3725958712343603 0.9314842441506948
13755606 -0.3720271230050537 0.9315474568431463
13758399 -0.372172371874932 0.9315531846769415
13761191 -0.3717613673103226 0.9311318784858938
13763984 -0.37176674757492734 0.9309251201352877
13766776 -0.371126757602922 0.9312548934979858
13769569 -0.37124555294286127 0.9317334693006651
13772361 -0.3711013274374635 0.931599486726171
13775154 -0.37085583077162365 0.9317027577414727
13777946 -0.37064463521425195 0.9314442099233459
13780739 -0.3707490036066263 0.9320760288176493
13780739 -0.3701730937207102 0.9317457563045058
13783589 -0.3705157253258408 0.9325027894113718
13786439 -0.3703425088930178 0.9321920434583425
13789289 -0.3699955179155545 0.9325726915552879
13792139 -0.36975210660368024 0.9329765979407529
13794990 -0.36953912767424735 0.9329080831177679
13797840 -0.3691547028973522 0.9329244095247218
13800690 -0.36884868918036756 0.9329505909195436
13803540 -0.3686636175286355 0.9328114629717505
13806391 -0.3683044063598926 0.9330962016419447
13809241 -0.3690143448593052 0.9329613930336249
13812091 -0.36792173796279454 0.9332798117758964
13814941 -0.3683458591396224 0.9326193304587723
13817791 -0.36780499601700584 0.9333522325679727
13820642 -0.36724917266103163 0.9330735727282955
13823492 -0.3675484070010707 0.9334892065456143
13826342 -0.36724031677303853 0.9333459884801654
13829192 -0.36742747381988694 0.9331065677879049
13832043 -0.36762968508744415 0.9333689342211017
13834893 -0.3679920068434873 0.933214680910693
13837743 -0.36730083920109396 0.9336850489108481
13840593 -0.3671542954822472 0.9338533372494785
13843444 -0.3667540035984749 0.9344132352044339
13846294 -0.3666613826602651 0.9343371309697941
13849144 -0.36629668297237294 0.934660205758032
13851994 -0.365704299995455 0.9342690837852119
13854844 -0.36571603271342584 0.9341085538415582
13857695 -0.3657905730648386 0.9342639133746399
13860545 -0.36561110952060993 0.934318827064156
13863395 -0.3643234892397762 0.9344767598324872
13866245 -0.36447184266110133 0.9345352395603282
13869096 -0.364673573095709 0.9345848368575327
13871946 -0.36381312116473313 0.9347705070820725
13874796 -0.3639375352978066 0.9352834077957599
13877646 -0.3638678587073397 0.9349293375856524
13880497 -0.36360234015107634 0.934463725697734
13883347 -0.36404644798834657 0.9349226257744311
13886197 -0.3638606366062712 0.9347863438701451
13889047 -0.3637145016063376 0.9351581898042097
13891897 -0.36389873430676895 0.9344557321896234
13894748 -0.3634273349771916 0.934868182386313
13897598 -0.36294395064911933 0.9344323284016386
13900448 -0.36258465484336994 0.9344084993178655
13903298 -0.36272147573542657 0.9345746690045489
13906149 -0.3626539323127319 0.9349975813107827
13908999 -0.36236264611336977 0.9353579143078993
13911849 -0.36248471823030337 0.9351057391161237
13914699 -0.36160735378819125 0.9357077175012826
13917550 -0.3614426397322756 0.9356692586825478
13920400 -0.36118528935804134 0.9361673941669001
13923250 -0.3607914551466279 0.9361237938307632
13926100 -0.3607068042219148 0.9364699823251446
13928950 -0.3608160375073942 0.9362928579146369
13931801 -0.3601849670494288 0.9370895331838753
13934651 -0.3597167718267807 0.9369357806796625
13937501 -0.36010732368997533 0.9367663208008965
13940351 -0.3598502813393133 0.9365558956553528
13943202 -0.36004648540118483 0.9365695913171156
13946052 -0.35973335611854246 0.9363886873388539
13948902 -0.35956340335297376 0.9361508250267788
13951752 -0.3594695958070892 0.9360532488189196
13954603 -0.35954446543213764 0.9365279595496793
13957453 -0.35937364348919587 0.9369655813969029
13960303 -0.35906192305362994 0.9368262941168172
13963153 -0.358869457914813 0.9367777742950192
13966003 -0.35793467051028116 0.9369835801507276
13968854 -0.35800194529566104 0.9369551673939529
13971704 -0.35828513356626857 0.9366061743222898
13974554 -0.3578769065496236 0.936522642108034
13977404 -0.35789341132880237 0.9369157734056596
13980255 -0.3573744382261217 0.9371525792747618
13983105 -0.3567776778577326 0.9372167930231925
13985955 -0.3568612467666244 0.9370929916777075
13988805 -0.3566909783781202 0.9376233844532365
13991656 -0.35584736708628 0.9376852348847584
13994506 -0.35551301029756627 0.9378573813189837
13997356 -0.3560303234083722 0.9374791997437004
14000206 -0.35594607030454917 0.9375411662555171
14003056 -0.3561896821326598 0.9381183065784603
14005907 -0.3563953817827101 0.9383350116529469
14008757 -0.3562473976845777 0.9387487824015346
14011607 -0.3563934877472034 0.9383983542005041
14014457 -0.35594410762783946 0.9383043544836027
14017308 -0.3551056746609926 0.938540952480384
14020158 -0.35478999179897924 0.9381706410255494
14023008 -0.35441998168814864 0.9379015756831554
14025858 -0.3546343445582263 0.93814695283953
14028709 -0.35384343712118066 0.9387282789954281
14031559 -0.3532808316404964 0.9389533767403596
14034409 -0.3532882526348994 0.9390628137701931
14037259 -0.35315144400592785 0.939574796683029
14040109 -0.35283414655484935 0.939336714454327
14042960 -0.35213032666364924 0.9397075832963389
14045810 -0.3520561278261761 0.9388357339458457
14048660 -0.352226785263527 0.9393752187547943
14051510 -0.35280035198982723 0.9393569801474455
14054361 -0.3527545298922699 0.9391884058180631
14057211 -0.3533880213648866 0.9395642230748869
14060061 -0.35278256607496405 0.9394186752597437
14062911 -0.35270624485558416 0.9392878465994147
14065762 -0.35188209736966325 0.939993126621089
14065762 -0.3519999347288604 0.9401440974742651
14068671 -0.3519080221043589 0.940241287643763
14071580 -0.35082734101109336 0.940393394693185
14074489 -0.3517243846934797 0.9398957695418729
14077398 -0.35179096068143506 0.9400604278267256
14080307 -0.3509675409423854 0.9398767633769094
14083217 -0.3503730920775399 0.9401291892943736
14086126 -0.34951446952468923 0.9399995306710075
14089035 -0.35005512547288986 0.9400817522654425
14091944 -0.3502439818125662 0.9400712340867629
14094853 -0.350495886870505 0.9398746885980791
14097762 -0.35026243075542235 0.9398878578617609
14100672 -0.3495640118000417 0.9394023369595502
14103581 -0.3491753661384523 0.9399304336012447
14106490 -0.3487471121841748 0.9397931882408345
14109399 -0.34791796985359225 0.9402775361251163
14112308 -0.3477634538342319 0.9407994832872716
14115218 -0.34852901389040936 0.9400946661175229
14118127 -0.3483156993661877 0.9409846217750195
14121036 -0.34792263604727885 0.9408403251916205
14123945 -0.34713563082420235 0.9406223732390637
14126854 -0.3476366175805941 0.940435106242058
14129763 -0.3469388546807948 0.9407995957351798
14132673 -0.347563330560881 0.9408510041220317
14135582 -0.3476024883416648 0.9404197530828989
14138491 -0.3468788308754826 0.9398130158156862
14141400 -0.3463445963509665 0.9404677441740595
14144309 -0.34585432171912683 0.9404324316331641
14147219 -0.3458157781176699 0.9409938106503687
14150128 -0.3459451829251851 0.9413656930754635
14153037 -0.34615303316128454 0.9407244903105754
14155946 -0.34537275967337633 0.9407193668135326
14158855 -0.3449704108702874 0.9412194401612164
14161764 -0.3452141828289864 0.94171312962069
14164674 -0.34482103998435576 0.9417570251049643
14167583 -0.3448694562894075 0.9424075252209215
14170492 -0.34502075825502626 0.942244618108302
14173401 -0.34538327915098244 0.9418034203381004
14176310 -0.34473764981486693 0.9423162169758684
14179220 -0.3441026136207536 0.942210045220628
14182129 -0.34366481830126944 0.9426015747222315
14185038 -0.34387188696997256 0.942783622070092
14187947 -0.34452066657764513 0.942247563466862
14190856 -0.34424254897029416 0.9422914553458561
14193765 -0.34400751941145186 0.9428155181291324
14196675 -0.3437235682812463 0.942587702543917
14199584 -0.34383227354124407 0.9426546499909486
14202493 -0.3428334507612958 0.9430146917018245
14205402 -0.34293502357662853 0.9422162686642639
14208311 -0.3414688640347859 0.9427319498607524
14211221 -0.341910901431227 0.9427974349239291
14214130 -0.341572883191977 0.9436259737932619
14217039 -0.34148032468144923 0.9434018494232204
14219948 -0.34164703169576993 0.9437754183113299
14222857 -0.3422893565605716 0.9434486772826381
14225766 -0.3416712988346008 0.943380867176128
14228676 -0.3414165975872784 0.9439878410542102
14231585 -0.3413808851502651 0.9435118155897734
14234494 -0.34063711739454244 0.9438184355112388
14237403 -0.3407358036019838 0.9435934510148549
14240312 -0.34019039139086227 0.9440795641082261
14243221 -0.34020362214980165 0.9442324366777364
14246131 -0.34044103403946685 0.943880490435969
14249040 -0.34048990408934326 0.9439680025050702
14251949 -0.3398482277903571 0.9440017618590537
14254858 -0.33990588879278943 0.9441171853462009
14257767 -0.33932941326266824 0.9442395721251888
14260677 -0.33927439873617193 0.944398135777577
14263586 -0.33909860017749194 0.9443096792955508
14266495 -0.3393640385534774 0.9446747974671096
14269404 -0.33916392250182437 0.9444001974466394
14272313 -0.3391257941749024 0.9445159281305519
14275222 -0.3387351324990535 0.9444469930951094
14278132 -0.3380651918392055 0.9448065520918805
14281041 -0.33775337655364085 0.9443225688363173
14283950 -0.3374410044885949 0.944060772927838
14286859 -0.3374302833200428 0.9443811846103021
14289768 -0.3373618644620784 0.9447761760401235
14292678 -0.33792312095063193 0.9442923699531925
14295587 -0.33845868573078536 0.9444764281012504
14298496 -0.33786151764071815 0.9441230162930077
14301405 -0.3371991335994528 0.9445982414618399
14304314 -0.3368760503677329 0.9443512252084679
14307223 -0.3363668182607365 0.9445302881910244
14310133 -0.33567272622834404 0.9449661734695731
14313042 -0.3357310967790278 0.9453155266682136
14315951 -0.3360067363048005 0.9452412328175007
14318860 -0.3355455836175218 0.9455534182244463
14321769 -0.3357544406661466 0.9452143001801814
14324679 -0.335552132714061 0.9449781233655725
14327588 -0.335123585527 0.945688489865925
14330497 -0.3347735893800514 0.945755701517862
14333406 -0.3347072030707407 0.9461201511273593
14336315 -0.33508332981447736 0.9462468601701282
14339224 -0.33485979340866684 0.9462813933622025
14342134 -0.33438309297458313 0.9459624006852307
14345043 -0.33395195585996845 0.9459394806827095
14347952 -0.3339422441196411 0.9458699275211735
14350861 -0.3334116523700411 0.9460001322853192
14353770 -0.3327604764775899 0.9461546152952526
14356680 -0.3318291812698852 0.9460669202303837
14356680 -0.3325489306259674 0.946589754553648
14359649 -0.33325094886258877 0.9461729326323434
14362618 -0.3323975517764407 0.9462768241545699
14365588 -0.3323973107463753 0.9470335398138816
14368557 -0.3315634137942748 0.9467606663886698
14371526 -0.331468818777346 0.9466171660533236
14374496 -0.3325993459506732 0.9465111164204772
14377465 -0.33157537673150983 0.9473130774805669
14380434 -0.3315779153840131 0.9468814360557407
14383404 -0.3300724799298712 0.9464702635346997
14386373 -0.33029614861148654 0.9470459040592681
14389342 -0.3308421145267679 0.9469481282783385
14392312 -0.3311667354005173 0.947107531812376
14395281 -0.33139300161247887 0.9468992769873951
14398250 -0.33078068354636075 0.947102183099493
14401220 -0.33061266755256835 0.947434131836752
14404189 -0.3298626379862572 0.9479253845398278
14407158 -0.3298793009169594 0.9479712135470895
14410128 -0.32949822330231643 0.9477233984483802
14413097 -0.32989226521932613 0.9467689792785018
14416067 -0.3288526841118189 0.9465277176589162
14419036 -0.32868633676604386 0.9471762872574401
14422005 -0.3291673862897228 0.9471815295924378
14424975 -0.32944405526766957 0.9477689214655576
14427944 -0.328592955650026 0.9475745697847724
14430913 -0.328870336468579 0.9478571278159562
14433883 -0.32934771339500013 0.9478700155545051
14436852 -0.3283009515043325 0.948230409778691
14439821 -0.32858631918901215 0.9479762269992085
14442791 -0.3275945956636754 0.9481810814549286
14445760 -0.3272308621227594 0.947985460428749
14448729 -0.32772379728157097 0.9474674193502897
14451699 -0.32677390008099666 0.9483764292253125
14454668 -0.32708954567741716 0.9483052115177333
14457637 -0.3275301200978272 0.9478278392561548
14460607 -0.3270206125582917 0.9481028331438686
14463576 -0.32638978326223617 0.9485357443231998
14466545 -0.3256698770093513 0.9481510050189178
14469515 -0.32522664092588255 0.9488192490276569
14472484 -0.32520720838988426 0.9484913287905539
14475454 -0.3256709487883795 0.9486435750808823
14478423 -0.32468253669056846 0.948485878040308
14481392 -0.3251538824074699 0.9486622382284304
14484362 -0.3246529625200759 0.9483362867352371
14487331 -0.32457630471040205 0.9489182764128448
14490300 -0.3253022123124593 0.9494327948264658
14493270 -0.32526339352124356 0.9495716550842167
14496239 -0.32505023891751844 0.9496211537186927
14499208 -0.32484028319822744 0.9494806172636426
14502178 -0.3243734850891317 0.9495657259347953
14505147 -0.3232321108291903 0.9495941388054427
14508116 -0.32387843552330986 0.9498702237089273
14511086 -0.3234161149018558 0.9497025090399335
14514055 -0.3233037770269964 0.9496104804342006
14517024 -0.322731100405944 0.9493870593922569
14519994 -0.3229317113389364 0.9494788335340484
14522963 -0.32277280558058 0.9499577414097241
14525932 -0.323011752641595 0.949120809122058
14528902 -0.321915661359092 0.9498945693449866
14531871 -0.3220629997140255 0.9498667645694463
14534841 -0.3222192090910187 0.95012992469928
14537810 -0.3213727809713261 0.9505120943278935
14540779 -0.3216864642224498 0.9499699883046954
14543749 -0.3210251201752599 0.9496937147467069
14546718 -0.3209054943934507 0.950254874368635
14549687 -0.3215260173645205 0.9499862669282112
14552657 -0.320630070647709 0.9507360343557545
14555626 -0.3211235640848944 0.9504340714086272
14558595 -0.3205305074982834 0.9503160554107856
14561565 -0.32024172388735045 0.9505829301570958
14564534 -0.3193756146653342 0.9507090644948298
14567503 -0.3202564860549199 0.9504940634608274
14570473 -0.3195769155465599 0.9505860020167818
14573442 -0.31976335612205575 0.9503989771891801
14576411 -0.3196898949137637 0.9507125784710141
14579381 -0.3191288503193956 0.9507404884144137
14582350 -0.3191744341000592 0.950628722638415
14585319 -0.31903233007493 0.9511909951201905
14588289 -0.31893408732634937 0.9513653637685693
14591258 -0.31857381561307596 0.9511084436102331
14594228 -0.3184117352814629 0.9519322713169771
14597197 -0.31783605866052095 0.9514242774849417
14600166 -0.3178928259362816 0.9512625105912275
14603136 -0.3179119414887724 0.9515595872545525
14606105 -0.31721613452593683 0.9511554950367913
14609074 -0.31673086773273834 0.9518120530816448
14612044 -0.3158522030547934 0.9521383676361604
14615013 -0.31635624212302826 0.9515094627174775
14617982 -0.31622115213167606 0.9517273615056278
14620952 -0.3164278494831965 0.9520141523384269
14623921 -0.31674027422836265 0.9518588445992353
14626890 -0.3159268897865879 0.9519353514835084
14629860 -0.31614337906531853 0.9515256897272895
14632829 -0.31675954591837974 0.9520876513341117
14635798 -0.31634680451395236 0.9521839574039787
14638768 -0.31533210676358003 0.9526577898041596
14641737 -0.3152299115943143 0.951988077856836
14644706 -0.3144581127621011 0.9521241060396846
14647676 -0.3142252733694252 0.9520444351084266
14650645 -0.31497282931638115 0.9528824463774107
14653615 -0.31504073353475465 0.9528595086806323
14653615 -0.3145589608111469 0.9527902966323808
14656645 -0.31465948679206635 0.9526462593018706
14659676 -0.3153326651411632 0.9525338987178305
14662707 -0.31515752075582265 0.9531247467954658
14665738 -0.31480028246308045 0.9524822467178922
14668768 -0.31413945809318583 0.9528600930682346
14671799 -0.3137637812246321 0.9529081077003423
14674830 -0.3130724666303006 0.9533007939772232
14677861 -0.312340860112161 0.9528317708101548
14680891 -0.312444088587162 0.9531574086763802
14683922 -0.31166372285626626 0.9536744645678155
14686953 -0.3115660812369061 0.9535473158226923
14689984 -0.31213396529401843 0.9530987654248176
14693015 -0.3125185624119572 0.9531002511141841
14696045 -0.31290435835113173 0.9532804592951774
14699076 -0.31177497450728114 0.953509974717664
14702107 -0.31159136868438314 0.953271154673639
14705138 -0.3112772258832608 0.9529719687929449
14708168 -0.3114718120304929 0.9537828789721277
14711199 -0.3113880549209469 0.954233148025482
14714230 -0.31158460956549283 0.9543870924399996
14717261 -0.31107325984605194 0.9544330836772872
14720291 -0.31071062156721546 0.9541213711723565
14723322 -0.3107022455500347 0.9547763201902326
14726353 -0.31094075454007436 0.9544452990533601
14729384 -0.3101711903939756 0.9540431391994751
14732415 -0.31065581718947144 0.9542858296973549
14735445 -0.3103522161865284 0.9548596459715691
14738476 -0.3097428217956745 0.9543115709646085
14741507 -0.3091557191920512 0.954539889614045
14744538 -0.30983784927847413 0.9547323387665254
14747568 -0.30936360855723777 0.9547770407106904
14750599 -0.30818756250953966 0.9542156480093782
14753630 -0.30815712481328306 0.954417827517403
14756661 -0.30885365778672424 0.9541433579854399
14759691 -0.30855465437511315 0.9545270845420696
14762722 -0.30810182128818386 0.9548917797750986
14765753 -0.3074824654038106 0.9554179831800284
14768784 -0.3076508511259686 0.9547437822449377
14771815 -0.30733762886349314 0.9550364716654185
14774845 -0.3071482489786852 0.955181278507771
14777876 -0.30660039024399227 0.954837587005004
14780907 -0.30636636643117043 0.9546157439070353
14783938 -0.30589791489746465 0.9547525026578645
14786968 -0.3058324437108068 0.9548049961660754
14789999 -0.3062560207274431 0.9557946226575849
14793030 -0.30620418543626193 0.9552867076188406
14796061 -0.3059734101215113 0.9554711228160245
14799091 -0.3055985210686503 0.9556593946127085
14802122 -0.3064276226589166 0.9551504826735587
14805153 -0.3064672310777528 0.9555200794059414
14808184 -0.30532117299263756 0.9557795056968461
14811215 -0.30513294795995366 0.9562657862165113
14814245 -0.3051402617813594 0.9553877751609257
14817276 -0.30532056730933926 0.9560161347349437
14820307 -0.3043629375065353 0.9562826962673
14823338 -0.30480983983992677 0.9564430821398417
14826368 -0.30412691718763324 0.9565558114595263
14829399 -0.3032798761098052 0.9566084174501699
14832430 -0.30382772828911336 0.9562504678722609
14835461 -0.3032923982589774 0.956311149577146
14838491 -0.3026386004883568 0.95639476962605
14841522 -0.30306106858151893 0.9563279690188048
14844553 -0.3031472620849097 0.9565195434196745
14847584 -0.302395553331705 0.9564287507582011
14850615 -0.3026385356675884 0.9564129746599789
14853645 -0.30324925760124194 0.9564198025398345
14856676 -0.30292689669353495 0.9565707161485436
14859707 -0.3023890564442253 0.956275484924453
14862738 -0.30259904720319153 0.9568812692442747
14865768 -0.3022246362651492 0.956930005042467
14868799 -0.30227598180294535 0.9568951334249782
14871830 -0.3019756626764615 0.9573753801237098
14874861 -0.30146425273536265 0.9568677167251465
14877891 -0.3005846618790176 0.95738195485742
14880922 -0.2998510676189486 0.9573873754503619
14883953 -0.30038944995985833 0.956893321581117
14886984 -0.29978489366211497 0.9566300135690501
14890015 -0.3000865104515921 0.9570222964100096
14893045 -0.29999098936424085 0.9569885380226175
14896076 -0.300153489101535 0.9567636268489906
14899107 -0.2989969855168221 0.957350672567029
14902138 -0.2996953700125248 0.9570364551806506
14905168 -0.30043830299806107 0.9575036789113638
14908199 -0.2992205336257093 0.9572221770273607
14911230 -0.29859196799829824 0.9579764670336529
14914261 -0.29813792807563233 0.9578932457084414
14917291 -0.29853909207105356 0.9573321464562171
14920322 -0.297552747124297 0.9574190989302138
14923353 -0.2971426936204587 0.9573659980115851
14926384 -0.29697418434914863 0.9576537583025874
14929415 -0.29766338247006646 0.9580676079635123
14932445 -0.297274707064773 0.9581967196974919
14935476 -0.29682328351911746 0.9579904372605637
14938507 -0.2976136343607816 0.9575530660267728
14941538 -0.2975136983248676 0.9578388773293545
14944568 -0.2972571585600013 0.9580495261024871
14947599 -0.2962820353761148 0.9583470755076837
14950630 -0.29690137323737614 0.9581285522512527
14953661 -0.29604873924695996 0.9586973422993815
14956692 -0.295565190717069 0.958961040740286
14956692 -0.2960094624598936 0.9590681692719938
14959785 -0.2958420287382499 0.9583481889365595
14962878 -0.2961876318051875 0.9582243503955139
14965972 -0.2959361568280077 0.9585420696770982
14969065 -0.29521613741366065 0.9588013441394119
14972159 -0.2963645704169118 0.9591759201995623
14975252 -0.29540916632636566 0.9594303980543782
14978346 -0.2948980345033814 0.9593385634323137
14981439 -0.29516573111792294 0.9590084577123463
14984533 -0.29455669959337905 0.9592381651043135
14987626 -0.29397906715572125 0.959090088473816
14990719 -0.29416453275641535 0.9593038436508189
14993813 -0.29372159039847506 0.9597676375224706
14996906 -0.29331105029727106 0.9591569227856445
15000000 -0.29345072333342187 0.9592166784392026
15003093 -0.29400779655840786 0.958878278527029
15006187 -0.2937469630145753 0.9594776870102204
15009280 -0.29333539735461345 0.9591847034621505
15012374 -0.29370237629627816 0.9588879199674878
15015467 -0.2925762743779493 0.9597836982933154
15018561 -0.29210612551561177 0.9596660985003018
15021654 -0.29248514167661016 0.9595656812628175
15024747 -0.291246857293787 0.9589321847842845
15027841 -0.2909789776129037 0.9594106367082832
15030934 -0.2924634585258368 0.9596750718958716
15034028 -0.29139715234515307 0.9598626575653788
15037121 -0.2907629401136793 0.9598227372370595
15040215 -0.29128686413556243 0.9593342926507773
15043308 -0.2904373038275846 0.9602313117455062
15046402 -0.2897428963561292 0.9601485197786344
15049495 -0.29052844376702786 0.9608087398595271
15052588 -0.29032532495283936 0.9605111828000971
15055682 -0.28977358237671724 0.9606666293735469
15058775 -0.28949861779137276 0.9607085574264407
15061869 -0.2909324564973566 0.9607000311082956
15064962 -0.2903332173503124 0.9604800719558468
15068056 -0.2897853039722869 0.9602871207879048
15071149 -0.28981130625839213 0.9606680821263113
15074243 -0.28909692766964107 0.9603789463011695
15077336 -0.28884969716828907 0.9605364457743952
15080430 -0.2888766679767579 0.9606924903428875
15083523 -0.28847416173023743 0.9612968048794998
15086616 -0.28767878845529127 0.9612773498307867
15089710 -0.2872911412438842 0.9611985483433748
15092803 -0.2878531536255344 0.9603294198726998
15095897 -0.2872376212044211 0.9609968691246099
15098990 -0.28751684012840273 0.9609628758465106
15102084 -0.2873626303257007 0.9610545771681588
15105177 -0.2868702787527356 0.9611880049313275
15108271 -0.2864501254992015 0.9614164198715383
15111364 -0.2874387137062506 0.9609770114236411
15114457 -0.28675628015748644 0.9612329674570377
15117551 -0.28625529142099815 0.9613460828661476
15120644 -0.2870174859978652 0.9609771717126637
15123738 -0.2862650228533486 0.9616735108346713
15126831 -0.28578426163485937 0.9606201627613574
15129925 -0.2855000403656975 0.9617811543285463
15133018 -0.2869074891749679 0.96122030066777
15136112 -0.2861099418650625 0.9615275545044346
15139205 -0.28494216016838364 0.9623219359433296
15142299 -0.286147271420069 0.9618274956276265
15145392 -0.2852570616019817 0.9627064715924256
15148485 -0.28488104136033854 0.9629999822229226
15151579 -0.2855028077173897 0.9627950821799559
15154672 -0.28498247511878616 0.9627187982913977
15157766 -0.28397460484843473 0.9630472985785504
15160859 -0.2843220600095609 0.9630075148733983
15163953 -0.28354366941275017 0.9624506420815984
15167046 -0.2831527702214365 0.9628421300874748
15170140 -0.2832097765295845 0.9625497264336148
15173233 -0.283321642601639 0.9624555605817312
15176326 -0.2825280253746991 0.9615311230772788
15179420 -0.28315348909006394 0.961922864880757
15182513 -0.2831577963484358 0.961454210839031
15185607 -0.28252124933151895 0.9618221875588768
15188700 -0.2826952383246284 0.9625212146021908
15191794 -0.28363241333417466 0.9624709145507836
15194887 -0.28165655613425455 0.9626352275047897
15197981 -0.2814722700398765 0.9627230901509708
15201074 -0.2828700989020546 0.9622835637493238
15204168 -0.28154350571957504 0.9637113995626226
15207261 -0.28123941311177414 0.9631235469578615
15210354 -0.2816733135122766 0.9631485046297562
15213448 -0.28202067467078396 0.9637064670088258
15216541 -0.28178985239353765 0.963211313870915
15219635 -0.2820280549429677 0.9635272820357815
15222728 -0.28168180998103143 0.9639264323377652
15225822 -0.28067322913060366 0.9634955889801461
15228915 -0.28045836238268895 0.9637003988932171
15232009 -0.2803612354473153 0.9634171542488275
15235102 -0.2796722412384839 0.9635158807357762
15238195 -0.27951762689986 0.9638466656638749
15241289 -0.27970774450537994 0.963575035621355
15244382 -0.279064721707673 0.9643371762711004
15247476 -0.27904394702617225 0.9640223324006684
15250569 -0.278903078908992 0.9635189935002721
15253663 -0.2781695782256936 0.9641901066832448
15256756 -0.27770432036354026 0.9642127095467798
15259850 -0.2780761814669693 0.9641505557186982
15262943 -0.27744378001571973 0.9650317501710286
15266037 -0.2772767164093322 0.9639463188058282
15266037 -0.27821745943677473 0.9641749383382551
15269194 -0.277055270023228 0.9637742035470107
15272351 -0.2773667972346262 0.9639600858524521
15275509 -0.27709035214402605 0.964053848030683
15278666 -0.27690104571118573 0.9640051952281259
15281824 -0.2770490499840958 0.9637361454199119
15284981 -0.276678089062832 0.9641605599727548
15288139 -0.2762009010039964 0.9638235166230906
15291296 -0.276913324067952 0.9636018419316787
15294453 -0.2757692930225309 0.964112764700804
15297611 -0.27619939081910727 0.9646724099165259
15300768 -0.2767069639566787 0.9646523399850329
15303926 -0.27566967178388047 0.9647615298918994
15307083 -0.2757570009786368 0.9649726923409665
15310241 -0.27510806414435196 0.9647331265428101
15313398 -0.27466898153288277 0.9651074895987811
15316555 -0.2746330693251269 0.9653787221682025
15319713 -0.27368919309095535 0.9648767015651274
15322870 -0.274912178897171 0.9641920621697133
15326028 -0.27397525216473967 0.9644957916277463
15329185 -0.2734757376846894 0.9654027567784575
15332343 -0.2733770362856834 0.9653766923109326
15335500 -0.2727043024092023 0.9661886589991482
15338657 -0.27316062560976084 0.965374849733654
15341815 -0.2729785865209692 0.9658210325667375
15344972 -0.27262871108622816 0.9652965239519081
15348130 -0.2731078624666538 0.9653444658318319
15351287 -0.27209804472807136 0.9658797623757892
15354445 -0.2713449031786639 0.9650818630903784
15357602 -0.27202789439281494 0.965359311050734
15360759 -0.2721050267664146 0.9655881520367676
15363917 -0.272021005456853 0.9656231984392981
15367074 -0.272156164667876 0.9661106293956487
15370232 -0.27102639704120113 0.9659388011150973
15373389 -0.27221850074315795 0.9653908255841419
15376547 -0.2713050007283982 0.9660681820357597
15379704 -0.2704613409929292 0.9660226641417441
15382861 -0.27027444418175406 0.9653739804293765
15386019 -0.2702302847038334 0.9667026930460614
15389176 -0.270583126953519 0.9666508983628568
15392334 -0.2698437793496025 0.9668215796777759
15395491 -0.26947002762516137 0.9659718126360146
15398649 -0.2698460318578582 0.9655086900290223
15401806 -0.2692612455062583 0.9660836333377094
15404963 -0.26883844389600997 0.9668105846587204
15408121 -0.26754223329787497 0.966152678695193
15411278 -0.2686796398597973 0.9661098749225229
15414436 -0.2684054333625817 0.9669141338476432
15417593 -0.26801777338600036 0.9656942080478241
15420751 -0.26796199867042814 0.9658860667444917
15423908 -0.2672091486506756 0.9655405222471738
15427065 -0.26791823736655546 0.9662273382198244
15430223 -0.2678706047802075 0.9667882348613746
15433380 -0.2672929174733658 0.9660156968688178
15436538 -0.2680148117783122 0.9665768735825145
15439695 -0.26771369678441775 0.967164079484453
15442853 -0.26839301337121757 0.966821895780165
15446010 -0.26721235491681056 0.9670032192159002
15449167 -0.26577278771348983 0.9667143665659995
15452325 -0.265656900877901 0.9668430412980147
15455482 -0.26621142339128 0.9673563631616956
15458640 -0.26619983868920954 0.9673563845477231
15461797 -0.2656442172251208 0.9678652906500411
15464955 -0.2650431902561777 0.9673230377817629
15468112 -0.26549585285766275 0.9675157235266737
15471269 -0.2646934894589985 0.968116325449813
15474427 -0.264894072829666 0.9673656231371217
15477584 -0.2644546132475297 0.9681550732129749
15480742 -0.26398986273076425 0.9679793592120378
15483899 -0.2642955171742064 0.9678416673218786
15487057 -0.26345765635404766 0.9679499583561376
15490214 -0.26359314546675366 0.9672244601944487
15493371 -0.26336726822310375 0.9670351189974347
15496529 -0.2629574231028709 0.9672836892990639
15499686 -0.26337079173323424 0.9675494703946931
15502844 -0.26239301386934194 0.9688553207477216
15506001 -0.26251302976081714 0.9683442880347758
15509159 -0.26214007610803247 0.9682320110526733
15512316 -0.2621519808860999 0.9681264229999749
15515473 -0.2627322374676382 0.9673814294587276
15518631 -0.2621770551138804 0.9680380045792261
15521788 -0.26202124421613954 0.9677823656996042
15524946 -0.26143996437366906 0.9684681097765385
15528103 -0.2610285538725433 0.9683403885281116
15531261 -0.26176506610318273 0.9681236024171429
15534418 -0.2617017547523016 0.9679591079956246
15537575 -0.2609444503183608 0.9674552290640656
15540733 -0.2608351532419017 0.9677541640872918
15543890 -0.2607366753248491 0.9684323502975871
15547048 -0.2604917476498958 0.9682894218943501
15550205 -0.2596012775785528 0.968832070872527
15553363 -0.2589255191056796 0.9692061453056359
15556520 -0.25961987098709643 0.9692078558701648
15559677 -0.2590458484956941 0.9695250665766716
15562835 -0.2595528510770982 0.9687335123584174
15565992 -0.2589853176318623 0.9687407963532919
15569150 -0.2590241595445482 0.9690517576702171
15572307 -0.25922447008015226 0.9688063093258589
15575465 -0.25840722834235813 0.9695717289087882
15578622 -0.25759815351260135 0.9694015694837653
15581780 -0.2581791077606625 0.9688975405370915
15581780 -0.2578220131663062 0.9693996639367942
15585002 -0.2574252189126886 0.9688709948408306
15588225 -0.25799757363473075 0.9690972095611953
15591448 -0.2571153256805252 0.9694473698894338
15594670 -0.25742818602488676 0.9689800104665521
15597893 -0.25631348097900136 0.9698876628151132
15601116 -0.25646640584116503 0.969499189104183
15604339 -0.25604764524371987 0.9694721612311554
15607561 -0.2566780722071019 0.9689066010843088
15610784 -0.2558701534807955 0.9689169698755037
15614007 -0.25636760458110597 0.9692574813032477
15617230 -0.2555204500568093 0.9702544370427226
15620452 -0.2552111404241256 0.9701915830037794
15623675 -0.2545918398666562 0.9707062878653618
15626898 -0.2546054169434259 0.9703222019686182
15630120 -0.2544897127472763 0.969630425677554
15633343 -0.25460893878922086 0.9696199099039201
15636566 -0.25383684542344115 0.969746482934164
15639789 -0.25354307655206665 0.9699201943161847
15643011 -0.25335578781973955 0.9702759881951086
15646234 -0.2525685951282828 0.9695784964145462
15649457 -0.2525985991830087 0.9706028423657445
15652680 -0.2525809003835898 0.9704908462907066
15655902 -0.25313242277766346 0.9705556486677662
15659125 -0.25281192384231843 0.9698722770682519
15662348 -0.2526184317236662 0.9698179270886174
15665570 -0.25177860233798777 0.9690423491315371
15668793 -0.25203506499264305 0.9701851722853736
15672016 -0.25167091104808803 0.9711095363679574
15675239 -0.2520419226570681 0.9708507713651436
15678461 -0.2514782982817177 0.9708790586769501
15681684 -0.25177481352377523 0.969657970564718
15684907 -0.25127075764088697 0.9700272423231661
15688130 -0.2519488954829 0.9695943146139552
15691352 -0.2508608153632473 0.9705464632146148
15694575 -0.25155443685138984 0.9704153657200878
15697798 -0.25066077831909567 0.9709051176866612
15701021 -0.25039729017585 0.9705068096274355
15704243 -0.2501333786563177 0.9710582311840473
15707466 -0.250079348938857 0.9710565369292112
15710689 -0.24972412336406719 0.9715183162520017
15713911 -0.24934341331439067 0.9712750073557933
15717134 -0.24827431366261815 0.9714688584216904
15720357 -0.24745434710250416 0.9708815714704283
15723580 -0.24814039805502613 0.9710990744919304
15726802 -0.24838139853840877 0.9704273150194218
15730025 -0.24836413079622188 0.9708183076207693
15733248 -0.24815554500168668 0.9708939704267315
15736471 -0.24852637636939762 0.9713482893754214
15739693 -0.24695705895811612 0.9716967624883431
15742916 -0.2473791270479362 0.9717125702889896
15746139 -0.24672215123009725 0.9720638753059548
15749361 -0.24663913999048562 0.9715496644389464
15752584 -0.24639999147134534 0.9713112166451371
15755807 -0.24654586482734173 0.9713101006930325
15759030 -0.24649166190305818 0.9713527333591903
15762252 -0.24619747574127218 0.9705087638944785
15765475 -0.24599225593303536 0.9716753072214019
15768698 -0.2457402409996063 0.972238914474176
15771921 -0.24600302504516758 0.9725238846365539
15775143 -0.24503969506947978 0.971963935610569
15778366 -0.24547342567888586 0.9717429834513404
15781589 -0.2443325074548659 0.9719636895773165
15784811 -0.245174353890751 0.971886686815656
15788034 -0.24466536138496278 0.971921855013808
15791257 -0.24452003286960586 0.9723563421407634
15794480 -0.24482906889896805 0.9720667506467748
15797702 -0.2443117113803186 0.970986569957588
15800925 -0.2438571065272709 0.9715059112044468
15804148 -0.24312913891250448 0.9711845743681158
15807371 -0.2428585765199388 0.9718265406584242
15810593 -0.24246962341292233 0.9719267201973585
15813816 -0.242721623570096 0.9725048521641558
15817039 -0.2420787890258555 0.9727350326691531
15820262 -0.24192820291693595 0.9718171854269435
15823484 -0.2411229063588277 0.9717988949908747
15826707 -0.24096335495116777 0.9718740657268494
15829930 -0.24121227288219743 0.9716083286200345
15833152 -0.24067116315377704 0.971537328384447
15836375 -0.24099233769675033 0.9715032118466941
15839598 -0.23998871953196577 0.9716699596191778
15842821 -0.2402635681088455 0.971603191065289
15846043 -0.2405508925342056 0.9719911714145687
15849266 -0.24082650252740712 0.9721298312609317
15852489 -0.24041404111156267 0.9726222223841402
15855712 -0.2402851534403141 0.9725522297307094
15858934 -0.23954235208425104 0.9724643753729878
15862157 -0.2395263216902117 0.9726369513127294
15865380 -0.2398588883535263 0.9724862864906247
15868602 -0.23927071226535315 0.9717915042424553
15871825 -0.23865793916876987 0.9725031477848837
15875048 -0.23801063649751017 0.9725022633886791
15878271 -0.23753435928141384 0.9731251860432361
15881493 -0.23666263086627862 0.9729529060668549
15884716 -0.23774823228708175 0.9731223064602561
15887939 -0.23752652025719648 0.9730098451143235
15891162 -0.23826550867019713 0.9726008454648759
15894384 -0.23739390668001878 0.9730548818167222
15897607 -0.23720923501183844 0.9726197137940964
15900830 -0.23620109943438813 0.972369738797186
15904053 -0.23626618226677648 0.9717621415428848
15904053 -0.235621375901805 0.9716549908385357
15907342 -0.23539552972562078 0.9723396551312786
15910631 -0.23600746647816065 0.9720222842585773
15913921 -0.23546346125808557 0.9722514599102852
15917210 -0.23587454766482888 0.9722148704715983
15920499 -0.23547944964485948 0.9722933041552876
15923789 -0.23575623872676066 0.9726372305406511
15927078 -0.23485384780232174 0.9720162769587806
15930368 -0.23464913949263222 0.9725243782711588
15933657 -0.23451298683272231 0.9723327920710481
15936946 -0.23449382388198806 0.9728150102715337
15940236 -0.23464833864524684 0.9730085520910554
15943525 -0.23446618038362244 0.9731991641258202
15946815 -0.23434742976947473 0.9730401911551804
15950104 -0.23355809643384937 0.9731788803674682
15953393 -0.2329115049336352 0.9729086520136733
15956683 -0.2320418989270399 0.9730472789596332
15959972 -0.2329120121261833 0.9729153470388306
15963262 -0.23231134315513327 0.9731519268853485
15966551 -0.23252197346024805 0.9731498385144679
15969840 -0.23182007498189677 0.9732630928583937
15973130 -0.23180015489721487 0.972828355044328
15976419 -0.23173933287827633 0.9727302740061728
15979708 -0.23133501627875985 0.9725490520792446
15982998 -0.23049652872843285 0.9734058118403335
15986287 -0.23061881435158568 0.9730562157678023
15989577 -0.2303700911574449 0.9734820257854956
15992866 -0.2308188336759739 0.9731853744868695
15996155 -0.23051551129713094 0.973409054809279
15999445 -0.23049699302824353 0.9730399579588819
16002734 -0.22974892208331624 0.9734765622397286
16006024 -0.22996742820495725 0.972763539100482
16009313 -0.2287568566541247 0.9730483040161682
16012602 -0.2298046143872056 0.9733172386037164
16015892 -0.22878232169920454 0.9731600163820645
16019181 -0.22907943509521975 0.9733758767843007
16022471 -0.228376702626465 0.9734471644293301
16025760 -0.2287252979203952 0.9743753114498975
16029049 -0.22834705357529328 0.9739025527657743
16032339 -0.22790939717931394 0.9737843290362623
16035628 -0.22732573702823963 0.9734192920899438
16038917 -0.2276982590566027 0.9730527352280932
16042207 -0.2270808729026189 0.9731423580760977
16045496 -0.22704795233619665 0.9734298140785913
16048786 -0.22697570267341752 0.9732045898367255
16052075 -0.22681321565488594 0.9733584087899005
16055364 -0.22662241905217972 0.9736787228156811
16058654 -0.2258148979757898 0.9736929068448844
16061943 -0.22596772705783696 0.973530995363061
16065233 -0.22540692367751863 0.9736235683263325
16068522 -0.2254783865182464 0.9749350034058673
16071811 -0.22462843615574848 0.9735546401740643
16075101 -0.22524334298645646 0.9746668068997812
16078390 -0.22444128248635184 0.973701033996692
16081680 -0.22467872554505502 0.9743386162174789
16084969 -0.22385378319311433 0.9740688045922383
16088258 -0.22386415013882865 0.973658771033051
16091548 -0.22332525517043691 0.9738978624606025
16094837 -0.22361396277499646 0.973284413410238
16098127 -0.22403695794408765 0.974002965607278
16101416 -0.22339759390176317 0.9739435924775804
16104705 -0.22386972977975877 0.9743557906452653
16107995 -0.22322920353746148 0.9743841011085368
16111284 -0.2229039598807199 0.974549026864046
16114573 -0.22210068861296517 0.974749339117043
16117863 -0.22256556280757986 0.9742056744655465
16121152 -0.22229933431139037 0.9744376744804782
16124442 -0.22270845273322643 0.9748559106033804
16127731 -0.22147668147852168 0.9744320230508292
16131020 -0.22147307432825375 0.9741871997730847
16134310 -0.21978387615431247 0.9744121060494211
16137599 -0.21944560672327426 0.9741137132946647
16140889 -0.21972275093239335 0.973944184282312
16144178 -0.2200461782110862 0.9741348619531983
16147467 -0.22030295857992013 0.9735488895162455
16150757 -0.21977078787770857 0.9739189896174772
16154046 -0.21986275029464508 0.9743494868347806
16157336 -0.21980587197066948 0.9747128865233284
16160625 -0.2199900541639323 0.9745468719453101
16163914 -0.219263814443104 0.9747181911163139
16167204 -0.21978395068532203 0.9743797947637878
16170493 -0.21879173267284335 0.9746148079066974
16173782 -0.21927651640135268 0.9750463141157182
16177072 -0.21869111040020486 0.9746555022183927
16180361 -0.21923612296887998 0.9749192455936089
16183651 -0.21842874927293787 0.9751050146288242
16186940 -0.21832859056051396 0.9754839363634894
16190229 -0.21754222978175822 0.9743720872328766
16193519 -0.2177350187973964 0.9754429119795837
16196808 -0.21664967933984697 0.9754373077822708
16200098 -0.21706439993138474 0.9758030774435676
16203387 -0.21625684647654211 0.975091016631269
16206676 -0.2159727325834356 0.9754595199869498
16209966 -0.21552800231340027 0.9749107689496909
16213255 -0.2149161147018246 0.9755981157852953
16216545 -0.2149690507275918 0.975248050705603
16219834 -0.2149190440076251 0.975737704228365
16223123 -0.21482310467879243 0.9751346062322822
16226413 -0.21461441948216564 0.97495500044696
16229702 -0.21528699974888973 0.9745163294036389
16232992 -0.2148778020253447 0.9744620183132239
16232992 -0.21428654434366576 0.9744320279390495
16236349 -0.21494923582753403 0.9749807397522816
16239706 -0.21438528138519247 0.9743737551534488
16243064 -0.2145598195668755 0.9749281645723289
16246421 -0.21384411550813998 0.9750756630963369
16249779 -0.21343064837349401 0.9749222152241127
16253136 -0.21349503144405926 0.9760269671680607
16256493 -0.21298346975257013 0.9752220175293315
16259851 -0.2127368235125238 0.9753980463329895
16263208 -0.2126192767515443 0.9754754084114452
16266566 -0.21193707383366664 0.9757574669859939
16269923 -0.21275242191996985 0.9755747899405354
16273281 -0.21221836315605383 0.9751777856582711
16276638 -0.21236885390524896 0.9755592091437398
16279995 -0.21209280817475598 0.9752348287267005
16283353 -0.21133699170647896 0.9752131605444228
16286710 -0.21158800720486926 0.9754790967377642
16290068 -0.21064876604130886 0.9749932740083666
16293425 -0.21020357644204893 0.9756500049898059
16296782 -0.2099618238613779 0.9751333824909694
16300140 -0.20945931615387375 0.9755553075869375
16303497 -0.20944089942286334 0.9756552718596997
16306855 -0.20881486843785282 0.9752030383473174
16310212 -0.20915750816714535 0.9754895486082853
16313570 -0.20885475245368404 0.975826031866178
16316927 -0.2089205650259969 0.976245216932926
16320284 -0.20912368728850797 0.9764956186228503
16323642 -0.20890471354512688 0.9762413642146291
16326999 -0.2089705167220189 0.9761108404386495
16330357 -0.20827017651833066 0.9756903363960135
16333714 -0.2079419503764288 0.9756024259251248
16337072 -0.20820560234600702 0.975624919423868
16340429 -0.2075142954075188 0.9759380587242448
16343786 -0.2074458351191691 0.9756664823349847
16347144 -0.20725073227230212 0.9754716762677306
16350501 -0.20728342161013832 0.9761491368331864
16353859 -0.20716283082340703 0.9758289823350863
16357216 -0.2067023796316255 0.9760287767677095
16360573 -0.20666322276519614 0.9768376622620976
16363931 -0.2062229130247453 0.9765224617634832
16367288 -0.20671271322394108 0.977436496453622
16370646 -0.2063680076615135 0.9764951045813998
16374003 -0.20585612013162422 0.9772040533065638
16377361 -0.2055547536246199 0.976998119768456
16380718 -0.20503414416058172 0.9766537707264553
16384075 -0.20526454557479565 0.9771517936433562
16387433 -0.2056681500121725 0.976500238018626
16390790 -0.20553945279585573 0.9765024484826542
16394148 -0.20502080952290877 0.9770279272486788
16397505 -0.20396764214822738 0.9768296623477948
16400863 -0.2032928132566041 0.9769814814226865
16404220 -0.2032518071970665 0.9765172808995761
16407577 -0.2033382705515616 0.9767503801731148
16410935 -0.20341937804086652 0.9772248742152257
16414292 -0.20306289240063505 0.9768945881398461
16417650 -0.2032293576555552 0.9774190188769531
16421007 -0.20304118087735817 0.9767139294734379
16424364 -0.20261188854814044 0.9773537007163201
16427722 -0.2028833528641148 0.9771552705100605
16431079 -0.20248880131322616 0.9766265617452277
16434437 -0.2019097455699998 0.9775517855808917
16437794 -0.2021330428130069 0.977415616030548
16441152 -0.20124519157246354 0.9772027381533307
16444509 -0.20196399031236903 0.9769276913382682
16447866 -0.20191224025738996 0.9773940049960949
16451224 -0.20092843116621717 0.9773722181159699
16454581 -0.20049806838686518 0.977044965064264
16457939 -0.20046433933815797 0.9759939908971307
16461296 -0.19952969694833245 0.9773810142564852
16464653 -0.20010043969234084 0.9772938934380082
16468011 -0.20010366974563223 0.9771658190369912
16471368 -0.19937501862262164 0.9784428695044988
16474726 -0.19938813225043123 0.9777569427900472
16478083 -0.19901195599975968 0.9769561859496062
16481441 -0.1979430518756332 0.9776517879430445
16484798 -0.19819509214686198 0.9772717101414196
16488155 -0.19788470395153998 0.9764187529041599
16491513 -0.19829973277663543 0.9776117743676096
16494870 -0.19823255986436092 0.9772401638410152
16498228 -0.1978163395785687 0.9777342546705408
16501585 -0.19685151138629461 0.9781874415544334
16504943 -0.19730955571165032 0.9780636100556126
16508300 -0.19723807684838263 0.9778415840201369
16511657 -0.19632356219668173 0.9780361212963389
16515015 -0.19668111085858786 0.9769906045413939
16518372 -0.1962278579966167 0.977993849005255
16521730 -0.196217174594455 0.978434656490414
16525087 -0.1959595411805854 0.977416224763669
16528444 -0.19578793632990657 0.9788280823872808
16531802 -0.1952770875210897 0.978278778386947
16535159 -0.19587374274365862 0.9783390984228303
16538517 -0.19475517665407915 0.9785268276960432
16541874 -0.19521600981133733 0.9783352207797739
16545232 -0.19499084067576417 0.978701183058124
16548589 -0.19477867731748727 0.979318151365072
16551946 -0.19478698670157812 0.9785151060723755
16555304 -0.19502180097154437 0.9786584471345473
16558661 -0.19467755425969357 0.9785215255328688
16562019 -0.1947308324770084 0.977685016707291
16565376 -0.19396048472301108 0.9779136521929593
16568734 -0.1938461488222492 0.9780560970639663
16568734 -0.193771258901012 0.9783392873747221
16572160 -0.19296636734499964 0.9779785860894337
16575587 -0.1924543020687216 0.9787297535274481
16579014 -0.1930508094008501 0.978235381862334
16582441 -0.1928209021928133 0.9783370650268208
16585868 -0.19245284337335652 0.9781839837243713
16589295 -0.19224229138026291 0.9784087781496436
16592722 -0.19204915362925273 0.9783705148972633
16596148 -0.19190778608764342 0.9790719677339251
16599575 -0.1919611881189617 0.9785099222480071
16603002 -0.1916904264298775 0.9784077431146284
16606429 -0.19124291592798823 0.9790931441474513
16609856 -0.191300333518887 0.9787910451981701
16613283 -0.19098532728240852 0.9786542021800706
16616710 -0.19037795652116749 0.9790189495600216
16620136 -0.19043351466737493 0.9787177912698586
16623563 -0.18975954157780514 0.978541038905915
16626990 -0.18971333887045613 0.9785177404045262
16630417 -0.18916107414005892 0.9779243155383162
16633844 -0.18911371296021914 0.9777494767829003
16637271 -0.18893024372377049 0.9786067431630284
16640698 -0.18890260214753898 0.9786752082478691
16644124 -0.18868533152980901 0.9787843424760622
16647551 -0.18826988977409728 0.9785265943936956
16650978 -0.18899066302517095 0.9787515973288066
16654405 -0.188366267155857 0.9785492286579235
16657832 -0.188191341983495 0.9791221112606578
16661259 -0.1878652205536208 0.9788497901444079
16664686 -0.18784664146412366 0.9789822396991761
16668112 -0.18734203930150217 0.9792839277289818
16671539 -0.1865699586388697 0.9790418198988589
16674966 -0.185840088077232 0.9790990787102871
16678393 -0.18545347991319358 0.9793755871050417
16681820 -0.18525242393408656 0.9790516003006084
16685247 -0.18526940690767862 0.9791275379373098
16688674 -0.18499501536536775 0.979711633930717
16692100 -0.18548825147327916 0.9796157769188694
16695527 -0.18605455722240638 0.9792623814138384
16698954 -0.18554822152666556 0.9794183041825585
16702381 -0.18605018267086915 0.9794816036976799
16705808 -0.1854358945076302 0.9790236875423708
16709235 -0.18459215127633571 0.9795710283588674
16712662 -0.18432459949672625 0.9793856368716816
16716088 -0.1839373586994432 0.9793679413198266
16719515 -0.18286659173825986 0.9792842907813735
16722942 -0.18254268450100286 0.9793243180355814
16726369 -0.182719963032156 0.9793773883975623
16729796 -0.18255614463762818 0.9796401310951939
16733223 -0.1829883227287602 0.980050680153001
16736650 -0.1832720909217598 0.9794415551872068
16740077 -0.18296133567191789 0.9797992497397721
16743503 -0.18364672081603317 0.9799212696712843
16746930 -0.18322227339139666 0.9795972877180157
16750357 -0.18268358052247421 0.9801773121030326
16753784 -0.1823389375228099 0.9800190020577403
16757211 -0.18211654564830615 0.9800524558604851
16760638 -0.18084940208099512 0.9799196737059899
16764065 -0.18120851381967937 0.9794645448821625
16767491 -0.18093752700628266 0.9786737028445467
16770918 -0.1801745007693477 0.9793845888811038
16774345 -0.17992720369675325 0.9794676683390015
16777772 -0.17984000415421172 0.9803546877641817
16781199 -0.17869952094887412 0.9799570413486425
16784626 -0.1793257575660068 0.979770886578865
16788053 -0.17886856231220413 0.9798173152428622
16791479 -0.17899656268153014 0.9795683562867908
16794906 -0.17909461145830005 0.9800101545558734
16798333 -0.17870837242642115 0.9795575836337298
16801760 -0.17785606684548852 0.9798616347592399
16805187 -0.17846225249532705 0.9798712589753186
16808614 -0.17797324960580171 0.9803762586770148
16812041 -0.17739220802537695 0.980642482711416
16815467 -0.177621775903885 0.9805956978314928
16818894 -0.17694671289348837 0.9797473196839747
16822321 -0.1770829773602952 0.9805794661708799
16825748 -0.17672005921161735 0.9801012141790282
16829175 -0.1764661704286634 0.9802748761672873
16832602 -0.17649776896069663 0.9806714646326938
16836029 -0.17675493942210838 0.9799529622863131
16839455 -0.1765623477255525 0.9803802641340531
16842882 -0.1759333932470767 0.9802144849007054
16846309 -0.17629762230768534 0.9810429566010588
16849736 -0.17595521198365138 0.9807406212120927
16853163 -0.17530914205676248 0.9812780096293751
16856590 -0.17504933956399657 0.9811034770452836
16860017 -0.17485620230015808 0.9808317783356066
16863443 -0.17391090145349425 0.9805241613561134
16866870 -0.1744520920781374 0.9805571643166484
16870297 -0.17417037465752788 0.9797288306435934
16873724 -0.17385188431427628 0.9804562370756468
16877151 -0.17406269038038036 0.9801703364914444
16880578 -0.1744188537523052 0.9799483052688102
16884005 -0.17340043342937508 0.9808677186463197
16887431 -0.17359359708892097 0.9808121354472793
16890858 -0.1734029020698237 0.9807865299911376
16894285 -0.17305645548179446 0.9809549175469934
16897712 -0.17277586693194924 0.9811275164760247
16901139 -0.17271030309780666 0.9805980890042957
16904566 -0.17242818939068752 0.9810151049605118
16907993 -0.17255687426346128 0.9809042131978313
16911420 -0.17217293698972358 0.9808439714313605
16911420 -0.17171508369123525 0.9809506799701976
16914917 -0.171304324266031 0.9808041470955333
16918415 -0.1707827859621686 0.9807975939084896
16921913 -0.17128367709430903 0.9808051338920928
16925410 -0.17049700508981372 0.980660659630852
16928908 -0.16992009991082996 0.9812139025349148
16932406 -0.1698668120810208 0.980931042289064
16935904 -0.17019477151381054 0.9814900220711599
16939401 -0.1696577361218159 0.9808748235237195
16942899 -0.16871022941002592 0.981092041551231
16946397 -0.1688088728148756 0.9807499254528119
16949895 -0.16835630668290766 0.9802053421072158
16953392 -0.16793482941517796 0.9803260230808644
16956890 -0.16797546032019708 0.9806162248595325
16960388 -0.167636171267736 0.9805435175821534
16963886 -0.16803906055939558 0.9802398394183232
16967383 -0.16769468138055516 0.9805313589513304
16970881 -0.16721363825970162 0.9814566208895058
16974379 -0.16739408405583195 0.9817259375304941
16977877 -0.16750316119999156 0.9818861394780184
16981374 -0.16716371820351386 0.9812090366607134
16984872 -0.16756860968807888 0.9815345415823644
16988370 -0.1670048315236703 0.9813684108707214
16991868 -0.16688664420516697 0.9814483714441367
16995365 -0.16543502065148769 0.9815179983214937
16998863 -0.165453990875074 0.9819353955123045
17002361 -0.1655469493510068 0.9814994509188442
17005858 -0.16582082147068547 0.9812493299564751
17009356 -0.16536959833468146 0.9812672330558001
17012854 -0.16564289978550564 0.9819300806057
17016352 -0.16546000284817028 0.9817858051333871
17019849 -0.16541407350877077 0.9820253767631317
17023347 -0.16505583574101138 0.9818246827292284
17026845 -0.16513870613085554 0.9821600705495672
17030343 -0.1648308504947565 0.9823544605223273
17033840 -0.16474287324454504 0.9825433333015869
17037338 -0.16394993604428543 0.9818731761642123
17040836 -0.16415969867008506 0.9818939236450246
17044334 -0.16371985150709237 0.9817582143256387
17047831 -0.16353310941870616 0.9814441223101517
17051329 -0.16273628327054904 0.9814812092552513
17054827 -0.1629071583139751 0.9814006417110638
17058325 -0.16329269571195804 0.9815572444482386
17061822 -0.16317055227169433 0.9813139203213382
17065320 -0.16256504783629966 0.9814068291837231
17068818 -0.16283223590986123 0.9817968239909055
17072316 -0.16263994571361687 0.982296480729778
17075813 -0.16240051389002483 0.9818172233652764
17079311 -0.1612396434984662 0.9816760887295831
17082809 -0.16143699889750748 0.98189694065433
17086307 -0.16135129644877985 0.9822446971927274
17089804 -0.1607680601229699 0.98169345943248
17093302 -0.1597653916251538 0.9816912431218108
17096800 -0.15945235190917897 0.982173395630555
17100297 -0.15892345979212802 0.9825441460032946
17103795 -0.15837459661768213 0.9820789060544695
17107293 -0.15898113046217158 0.9823538946907107
17110791 -0.15916252821131258 0.9825174802481479
17114288 -0.15848005263902237 0.9823996398843179
17117786 -0.15851677223784233 0.9825267794775572
17121284 -0.15824562926121485 0.9831445587434995
17124782 -0.1582864866660156 0.982946769466675
17128279 -0.1576735169015721 0.982506883747184
17131777 -0.1572721082608554 0.982077713380974
17135275 -0.15723843701175091 0.9822395982977187
17138773 -0.1569021998412944 0.9818125571080576
17142270 -0.1558864036251264 0.9816393110074167
17145768 -0.15576086154674432 0.9812921589538216
17149266 -0.15557487889371774 0.982062877756292
17152764 -0.15590912754495465 0.9824498779639287
17156261 -0.15529659504236215 0.9821705680808381
17159759 -0.15534646048095704 0.9823674467753215
17163257 -0.1555516939476806 0.982902257431287
17166755 -0.15572023765353785 0.9831584317020683
17170252 -0.1547706787817161 0.9834894192889101
17173750 -0.15498569967441259 0.9832588348148744
17177248 -0.15455836080691882 0.9834661867991286
17180745 -0.15423465607608947 0.9831691182462096
17184243 -0.15403267546758476 0.9831719196103063
17187741 -0.15319199662320754 0.9828748785513818
17191239 -0.15316228293674658 0.9829879237422375
17194736 -0.15342462066867626 0.983566268292721
17198234 -0.15296299828722104 0.9832883077500325
17201732 -0.1528825573021266 0.9829128748794085
17205230 -0.15339521133677994 0.9833645931886642
17208727 -0.1530270649021823 0.9831548237827097
17212225 -0.15311764150706783 0.9831680444604564
17215723 -0.15310474918439557 0.9831807925994142
17219221 -0.15279197222789373 0.9830978999931602
17222718 -0.1526678782924806 0.9831200419290927
17226216 -0.15191416569804478 0.9829410730840065
17229714 -0.1513947478096556 0.9825319367065948
17233212 -0.15128986784478515 0.9830400092308579
17236709 -0.15093333560832503 0.9833226031321478
17240207 -0.1504551811286206 0.9836488304708917
17243705 -0.1506731601254692 0.983104456684744
17247203 -0.15072489599756195 0.9836265353361282
17250700 -0.15030436038305783 0.9833543716384707
17254198 -0.15045472670258553 0.9833638006605951
17257696 -0.1502660028219651 0.9835742603686886
17261194 -0.15025545067884075 0.9833522042019194
17261194 -0.149949264341107 0.9841218157263482
17264764 -0.14904847341603486 0.9834038302221011
17268334 -0.14896081036868603 0.983085198010916
17271904 -0.14860832540867136 0.9830242963714426
17275474 -0.14817278374470547 0.983159062534961
17279044 -0.1476518877709253 0.9832174625836143
17282614 -0.1472686186806181 0.9831551405864493
17286184 -0.14707841972379246 0.9830789353895543
17289754 -0.1468237608898357 0.9832367522325642
17293324 -0.14641543339767824 0.9835841592822937
17296894 -0.14744573543267978 0.9837526587633845
17300464 -0.14684932184408975 0.9837931635334184
17304034 -0.14790197937137436 0.9837879022084859
17307605 -0.14725265090692158 0.9836648667101962
17311175 -0.14634634949804956 0.9830275557103357
17314745 -0.14579127091989638 0.9832428536093565
17318315 -0.1447060182866172 0.9833810727936446
17321885 -0.14468770616337756 0.983381057883317
17325455 -0.1446667702990968 0.9834987205239992
17329025 -0.14490893193547102 0.9838916198383544
17332595 -0.14451735660003584 0.9837269619252748
17336165 -0.14484385284892945 0.9838754933004427
17339735 -0.14463708285805532 0.9840724321959492
17343305 -0.14460508799051902 0.9844809964740202
17346875 -0.14473669061643069 0.9843775328849059
17350446 -0.14441195960271655 0.9843184385901825
17354016 -0.143706705107026 0.9841293390411568
17357586 -0.14301907422302207 0.9835666356769192
17361156 -0.14275753730497198 0.983352315456286
17364726 -0.14203965163879428 0.9834047273298419
17368296 -0.1420360684880865 0.9842781121632774
17371866 -0.14219436226804388 0.9838248028205581
17375436 -0.14185468549757255 0.9846925596745281
17379006 -0.14144191062021932 0.9845976461170043
17382576 -0.14147585652217878 0.9847452092797663
17386146 -0.14191946124738122 0.9847350712574804
17389716 -0.14136523622180733 0.9845658145027156
17393286 -0.14170567309578272 0.984555367321197
17396857 -0.14205392407984768 0.9842761235271623
17400427 -0.14124965367066508 0.9847308862165555
17403997 -0.14097426211400335 0.9844827610153983
17407567 -0.1395233188385534 0.9844894634910786
17411137 -0.13915180936940238 0.9841903069451958
17414707 -0.1395346284602154 0.9836189742821353
17418277 -0.13935529939716423 0.9834443732659214
17421847 -0.1395527178842381 0.983330849732388
17425417 -0.1392466192354196 0.9835298631049755
17428987 -0.13894410680724184 0.9836391572148
17432557 -0.13818436133708462 0.9835946819477281
17436127 -0.13797063831677345 0.9848875057099205
17439698 -0.1379440910162531 0.9839823502517838
17443268 -0.13769651478671133 0.9844891285455059
17446838 -0.13777650830055355 0.9840712165619311
17450408 -0.13771726164401527 0.9841849414277458
17453978 -0.13744817858375208 0.9851225368169775
17457548 -0.13704428592025938 0.98394817195224
17461118 -0.13724247164031964 0.9847172778155987
17464688 -0.1373519553721228 0.9841077701820918
17468258 -0.13665381546621905 0.9842404303535818
17471828 -0.13672223164021566 0.9843487726198623
17475398 -0.13665028064184032 0.984425750655033
17478968 -0.13612152841036568 0.9848881915683942
17482538 -0.13584750741866974 0.9846220408383957
17486109 -0.1354874588331137 0.9851407033052564
17489679 -0.1354513833132833 0.9849675994740766
17493249 -0.13526057289510118 0.9854119459244222
17496819 -0.13440675289977005 0.9846924145171254
17500389 -0.1337696889671323 0.9852277641595085
17503959 -0.1339319810602419 0.9840423075350866
17507529 -0.13303152794579629 0.9838788383437992
17511099 -0.1330677902574345 0.9844402286159404
17514669 -0.13265835172534926 0.9843847348908633
17518239 -0.13191830431149776 0.9845915336644934
17521809 -0.13203893556910692 0.9845586380786457
17525379 -0.1323232649926645 0.9845359668036529
17528950 -0.1315577358307949 0.9849298215429474
17532520 -0.13224693335481588 0.9854582360495522
17536090 -0.13181215608157257 0.9847854703206662
17539660 -0.13178807537643983 0.9852592553990114
17543230 -0.13221231172901032 0.9846272873252474
17546800 -0.1318311778821188 0.9850097467688879
17550370 -0.13145233193636408 0.9847268520763754
17553940 -0.13080868107990626 0.9850208257480906
17557510 -0.13010030875925915 0.9850757930968379
17561080 -0.130135287322907 0.9851451503140842
17564650 -0.13012317575187013 0.9845591043130839
17568220 -0.12996616486137533 0.9850102560721085
17571790 -0.13014210030807696 0.9856007348496447
17575361 -0.12948454815934746 0.9856648394930979
17578931 -0.12939377629175444 0.9862653465882829
17582501 -0.12942319199753421 0.9857447605110422
17586071 -0.12887818318421698 0.9849881580458952
17589641 -0.1285649956028432 0.9851260262829322
17593211 -0.1280787747626677 0.9849974069737046
17596781 -0.12759148302288317 0.9851761449927341
17600351 -0.12744454509869543 0.9850861684152039
17603921 -0.12724652023885374 0.9848915501074088
17607491 -0.12734834451028337 0.9846517280055745
17611061 -0.12757468245874964 0.9849022305221594
17614631 -0.12781724455441182 0.985725984016029
17618202 -0.12743104787450313 0.9859692960107261
17618202 -0.12771360955610137 0.9856655549821756
17621845 -0.127487311420722 0.9854950964318578
17625489 -0.12681409860391601 0.9855230083658393
17629133 -0.12627483443940563 0.9850703400461622
17632777 -0.1255503522426636 0.9851404405935239
17636421 -0.1252628352563167 0.9849707807509605
17640065 -0.12491500529286832 0.9852560677012774
17643709 -0.12453650025064793 0.9853349895118726
17647353 -0.12461941838339134 0.9854227896859866
17650997 -0.12500478353416564 0.9858387930562813
17654641 -0.12500977216040798 0.9861782258888433
17658285 -0.12428611270139608 0.9856445302759839
17661929 -0.12422960100878179 0.9858194609250029
17665572 -0.1235664796970037 0.9856895470600945
17669216 -0.12287502196725261 0.9854781166010607
17672860 -0.12335236939301228 0.9856309628277206
17676504 -0.12338799666736221 0.9860079670636539
17680148 -0.12328449138867813 0.9861995758727402
17683792 -0.12281826175508832 0.9857416901310122
17687436 -0.12270472695929742 0.985899915971589
17691080 -0.12224599730133405 0.9861697707021736
17694724 -0.12186209600967081 0.9857970340951033
17698368 -0.12132784497051134 0.9858174018912063
17702012 -0.12108321003295501 0.9855469858054691
17705656 -0.12027958344009987 0.9855765983647217
17709300 -0.12076977766807347 0.9854353579744568
17712943 -0.12069543091483449 0.9854587053556321
17716587 -0.12039542357684138 0.9856237536870375
17720231 -0.12044617447792703 0.9859284414141123
17723875 -0.12109326883910818 0.9861223031533015
17727519 -0.12074115275126614 0.9871104242620371
17731163 -0.12081371546099134 0.9868529622193158
17734807 -0.11974132783442179 0.9867431015867842
17738451 -0.11963216473911173 0.9864447000342814
17742095 -0.11969032955274415 0.986601040236485
17745739 -0.1193504878419162 0.9866756909397385
17749383 -0.11878852831219625 0.986614703207971
17753027 -0.11902122071019716 0.9866084474412827
17756670 -0.1187345668052423 0.9862652493389432
17760314 -0.1181561526023386 0.9863465693721157
17763958 -0.11717483060781028 0.98617894811643
17767602 -0.11749406044903749 0.9865581473793021
17771246 -0.116988775639502 0.987064031182186
17774890 -0.11685885407707665 0.9867472716632317
17778534 -0.11694120382779202 0.9870912721107131
17782178 -0.11720554170467326 0.9870995062578279
17785822 -0.11662159135364349 0.9865423321692023
17789466 -0.11649001507943837 0.9866780589616326
17793110 -0.11621811420539437 0.9864676639558251
17796754 -0.11552964199620602 0.9868641486947485
17800398 -0.11526596745595945 0.9863150287724218
17804041 -0.11469635437506581 0.986264643717684
17807685 -0.11451381420535113 0.9863355225074654
17811329 -0.11432948305441465 0.9860285493485423
17814973 -0.11412442026443018 0.9855574511018341
17818617 -0.11389976296335849 0.9856086634678982
17822261 -0.11380032974398877 0.9856162135808567
17825905 -0.11346260701893364 0.9857931057376672
17829549 -0.1130597620608324 0.9862500491594587
17833193 -0.11353246088093634 0.9864804708726272
17836837 -0.11402480289290827 0.9872292978617538
17840481 -0.11350280945091398 0.9872866617360199
17844125 -0.11312656212699619 0.9869863806913031
17847768 -0.11276621761286008 0.9869631920740062
17851412 -0.11278917120834266 0.9873138390879874
17855056 -0.11232211936142816 0.9871361598327915
17858700 -0.11221399936731243 0.9870323682121963
17862344 -0.11254899060061263 0.9871224264761902
17865988 -0.11254226441059123 0.9870581486557735
17869632 -0.11205787723485176 0.9878656169810165
17873276 -0.11173391152041362 0.9873776682780459
17876920 -0.11151781344244098 0.9873617718541997
17880564 -0.11082664691226998 0.9875531743380854
17884208 -0.11023164554284844 0.9882815172265677
17887852 -0.11020464018415436 0.9881453324919528
17891496 -0.10982323783844417 0.9878785929654234
17895139 -0.10971857953444664 0.9882836004954693
17898783 -0.10936486620268943 0.9881657017527729
17902427 -0.10925868868497833 0.9873600366376706
17906071 -0.10898527344444171 0.9875709731224391
17909715 -0.10893808912561537 0.9869894560993302
17913359 -0.10869062898143637 0.9866638240076673
17917003 -0.10817685101258598 0.9870349030990093
17920647 -0.10746632061093549 0.9871373341188857
17924291 -0.10727793963869808 0.9875096480119376
17927935 -0.10753345038222555 0.9876223440839164
17931579 -0.10746968361613131 0.9876874619887237
17935223 -0.10772329555148008 0.9876815713637597
17938866 -0.10734255617952505 0.9874902899033078
17942510 -0.10738406833100492 0.9876542494691491
17946154 -0.10635346799565844 0.9882289555351375
17949798 -0.1062112025439177 0.9881084726211731
17953442 -0.10607354947079367 0.9877052942511647
17957086 -0.10590455766448814 0.9879896248197163
17960730 -0.10516774008380901 0.9876483212678858
17964374 -0.10533731984175179 0.9882605159066413
17968018 -0.10551167452618718 0.9885080379205935
17971662 -0.10473536749285761 0.988575013278397
17975306 -0.10469729617498766 0.9881013564723363
17978950 -0.10426539104262539 0.9887996112395974
17982594 -0.10397585307449186 0.9884615880228782
17982594 -0.10375797852167504 0.9882845690926274
17986313 -0.10296938237199157 0.9885261656567789
17990032 -0.10296483350389733 0.9882220435185671
17993751 -0.1024997943915688 0.9884391376323264
17997471 -0.10251130763155725 0.9880694951295667
18001190 -0.10230228364750585 0.9882393900346987
18004909 -0.10252555649713528 0.9880548199253913
18008629 -0.10239353831447816 0.9880668373150816
18012348 -0.10216285331315715 0.9885100556323339
18016067 -0.101211102265017 0.9880886110797057
18019786 -0.10139616599184006 0.9880263080655334
18023506 -0.100788238338011 0.9881315824995447
18027225 -0.10102795586818912 0.9885730143796206
18030944 -0.1008575980073009 0.9884403253221401
18034664 -0.10049421744816565 0.9882681857594974
18038383 -0.1004835965672776 0.9886110704349638
18042102 -0.10004809589462436 0.9891016077791414
18045821 -0.09972653206221933 0.9892679597608919
18049541 -0.09965633777154144 0.9889001490312445
18053260 -0.09937049840095671 0.9888992936169365
18056979 -0.09888315439095495 0.9885049400833339
18060699 -0.09873598282118418 0.988288739146891
18064418 -0.09850069353834053 0.9881702500027214
18068137 -0.09852602300768391 0.9880419427946407
18071856 -0.09861259355007744 0.9874369389998596
18075576 -0.09758084026962596 0.9879035997573561
18079295 -0.09698719202023072 0.9881692515407495
18083014 -0.0967320939517986 0.9881585013334229
18086734 -0.09690867976574005 0.9887869206195151
18090453 -0.09665659568335906 0.9885526965185648
18094172 -0.09643900247696151 0.9888072198897107
18097891 -0.09654198493731095 0.9887156621519849
18101611 -0.09671116104190416 0.9885903222691672
18105330 -0.09657366180384315 0.9882583128822237
18109049 -0.09618925670364925 0.9881620860904065
18112769 -0.09616139627223924 0.9884211638125342
18116488 -0.09560069086191068 0.9887522953665205
18120207 -0.09524573244293699 0.9887222914418611
18123927 -0.0949042644348301 0.989197564589624
18127646 -0.0948979608229335 0.988898656672953
18131365 -0.09473111535458142 0.989639060720039
18135084 -0.09458953506912723 0.9894996339318579
18138804 -0.09442153563772059 0.9898817347638988
18142523 -0.09439160513213396 0.990160679812156
18146242 -0.09452470892865728 0.9896213566309391
18149962 -0.09375321024451495 0.9894519377330044
18153681 -0.09327206064560578 0.9889931045420174
18157400 -0.09330101562687348 0.9898666615985657
18161119 -0.09260013211034679 0.9897396812047822
18164839 -0.09251458291304666 0.9897501841242713
18168558 -0.09285196880490096 0.989122433573496
18172277 -0.0923353228898562 0.9897803286456357
18175997 -0.09218381263005704 0.9900241465428689
18179716 -0.0917628406013482 0.9896036367974348
18183435 -0.0913921162090052 0.9903511041831745
18187154 -0.09111022363408311 0.9894900305401851
18190874 -0.09113354009668993 0.9892306106157084
18194593 -0.09094125864101138 0.9890858900107147
18198312 -0.09054688363141596 0.9895402172605112
18202032 -0.08999218060717663 0.9896236048890745
18205751 -0.08985846779933096 0.9899420432694317
18209470 -0.08957355229010422 0.9900118504973879
18213189 -0.08940569724380493 0.9896280696646573
18216909 -0.08910475412307865 0.9892066395892493
18220628 -0.08861234682912675 0.9897563379375942
18224347 -0.08834780205654912 0.9895324795044889
18228067 -0.08815196940257236 0.9891184128295848
18231786 -0.08779087480094644 0.9895211057432839
18235505 -0.08721727230970046 0.9895136036126017
18239225 -0.08703457763895807 0.9898146851712856
18242944 -0.08704746095327706 0.9894072402649389
18246663 -0.08726468312353312 0.9895015736366137
18250382 -0.08676644867046174 0.9893479676617988
18254102 -0.08687864619842889 0.9895847062441793
18257821 -0.08637694796378541 0.9895884402248486
18261540 -0.08585117239817736 0.9900127629095722
18265260 -0.08592393738957434 0.9898569009484388
18268979 -0.08579215976733712 0.9897479697928377
18272698 -0.08556082844776708 0.989913575697307
18276417 -0.08492698684774738 0.9898521561427692
18280137 -0.08547332255503609 0.9897397751839806
18283856 -0.08487321396768849 0.9900214939454091
18287575 -0.08506044322809561 0.9898674482594028
18291295 -0.0848594392509319 0.9898679643071397
18295014 -0.08468466200762774 0.9902489425968316
18298733 -0.08440792289955094 0.9903919123454307
18302452 -0.08389976405549492 0.9905480903807755
18306172 -0.08372543087616222 0.9903817918321143
18309891 -0.08374074692219893 0.9902175310660387
18313610 -0.08339468368023446 0.9898847888338451
18317330 -0.08344709890185112 0.9901327768687114
18321049 -0.08275476995601694 0.9903589044180124
18324768 -0.08253853132801972 0.9905772296605623
18328487 -0.08188396158129727 0.9906246723756256
18332207 -0.0810696438711453 0.9899458461703198
18335926 -0.08028061963911183 0.9897912813373216
18339645 -0.08038142140728764 0.9896222959813548
18343365 -0.080674659239447 0.9897289700808735
18347084 -0.08097187894921945 0.9900056122483414
18350803 -0.08105816916452759 0.9900930598474238
18354523 -0.08094779638794596 0.9901935252459653
18354523 -0.08072091956741104 0.9906650364838547
18358319 -0.08087878510334125 0.9906117649821681
18362115 -0.08066290076543192 0.9904904621905362
18365911 -0.0806126218033843 0.9905001003859374
18369707 -0.08044439422095999 0.9903220479782278
18373504 -0.07991592613865012 0.9908961358701206
18377300 -0.07944030190965874 0.9902739188766357
18381096 -0.08016746044481582 0.9901898896255401
18384892 -0.07916180026409349 0.9900105577463697
18388688 -0.07858747085223712 0.9899644957894729
18392485 -0.07834347952856481 0.9901239475928072
18396281 -0.07824290808168886 0.9903366599954843
18400077 -0.07766891511747026 0.9905725820328872
18403873 -0.07704509523467751 0.9906757630305502
18407669 -0.07721965601349662 0.9905254472435715
18411466 -0.07707855738097374 0.9904172061155038
18415262 -0.07660655591391761 0.990264823620504
18419058 -0.07646034264804899 0.9903883506646843
18422854 -0.07641569971553297 0.9909841289874983
18426650 -0.07597448220750547 0.9908343222614701
18430447 -0.07541131348033601 0.9902110381581652
18434243 -0.07474802793458747 0.9902186231022749
18438039 -0.07413749864607615 0.9900153950759167
18441835 -0.07401323762049067 0.9898318093572004
18445632 -0.07416844384692517 0.9902175976163258
18449428 -0.07392003039943293 0.9901884381595727
18453224 -0.07402615995079563 0.9901302656302059
18457020 -0.07385425075010235 0.9910922332544779
18460816 -0.07374083878073714 0.9911506424538996
18464613 -0.07325740657481562 0.9914156908381228
18468409 -0.07327438931554846 0.9913633877186337
18472205 -0.07301522033936303 0.9909588663384783
18476001 -0.07281673476818133 0.9912236320518774
18479797 -0.07276171867763814 0.9910110497454675
18483594 -0.07240458946136627 0.9909043454331391
18487390 -0.07234548847617633 0.9914295418700059
18491186 -0.07209355075823817 0.9915186849928772
18494982 -0.07136955123979746 0.9914287852792514
18498778 -0.07093041079509656 0.9919385469394678
18502575 -0.07062024236704245 0.9916176916132031
18506371 -0.07025764483880874 0.9918924729558679
18510167 -0.0703015745159051 0.9920367156754532
18513963 -0.07029054915820067 0.9916660082936863
18517760 -0.06987799183251059 0.9914089066056802
18521556 -0.06929995073205131 0.9916885930047304
18525352 -0.06937463000557592 0.9913761564988404
18529148 -0.0693039482924161 0.9916055242201998
18532944 -0.06991570225015062 0.9916659777347566
18536741 -0.06988612427944103 0.99180221523863
18540537 -0.0692939803625683 0.9917720272285332
18544333 -0.06963594789634583 0.9915794798986515
18548129 -0.06906461783184442 0.991625251636985
18551925 -0.06893026643916032 0.9916933348921093
18555722 -0.06873993666866927 0.9916944781683199
18559518 -0.06906197901664729 0.991863243307392
18563314 -0.0685845832368604 0.9916584880982399
18567110 -0.06805009773386723 0.9916822553317294
18570906 -0.06739109846220287 0.9911253189052912
18574703 -0.06700509661718357 0.9916821075230217
18578499 -0.06694380879115497 0.9918583322756628
18582295 -0.06635170847137364 0.991961477485814
18586091 -0.06601050849222392 0.9918187250776821
18589888 -0.06605897830961328 0.9920527935620467
18593684 -0.06560304718311293 0.9919298545076407
18597480 -0.0656590703278265 0.9923608311974386
18601276 -0.06496941712775686 0.9921370919690541
18605072 -0.06437857765225664 0.9920107389783539
18608869 -0.06394539659735322 0.9920226636420776
18612665 -0.06405278503200217 0.9920836572588397
18616461 -0.06361282264369153 0.992250579770025
18620257 -0.06416086382837015 0.9920622328274646
18624053 -0.06382991971773727 0.9915837640422798
18627850 -0.06389459612973455 0.9918644110045239
18631646 -0.06425114900716439 0.9930863156297266
18635442 -0.06427049321298288 0.9922459616312407
18639238 -0.06394469424599682 0.9917959166125059
18643034 -0.06301919967235038 0.9920224922309371
18646831 -0.06227595437124115 0.9919929645127746
18650627 -0.06258188601842041 0.9921037690322597
18654423 -0.0619398659714671 0.992202713977576
18658219 -0.06159302306396771 0.9920111655152388
18662016 -0.06098965116553694 0.9918670643014748
18665812 -0.0609916952180344 0.992542144649412
18669608 -0.060092503882282926 0.9926337601013805
18673404 -0.05998887969783608 0.9925775499435688
18677200 -0.060201922506452066 0.9924737869248604
18680997 -0.059829668969416834 0.9919115285212047
18684793 -0.060156129940822214 0.9916043124619235
18688589 -0.06013477724349196 0.992219272133085
18692385 -0.06034148956965126 0.9921102243437278
18696181 -0.0603778654795869 0.9922721297546686
18699978 -0.05974825791427283 0.9926965518235576
18703774 -0.05924931431622829 0.9925711089040309
18707570 -0.058725799380424375 0.9925294232599019
18711366 -0.05841681322188135 0.9928177795769008
18715162 -0.058111307493917914 0.9928014429733716
18718959 -0.057870997246053275 0.9929319004603062
18722755 -0.05706787026819973 0.9931794695555809
18726551 -0.05711656574819457 0.9928275030382209
18730347 -0.0565035025854162 0.9931055981894601
18734144 -0.056603567950427966 0.9930425528381922
18734144 -0.05659108558726998 0.9929714874789555
18738018 -0.05679230693689264 0.9931752727460981
18741893 -0.056924993345938306 0.9928394278444007
18745768 -0.05611999873191053 0.9924011380745237
18749642 -0.05591788911413947 0.9923713535536131
18753517 -0.05574432680463262 0.992496240108538
18757392 -0.05540216064786741 0.9927708905327818
18761267 -0.05514114023842627 0.99230022884355
18765141 -0.05550281657932037 0.9927206220163558
18769016 -0.054835314344915814 0.992530700388542
18772891 -0.054150109599459005 0.9928743422433377
18776766 -0.053920592241165605 0.9933533441154354
18780640 -0.05349667074724946 0.9931834214900693
18784515 -0.05272439305886285 0.9928829088411474
18788390 -0.05244076381611633 0.9930156158315449
18792264 -0.05268324373146349 0.9925110735210453
18796139 -0.05213438094230667 0.9921435867489615
18800014 -0.05199178021630307 0.992639021582843
18803889 -0.051604717414197754 0.9933317417447788
18807763 -0.051497650178010584 0.9931627930114384
18811638 -0.051062633495795935 0.9931112589682407
18815513 -0.05141914731575994 0.9932864678068646
18819388 -0.05163174270601486 0.9931454642877188
18823262 -0.05122140390534992 0.9933434898392883
18827137 -0.05114626642987341 0.9927957507571742
18831012 -0.051016879890738394 0.9933246161634307
18834886 -0.050305699368815356 0.9932271057501388
18838761 -0.050430007203493395 0.9934193733537416
18842636 -0.050024758094307904 0.9936493352053472
18846511 -0.04954442778962775 0.9935235595001122
18850385 -0.04912986026157702 0.9934534432452357
18854260 -0.048755764478644 0.99405318313208
18858135 -0.04876749787683646 0.993793330637725
18862010 -0.04850729752227633 0.993815080165744
18865884 -0.04920939989838449 0.9933376679844155
18869759 -0.04919056484342444 0.9934216887936033
18873634 -0.048574815227720024 0.9937062667142352
18877509 -0.048022546940984644 0.9927355892393235
18881383 -0.04740822938883743 0.9936265636796817
18885258 -0.046449936318802613 0.9936616790159748
18889133 -0.04688477516704903 0.9937143219268406
18893007 -0.04690300184659537 0.993542047130148
18896882 -0.046172729293623135 0.9937268471913571
18900757 -0.04556983446065559 0.9936063757389647
18904632 -0.04551664876976897 0.9943300442931713
18908506 -0.044961873617283765 0.9943844738937722
18912381 -0.04539619817628248 0.994343996501069
18916256 -0.04513765417832958 0.9943907906601324
18920131 -0.045496765632248116 0.9941000854364012
18924005 -0.04541243457449356 0.9936807109785324
18927880 -0.0449166443620004 0.9941600203069387
18931755 -0.043797931314127715 0.9941740274312402
18935629 -0.04326150289260038 0.9951653549623938
18939504 -0.04293712253932039 0.9947622787767638
18943379 -0.042834210309943506 0.9947669732492898
18947254 -0.04332503295950169 0.9942397862837369
18951128 -0.04318260005415664 0.9946971525286654
18955003 -0.042768700329936286 0.9946530066168588
18958878 -0.04251929840975071 0.9950306590591315
18962753 -0.0422387280542513 0.9951744675683878
18966627 -0.041836601634456475 0.9950253965884598
18970502 -0.041427807112199726 0.994783815518124
18974377 -0.04127569610864229 0.994539874569079
18978251 -0.04096308764179175 0.9946895672411016
18982126 -0.04089632855395311 0.9943442341444977
18986001 -0.04058577950198007 0.9940137503695378
18989876 -0.04087462453871945 0.9941033554478219
18993750 -0.040445318928684436 0.9941264456810284
18997625 -0.040337626436611415 0.9939642439370459
19001500 -0.03970853585993143 0.9939093970119062
19005375 -0.03990335532778606 0.9938596639870005
19009249 -0.03915056451484062 0.9940481062094325
19013124 -0.038986602624143905 0.9937242923529492
19016999 -0.03837288168840721 0.9939310838648154
19020874 -0.03818081916115546 0.9940306571590241
19024748 -0.03810433187511384 0.9940430458882933
19028623 -0.03807826221939264 0.9947004806191522
19032498 -0.03750068164700221 0.9945872923953878
19036372 -0.03737768157988423 0.9952113507982903
19040247 -0.0372012767824711 0.9949271007587106
19044122 -0.036843096168495626 0.994773483151156
19047997 -0.036545801328638355 0.9948214004050238
19051871 -0.03715469992666097 0.9949300396954267
19055746 -0.03656760308687766 0.9953119896232865
19059621 -0.03605541396733344 0.9950145537384822
19063496 -0.03590445222970521 0.9948733900223719
19067370 -0.03595084291435707 0.9946858805759043
19071245 -0.035885678044674005 0.9945765942623712
19075120 -0.035317683613390334 0.9946636043669546
19078994 -0.03497124608310493 0.9949224517243088
19082869 -0.03502211052916442 0.9946300438081186
19086744 -0.03424906939428889 0.9957052154915191
19090619 -0.03371833670695747 0.9948761133104428
19094493 -0.03382423687327517 0.9949566773083565
19098368 -0.033167426986884775 0.9951328784511789
19102243 -0.0331927762541753 0.9949543205281021
19106118 -0.03303229249030791 0.995350775300169
19109992 -0.03252892581748031 0.9950846574205691
19113867 -0.03204462808557688 0.9952493405115377
19117742 -0.03175109700209752 0.9952745014029645
19121617 -0.031513283526632685 0.9948764448362857
19121617 -0.03232951655594701 0.9955621197034615
19125571 -0.03191910289345084 0.9957673202681674
19129526 -0.03130464637976863 0.9951441764310426
19133481 -0.031088487296444058 0.9954603358775812
19137436 -0.03104835935072788 0.9955441598807252
19141391 -0.03009496127557917 0.9944730684317074
19145346 -0.029755925147766087 0.994587865980594
19149301 -0.029787692795368748 0.9951151574256365
19153255 -0.029029212304914485 0.9949692560026335
19157210 -0.02894527594727319 0.9948679332364935
19161165 -0.02869688928664868 0.9951208686087208
19165120 -0.02888952636877687 0.9950795467086412
19169075 -0.02824816556472949 0.9952138913068804
19173030 -0.028249799375903595 0.9955768330025335
19176985 -0.027980790101169203 0.9954945021867777
19180940 -0.028068264539473493 0.9954949025347596
19184894 -0.028069147898343427 0.995260488709616
19188849 -0.027352799053906023 0.9957294951332775
19192804 -0.027390144077332427 0.9959461178460879
19196759 -0.026570283229377867 0.9958482465840638
19200714 -0.026679623274539276 0.9959754325838093
19204669 -0.026152021883536287 0.9961998459158593
19208624 -0.02634292964982944 0.9962293884408338
19212579 -0.025651419208697564 0.9957243730991872
19216533 -0.025217448358504087 0.9963261398345626
19220488 -0.024891495767872432 0.9960120734159963
19224443 -0.024391315964912116 0.9962097059548366
19228398 -0.024851261649498493 0.9959710355487633
19232353 -0.0251988442213108 0.9957429159922274
19236308 -0.02529000008824572 0.9956284728291865
19240263 -0.02493388362307771 0.9949915711705598
19244217 -0.02464039348230961 0.9956266145576053
19248172 -0.024127275956838945 0.9953677071048976
19252127 -0.02377131487602608 0.9948765594572917
19256082 -0.02323001744610571 0.9951972648680559
19260037 -0.023355493776804744 0.9955636538513436
19263992 -0.023074083245270285 0.9959439792026812
19267947 -0.0227606515062428 0.9958509759860266
19271902 -0.02233025257715244 0.9960615942985748
19275856 -0.0229195633053118 0.9948377801480017
19279811 -0.022442952066675535 0.9955582829081918
19283766 -0.022199329941421347 0.9962100417460105
19287721 -0.02186206694537166 0.9963975324577201
19291676 -0.021513410129191696 0.9965900610945073
19295631 -0.02187411548603829 0.9966227136010968
19299586 -0.021085307614081266 0.9966425626043331
19303541 -0.02073614215711307 0.9958570000752504
19307495 -0.019885562583221696 0.9956721681476322
19311450 -0.019517610592075792 0.9960372035209691
19315405 -0.019225775810486775 0.9966017289619453
19319360 -0.01860767126274414 0.9955956371700321
19323315 -0.018782929028574147 0.9961668644824797
19327270 -0.018902364057156524 0.9964174183505122
19331225 -0.018755565695235437 0.9961346135133268
19335179 -0.018667346880100986 0.996831688570511
19339134 -0.018304994795169775 0.9968379647325616
19343089 -0.01741188023224007 0.9977221781738957
19347044 -0.01773168541456765 0.9966945165142831
19350999 -0.01741249504863235 0.9967089554142629
19354954 -0.017275142697365145 0.9965601900882582
19358909 -0.017076237896117542 0.9965228484535977
19362864 -0.017077427527041677 0.9968088237611089
19366818 -0.016533926146193322 0.9964215264473834
19370773 -0.016455739032334764 0.996525001306532
19374728 -0.01654668943102675 0.996847684465589
19378683 -0.016377325836868205 0.9960499479799514
19382638 -0.016204720631407488 0.9961061968893069
19386593 -0.01575094671517849 0.9961089960673292
19390548 -0.015134394165742833 0.9968149049343861
19394503 -0.01475710791818444 0.9964806074865621
19398457 -0.014723098254078715 0.9969612316192656
19402412 -0.01439735314179714 0.9964903716866844
19406367 -0.013925460861613618 0.9970476754150376
19410322 -0.013607773481792106 0.9970009553751525
19414277 -0.013909512334385777 0.9968280985258166
19418232 -0.014120345745133012 0.9961974530068913
19422187 -0.013990157042462963 0.997075065174371
19426141 -0.013287786846171207 0.9965945282949394
19430096 -0.013186719107766778 0.9964100992936198
19434051 -0.012535238471724193 0.995453380298268
19438006 -0.012490448590653423 0.9963536307467215
19441961 -0.012235264167725796 0.9962485184071617
19445916 -0.01245666366831671 0.9966616856227687
19449871 -0.011874322151191427 0.9957945397331723
19453826 -0.01156038696635307 0.9968750578517337
19457780 -0.010890896789925558 0.9971770570875088
19461735 -0.010919114396783065 0.9970004656601807
19465690 -0.010286371267030395 0.9967652476849891
19469645 -0.01013595078119239 0.9967264306508008
19473600 -0.009457255617534414 0.9973060650089338
19477555 -0.009800169925986592 0.9970524391556959
19481510 -0.009415420131934929 0.9968037607716125
19485465 -0.0089700280282877 0.996827249291821
19489419 -0.008425075425495115 0.9975441438707291
19493374 -0.008714752507720375 0.9972784056718181
19497329 -0.008665651714285533 0.9963502171656161
19501284 -0.008350425671844458 0.9962528664141844
19505239 -0.007645502782105273 0.9968877120202624
19509194 -0.00686372310313625 0.9968136550645624
19513149 -0.00663167247644069 0.9973283670967176
19517104 -0.006408624883411662 0.9967624994455306
19517104 -0.00670924953196025 0.9974803989818818
19521140 -0.0065537279579259535 0.9971201631275742
19525177 -0.006537755173028361 0.9977760513934071
19529213 -0.006327929008762277 0.9973277846885148
19533250 -0.006732118346427682 0.9974328844105048
19537287 -0.006007890842544821 0.9977343437636025
19541323 -0.005976059916943939 0.9979986277969831
19545360 -0.006222120325122829 0.9976187336593549
19549397 -0.005093727995459406 0.9979492923906286
19553433 -0.00516603620602418 0.9977263459651856
19557470 -0.004509457772018224 0.997763051551366
19561507 -0.003741121799047527 0.9978161791066152
19565543 -0.0034611057123242733 0.997526156782699
19569580 -0.003755967439678276 0.9969282992768037
19573617 -0.0034838927314785485 0.99785118142939
19577653 -0.002982770819650369 0.9977247267369674
19581690 -0.0031120455853677026 0.9973339745365435
19585727 -0.0024992300014379416 0.9974560833154454
19589763 -0.0017958086081219678 0.9978608586714643
19593800 -0.002127210684758614 0.9973856102854358
19597837 -0.001934842265298161 0.9982379773224648
19601873 -0.001543868712437666 0.9983746383787707
19605910 -0.0018237469333989029 0.9982805602989567
19609947 -0.0019893514862716725 0.998282015981772
19613983 -0.0019232958540603504 0.998937633807092
19618020 -0.002113244240289266 0.9983701652195782
19622057 -0.0018687290914873409 0.9981331226761908
19626093 -0.0011114834554418552 0.9980421849120092
19630130 -0.000993566767399527 0.9970286034470116
19634167 -0.0003786252853552109 0.9972346709880653
19638203 0.0003620545411296105 0.9979530204298006
19642240 0.00044109881211155553 0.997901893175763
19646277 0.00010043518642787063 0.9978706091157693
19650313 0.0002519998370559088 0.9981509827161844
19654350 0.0006641745416093435 0.99765903874163
19658387 -0.00014820247157195618 0.9976208072690155
19662423 0.0011290157026748707 0.9978394983327444
19666460 0.0014443155400944163 0.9982933391154487
19670497 0.0009634056439799001 0.9980155005190264
19674533 0.0016004876280754227 0.9980102902140994
19678570 0.0023932431594468053 0.9980432830855737
19682607 0.0014335525524449605 0.9977809195079442
19686643 0.0022049119031051123 0.997837736948213
19690680 0.0032007022211274585 0.9984925991021498
19694717 0.0032849244454190543 0.9980928376278227
19698753 0.0033245900078763286 0.9987476385713113
19702790 0.003530419419012902 0.998320565327263
19706827 0.003123653431060963 0.997871455021035
19710863 0.0029875423180508714 0.997068131063766
19714900 0.0035805027274226626 0.9984146446013656
19718937 0.003537991063131836 0.9977333230602891
19722973 0.004681061310332868 0.9984881470809535
19727010 0.004818526469411958 0.9992394513407385
19731046 0.004116853027839464 0.9982298250118445
19735083 0.005131092214005131 0.9982813177931704
19739120 0.005666113441321607 0.998809304774063
19743156 0.005263018836039986 0.9989240067264417
19747193 0.006046344442706698 0.9990298428434163
19751230 0.006572368149837173 0.9989381435584191
19755266 0.005980538650777968 0.9988995634435107
19759303 0.006978471282458174 0.9987346413786
19763340 0.0076648772334229134 0.9985705881427367
19767376 0.007007125164933151 0.9985049095117386
19771413 0.007118758430340804 0.998650852047804
19775450 0.007800193959118111 0.9992816500235878
19779486 0.0073794539105104815 0.9982544137815438
19783523 0.008910867122014977 0.9983017758920756
19787560 0.009398494737847906 0.9993336637383882
19791596 0.008660788503540854 0.9983016037021698
19795633 0.009301823754812009 0.9988260878034646
19799670 0.00977408096961775 0.9988008703480099
19803706 0.009097810850306223 0.9981409640469031
19807743 0.010057230659175484 0.9978164264439867
19811780 0.010657294890171013 0.9983352062484849
19815816 0.010268290866425923 0.998149013375168
19819853 0.010954455274184947 0.9987137333041161
19823890 0.012015737350782287 0.9993162701419099
19827926 0.010931859654253726 0.9990145401546372
19831963 0.011661110493136421 0.9988516458419918
19836000 0.01173948874344725 0.9998689885518203
19840036 0.010451610815732258 0.9992602970919855
19844073 0.01146556663842979 0.9986955410433553
19848110 0.012278874414805326 0.999553093627024
19852146 0.011938161041157167 0.99911440614726
19856183 0.012828171867928874 0.9990156551865348
19860220 0.014190951405769718 0.9997935631769744
19864256 0.013340623559663043 0.9996052711286405
19868293 0.014047602430301736 0.9993475596848191
19872330 0.013922808644443776 0.9996625372294045
19876366 0.012902138580867535 0.998994330667433
19880403 0.012556121350544005 0.9990575232213333
19884440 0.013396390469872338 0.998953263737752
19888476 0.013506723969478418 0.9990118894953421
19892513 0.014368606785148548 0.9985368300430885
19896550 0.01500605658657043 0.9988181337743725
19900586 0.014418079377233502 0.9991286086151562
19904623 0.015064941055237122 0.9988520603161053
19908660 0.015474396287774835 0.9990109024164288
19912696 0.015663040240762618 0.9991421724105959
19916733 0.01603651008428185 0.999231209399984
19920770 0.017213795300910984 0.9996100135998284
19920770 0.01662144311394465 0.9988147417401904
19924890 0.017164569454003093 0.9990393020458463
19929010 0.01661252946680319 0.9995710562877549
19933130 0.017295799324145517 0.9998297330416396
19937250 0.01672114293207506 0.9999005106462728
19941370 0.016776754102487645 0.9995951802912717
19945490 0.017492977192715073 0.9999613804594548
19949611 0.016769471260008377 0.9999849670985693
19953731 0.017940986157299606 0.9998794048291241
19957851 0.01726115165058544 0.9997018979932625
19961971 0.0181200643140746 1.0002173555127587
19966091 0.018288230319041785 0.9999269725392852
19970211 0.01852791962304519 1.000181138855542
19974332 0.019539199617829916 0.9997161473818873
19978452 0.018928176744252893 0.9999385362498964
19982572 0.01962843747690821 1.000477308837221
19986692 0.01972234273051478 1.0002100758555064
19990812 0.019859438136336845 1.0001298670528898
19994932 0.020870765802904485 1.0002946020516368
19999053 0.020477064530883066 0.9999602613237724
20003173 0.02177075204951263 1.0001273446030186
20007293 0.021062447576304315 1.0002338682709462
20011413 0.02162255585631738 1.0004611185353591
20015533 0.021330667527733896 0.9999346801555163
20019653 0.021459801284853065 0.9999962875762956
20023774 0.021688115534813708 0.9994706503833813
20027894 0.021012354693585544 0.9992842977663023
20032014 0.021760301551615697 0.9997595244634063
20036134 0.021425343048549924 0.9997130989770234
20040254 0.022106214711796104 0.9997834358142572
20044374 0.02204104499320784 0.999873479534542
20048494 0.02228412700384117 1.000431689120627
20052615 0.022724160886131578 1.000526970343665
20056735 0.02198719599955771 1.000609782945438
20060855 0.02256820053035641 0.9998006425052463
20064975 0.02257616474476304 1.0000276740532235
20069095 0.023222886589772267 1.0001294800556633
20073215 0.024286486527953146 0.9994918380547823
20077336 0.024107476084006443 0.9996072488299187
20081456 0.024726129336910704 0.9999006461871691
20085576 0.023947574372485528 0.999804609034149
20089696 0.024789173269409145 0.9997979262270528
20093816 0.02454311087969253 0.9997269770604638
20097936 0.02477101005401319 0.9997704301476902
20102057 0.025231526356937043 1.000336439492942
20106177 0.025154695834687175 0.9993372541607554
20110297 0.025467099400487917 0.9998101790498031
20114417 0.02581690155662648 0.9994997307548279
20118537 0.02644204055243578 0.9995060236760267
20122657 0.02703811483416669 1.0000265170690126
20126778 0.02657527765215766 0.9996798188402718
20130898 0.027424227792099444 1.0006769855043693
20135018 0.02732489756222238 1.0001205343488035
20139138 0.028102832823952834 1.0002009529762277
20143258 0.027898040627020726 1.000083673251177
20147378 0.0281309473205068 1.0000062015775075
20151498 0.028282110663607026 0.9999045449621233
20155619 0.028045815244005484 1.0000811118649844
20159739 0.027931766581263697 0.9994944694245712
20163859 0.02847254672200553 0.9999497456992074
20167979 0.02816603508092675 0.9998499664721978
20172099 0.02870314721184623 1.0005185721741514
20176219 0.028928906037496895 1.0008006533209013
20180340 0.02959663600620063 1.000068906894637
20184460 0.030191698042502886 1.0003803881472288
20188580 0.03018887226762803 0.999824162018044
20192700 0.030111058707689566 0.9996568869131642
20196820 0.030638274682995764 1.0000612071075439
20200940 0.03079507993103374 0.9989283597642549
20205061 0.03049965729462143 1.0000385775688967
20209181 0.03089704517464869 0.9998609455186646
20213301 0.03083837332276366 0.9995829726438243
20217421 0.031784492695559455 1.000423213242797
20221541 0.03103660210550823 1.0000093294751742
20225661 0.03212398189150849 1.0007440492039035
20229782 0.03189331946278324 1.000406975877584
20233902 0.03311963748319015 1.0006481191448506
20238022 0.032908904082623654 1.0005725601336697
20242142 0.033506240615671284 1.000423419139296
20246262 0.0330123941929388 1.000571691028614
20250382 0.03320749604205465 1.0013929580687886
20254502 0.03312838916687445 1.0006918792758048
20258623 0.03380943132017991 1.0010177623945369
20262743 0.03424277482479091 0.9999414825089984
20266863 0.035067505642014836 1.0002093489542563
20270983 0.034990083376135094 0.9998820146697687
20275103 0.03531508676871725 1.0006464053911535
20279223 0.035172142830613214 1.0005436976330038
20283344 0.035993782601757195 1.0015972131561897
20287464 0.035665989928311305 1.0002239639726762
20291584 0.035831676078778886 1.0013237970648625
20295704 0.03592760314973693 1.0005263966145854
20299824 0.03653708540867752 1.0008214516021343
20303944 0.03674177746825952 1.0005314105374183
20308065 0.037443029518690364 1.0009998452324906
20312185 0.036805566303995445 1.0006263143450962
20316305 0.03719604370122497 1.0010916632996125
20320425 0.036834879187880816 1.000169419368107
20324545 0.03699890977969381 1.0004054925381287
20328665 0.036862441243987326 0.9999558125525152
20332786 0.0379661185986557 1.0002026977018292
20332786 0.03771396628824934 1.000730059188819
20336991 0.03789494746797207 1.0005407047127237
20341196 0.03851231541246955 1.0012307099537403
20345402 0.03816898127347697 1.0007745553695955
20349607 0.038765342021756646 1.001413112607822
20353812 0.03870621724881258 1.000815504854733
20358018 0.04002015277660911 1.0006278693096649
20362223 0.03966603640620737 1.0005899360382182
20366428 0.040085326730208 1.0004951831601474
20370634 0.03997040960744262 1.000700481891074
20374839 0.04020170629158129 1.0006959494447862
20379045 0.03989112188456542 1.0005677824140347
20383250 0.040595035785476526 1.0004401085439731
20387455 0.04026178761459471 1.000302445173664
20391661 0.04132014448088536 1.0008256429542324
20395866 0.04088452509294417 1.0008595578550015
20400071 0.04158237891376557 1.000740745074668
20404277 0.04120861790761003 1.001378874606252
20408482 0.04158607168767487 1.0013915556951085
20412688 0.04205347422447508 1.0010909499505045
20416893 0.04189859544417306 1.0012020403629631
20421098 0.04284861287401304 1.0011615972916679
20425304 0.04242040101765695 1.0004013068032018
20429509 0.04310130617350691 1.0010816838797196
20433714 0.043014266020094116 1.0005317515373315
20437920 0.04363711791125528 0.9999747967457301
20442125 0.04271528993182624 0.9997190102571665
20446330 0.0435436026132359 1.0002661888139421
20450536 0.043209829494724024 1.0008717104272955
20454741 0.04370820342485967 1.0005407102521982
20458947 0.04386320730399334 1.0005594324339675
20463152 0.044166983771101245 1.0010227698313938
20467357 0.04425073329325781 1.001078223360465
20471563 0.04475046489765468 1.0011045525882718
20475768 0.04491675715440583 1.0007244456362911
20479973 0.045472512052461084 1.0007732899274253
20484179 0.045230410896564724 1.000699966365932
20488384 0.04588529188690898 1.0007961877261977
20492590 0.0464797548828744 0.9999398087866729
20496795 0.04644721122805895 1.0007826934717632
20501000 0.04653025292053909 1.000025443534064
20505206 0.04646281769502664 1.0007739510446982
20509411 0.04647693830534657 0.9999347964198925
20513616 0.04624804210966632 1.0008707733367583
20517822 0.04686927524027488 1.0002008139218597
20522027 0.04724803222857815 0.9999928147345479
20526233 0.04766501731771046 1.0015916776442353
20530438 0.047762993451127604 1.0005091216199389
20534643 0.04834055879950345 1.0019751376027262
20538849 0.048147696985603144 1.001080742429029
20543054 0.04876115040686928 1.0017901115257541
20547259 0.0485518528324308 1.0012586741863536
20551465 0.04938184347437892 1.001378458431182
20555670 0.04925030256986877 1.001156228338854
20559875 0.04960697813740345 1.0009414577054816
20564081 0.04851061961962956 1.0009515292403888
20568286 0.04981140031341371 1.0007336516864573
20572492 0.04882059822797975 1.0011060778464578
20576697 0.04990649320579038 1.0003292900337564
20580902 0.04970660395412449 1.0000901399534698
20585108 0.05026944768929395 1.0004084537498878
20589313 0.05011627646324878 1.0006158451497411
20593518 0.05155459976704994 1.0005474046258496
20597724 0.05063090256177147 1.0006512098862252
20601929 0.05194682545424278 1.0004457955992716
20606135 0.050523130209729324 1.0005421775580532
20610340 0.052392396666123706 1.0005577787360627
20614545 0.051414484123273596 1.000471703914336
20618751 0.0529147244255551 1.0009823719714879
20622956 0.05224018869012367 1.0009967261111905
20627161 0.05375817363173345 1.0010567917176674
20631367 0.05309444247590558 1.0010274908682375
20635572 0.053668758549046465 1.0015413510237359
20639778 0.053304440929037245 1.0010360128890754
20643983 0.05404004314878217 1.001628975230437
20648188 0.053883546129363066 1.0007274758699671
20652394 0.05443239239440222 1.0009960409762273
20656599 0.0538184611330626 1.0006846841982038
20660804 0.05442889440230565 1.0014477294431523
20665010 0.05403833654556458 1.0005263717487205
20669215 0.055103931043352025 1.001160155950105
20673420 0.05438646868376885 1.0007064006686892
20677626 0.05573897344531409 1.0008563953070624
20681831 0.05507327831127813 1.0005499700862228
20686037 0.056301451699215584 1.0009333301240464
20690242 0.05565611869194867 1.0003891341600517
20694447 0.05661527515030199 1.0010539002026086
20698653 0.05587639911550826 1.000368370404394
20702858 0.056757601915594855 1.0008629277810541
20707063 0.05650676292086142 1.00072484599763
20711269 0.05713357755334525 1.0002642321784345
20715474 0.0567177346478147 1.0000868612468647
20719680 0.05808570179947179 1.0001548938725708
20723885 0.05740284385705165 1.0001247920138532
20728090 0.05853139461416761 1.0005381528065584
20732296 0.057516020837666076 1.000702147764591
20736501 0.05898013995151853 1.0008586281373688
20740706 0.058359992778778715 1.0003460463948852
20744912 0.05899185210187482 1.0007875080824093
20749117 0.05841831077576894 1.000004612140696
20753323 0.059392419235256594 1.0008478464150794
20753323 0.05931221096872847 1.0012803022532193
20757615 0.058687430173783424 1.001408338477043
20761907 0.05973412613010089 1.0019586083907337
20766200 0.060368417938608844 1.0013534415570877
20770492 0.060389428608992324 1.0011646255556663
20774784 0.062277146516334606 1.000509998968414
20779077 0.06167412222115421 1.0009105545712247
20783369 0.06203283811577989 1.0011680367511786
20787661 0.06154121516710595 1.0006907642958907
20791954 0.06108230783723888 1.0003715223971124
20796246 0.06193337039328637 0.9999194300229947
20800538 0.06084967280038289 1.00007469363996
20804831 0.061641738222538746 1.000255731780477
20809123 0.061790168959708444 1.000342024185632
20813415 0.0613130069311398 1.000466076325053
20817708 0.06258226909520012 1.0007111082366853
20822000 0.0615512922232887 1.0004660830318923
20826292 0.06291480153102336 1.0008585243953543
20830585 0.06363173747011425 1.0004137841790586
20834877 0.06289129899079837 1.000859033007731
20839170 0.06401925379433629 1.000789024931503
20843462 0.06371317467601546 1.0009962418933989
20847754 0.0637498102456531 1.0009567778295256
20852047 0.0642768422015889 1.0005901898201908
20856339 0.0638947242291016 1.0007185367956006
20860631 0.0648580340005842 1.0007770793937178
20864924 0.06449029916283591 1.000745387021406
20869216 0.06494061989660521 1.000924098094943
20873508 0.06477503933302327 1.0003998144084418
20877801 0.06531113802118374 1.0007685409123093
20882093 0.06565040793661231 1.000857239488057
20886385 0.06517328347538875 1.0009449574539162
20890678 0.06530360911056647 1.0014215628234913
20894970 0.06651010562326967 1.0008768948017843
20899262 0.06617422980413434 1.0010478636868285
20903555 0.06741303594712987 1.0011897619409373
20907847 0.06739366558654263 1.0006455216937673
20912139 0.06711072731984073 1.0007652795483675
20916432 0.06856362306600093 1.0003734424276476
20920724 0.06822645062186758 1.0001975095677205
20925017 0.06818225671359225 1.0008077178329837
20929309 0.06855506734268246 1.0008048581496207
20933601 0.06836101022174285 1.0008657595790422
20937894 0.06954936465698772 1.0007647219125646
20942186 0.0694709371626791 1.0003416687884659
20946478 0.06965932925940277 1.000884517623074
20950771 0.06969242493414107 1.0007177714904096
20955063 0.0687127742525528 1.0006486564871957
20959355 0.06966527356613711 1.0008808317744518
20963648 0.06934180733282429 1.0006313991093994
20967940 0.07016952952817726 1.0004380546667442
20972232 0.07121045574504012 1.0007376556360026
20976525 0.07062945880438934 1.001151151662302
20980817 0.07114711596540513 1.0008533682758534
20985109 0.07028457529830871 1.0006325352790266
20989402 0.07096972032649487 1.0004485124273326
20993694 0.07115250038994622 0.9997268554866227
20997986 0.07157013141358702 1.0002481259475764
21002279 0.07210542420577969 1.0002716656628101
21006571 0.07184507142872035 1.0004097498354423
21010864 0.07284427147193291 1.0001544957867787
21015156 0.07186592841403547 1.0005319092410931
21019448 0.07269544904171894 1.000215014795963
21023741 0.07245105708641127 1.0001326382467526
21028033 0.07173221474780757 0.999902776265961
21032325 0.07262035032749153 0.9992610083591854
21036618 0.07245963897805001 0.9999816252242846
21040910 0.07397901957086259 1.0000978316237266
21045202 0.07274483222795165 0.999959535948108
21049495 0.07296204088681954 1.000438769950673
21053787 0.07401858293364362 0.9998185559241077
21058079 0.07359933718776002 1.000926582537187
21062372 0.07520191934604457 1.0014473988110715
21066664 0.07522707599907288 1.0009103921511762
21070956 0.07555227485642523 1.000720028901938
21075249 0.07669359681880829 1.0000432094877525
21079541 0.07524533400236143 1.0005817309179015
21083833 0.07699006637875379 1.0002178924499348
21088126 0.07666358928617932 1.000107407642663
21092418 0.07642719530991708 1.0002682398830216
21096711 0.07679402904798599 0.9995410531676037
21101003 0.07576199432624779 0.9999091399823583
21105295 0.0771775404168142 1.000124035411182
21109588 0.07714593418533543 0.9993208761155632
21113880 0.07762763460084288 0.9998137082534164
21118172 0.07797014219513426 1.0002415910021498
21122465 0.07746676943342702 1.0003536316221207
21126757 0.07856637354099047 1.0015922168587028
21131049 0.0782830821648775 1.0005293140746145
21135342 0.07860403600886759 1.000719701284594
21139634 0.07936040727703945 1.000396521559146
21143926 0.0790419941306677 1.0006588167172699
21148219 0.08001554748411284 1.000598773268405
21152511 0.08028827431487111 0.9998393110350996
21156803 0.08002494092126496 1.000968202303275
21161096 0.08009046816430193 0.9997913003399423
21165388 0.07915760172240753 1.0003770012055035
21169680 0.07973415782810138 0.9999580098194369
21173973 0.07946651526099258 0.9997412664831962
21178265 0.08075916646243633 1.0010664664571045
21182558 0.08105803948060772 1.0009786558344582
21182558 0.0808650022836434 1.0004918105194902
21186939 0.08046665535939643 1.0006288571409325
21191320 0.08114496771913404 1.0013714509072884
21195701 0.08205796758461358 1.000706084805716
21200082 0.08291571951885185 1.0001817981720154
21204463 0.08227912647378124 1.0002051947835215
21208844 0.08227572155050514 1.0003101822118814
21213225 0.08348183094620008 1.0003606377817709
21217606 0.08334103585140111 0.9994142670411923
21221988 0.08226693192615833 0.9999591313829972
21226369 0.08343557165903644 1.0004051765884159
21230750 0.08376505151673189 1.000301917602326
21235131 0.08282287470414128 0.9998410063526344
21239512 0.08312836564072223 0.9995584311450837
21243893 0.08346219568653031 1.0002236098556705
21248274 0.08495568019757606 1.0006667258042687
21252655 0.08517538297746663 1.0008296890898032
21257037 0.08460733765612646 1.000451368337488
21261418 0.08396443532161567 1.000437456699545
21265799 0.08514887543268944 1.0003448870026794
21270180 0.08549299343634434 1.0000519950888718
21274561 0.08557344383205398 1.0000919539088302
21278942 0.08567820921205313 1.000536590552741
21283323 0.08663627682550758 1.0003207428168999
21287704 0.08667304767577552 0.9997971021179098
21292086 0.08633937952895324 0.9998510291624213
21296467 0.08622599502063379 0.9998463298746988
21300848 0.08675620780883982 1.0002440455657926
21305229 0.08665261637303331 1.0002368409763058
21309610 0.08622367810145173 1.0001068147278156
21313991 0.08727935336223792 1.0007363996015364
21318372 0.08813181383785093 1.0001504750197965
21322753 0.08821060302071554 1.0000696757162042
21327134 0.08762764459415777 1.0002171896168763
21331516 0.08836587014228559 1.0004713919870973
21335897 0.08899834366432563 0.9997972236747179
21340278 0.08880540285916935 0.9997133274610189
21344659 0.08875707067245917 1.0001006142442843
21349040 0.08940552413107439 1.0000691600137626
21353421 0.09003378928262211 0.999414093939531
21357802 0.0894899889610452 0.998865662854761
21362183 0.08887030009790638 0.9990286001484929
21366565 0.08865653002503049 0.9993393605419859
21370946 0.0899647356900649 0.9994918687856219
21375327 0.09040061720148193 0.9996826606595696
21379708 0.09068474784361658 0.9994923902508489
21384089 0.09009354579333465 0.9986740943167921
21388470 0.08982463529259888 0.999917873687557
21392851 0.09114721932630747 1.0001451899969394
21397232 0.09133866845621637 0.9994935126958612
21401614 0.0906485281990698 0.9990780777317858
21405995 0.09176943163245317 0.9990583941331911
21410376 0.09197603910841563 0.998639430747973
21414757 0.09181964790757657 0.9983928148449563
21419138 0.09160775719819984 1.0000058717482407
21423519 0.09233142789615154 0.9994140448128966
21427900 0.09237985008871237 0.9993903566329514
21432281 0.09276273196959268 0.9999327071003417
21436662 0.09375234039241148 0.9992935366072042
21441044 0.09311627193668132 0.9986593464648604
21445425 0.09309749773638763 0.9991215116505994
21449806 0.09476273094236967 0.9989062423230716
21454187 0.09522984382969625 0.9986609917620579
21458568 0.09469519092197519 0.9992927815600137
21462949 0.09551780974277713 0.9993396890596414
21467330 0.09550704127767683 0.9992239999068374
21471711 0.0951665723822471 0.9988896264516208
21476093 0.09525559250808904 0.9991402624836087
21480474 0.09580286593337875 0.9989904522925981
21484855 0.09609683862749416 0.9989807078992782
21489236 0.09599816073892233 0.999558537749702
21493617 0.09701207334181061 0.9995915352308158
21497998 0.0974554859995468 0.9996414440654512
21502379 0.09664860131872577 0.9998567805053559
21506760 0.09791712808146445 0.999635657660667
21511142 0.09819452671454396 0.9993402833889478
21515523 0.09760597087222939 0.9992637281078857
21519904 0.09774610223487563 0.9993851909949281
21524285 0.09829229658883028 0.9993572535467375
21528666 0.09804963697445541 0.9985599656639405
21533047 0.09748095114302674 0.9996537372997542
21537428 0.09884638248196555 0.9991912623475734
21541809 0.09894183752190137 0.9990028692722046
21546190 0.09846490451245744 0.9995478011888962
21550572 0.09960048837942695 0.9994799294402521
21554953 0.09996355515387241 0.9993381707914893
21559334 0.09935644868829857 0.9991856457583552
21563715 0.0995187102423889 0.998973028554352
21568096 0.10036264288804188 0.9989533316000027
21572477 0.10017699651781305 0.9986666118708368
21576858 0.1001617130754597 0.9993521349941817
21581239 0.10160993871475445 0.9985944657040786
21585621 0.10126967305829049 0.9987300058177758
21590002 0.10044912675232855 0.9987750029936158
21594383 0.10170763984871398 0.9990865068286532
21598764 0.10111113086225705 0.9981767520725855
21603145 0.10155613406390789 0.998296395575472
21607526 0.10163303952917847 0.9988908058157563
21611907 0.10187035642527477 0.9985781688229243
21616288 0.10213979964325498 0.9988450497381892
21620670 0.10226128115664664 0.9991011665521344
21620670 0.1027557028711345 0.9988653456814869
21625141 0.10287083979500901 0.9991365913531595
21629613 0.10294162319298603 0.9985979278683735
21634085 0.10322897700924229 0.9991759449486944
21638556 0.10447068455861136 0.9989887820780291
21643028 0.10443238422476805 0.9985034430781509
21647500 0.10358363170404605 0.9986080778933694
21651972 0.10311498647053156 0.9983378911083289
21656443 0.10436052700805473 0.9988814865682282
21660915 0.10477003298694862 0.9991478966591233
21665387 0.104815935271573 0.999699242980305
21669859 0.10479605156413498 0.9993665534269096
21674330 0.10464083890263556 0.9994838010256706
21678802 0.10509881054969421 0.9987600505830042
21683274 0.10549578433743534 0.9988178512849645
21687746 0.10544792732877362 0.9986482672645155
21692217 0.10488472094590962 0.9985697110305007
21696689 0.10512221329078567 0.9984948550653757
21701161 0.1063277256858414 0.998497619089787
21705633 0.10677843297283299 0.9979653831514471
21710104 0.10718525398837755 0.9987170984623422
21714576 0.10712923829776942 0.9987542353419138
21719048 0.10681053719755867 0.9983626853610351
21723520 0.10712182039798976 0.9986521085158342
21727991 0.10813405299066436 0.998096913266593
21732463 0.10756545915195535 0.9988127650303767
21736935 0.10762983212641992 0.9989572531586315
21741406 0.1079516511349295 0.9984417588416776
21745878 0.10908704804742989 0.9984871214532369
21750350 0.10907083988449033 0.9983822392901459
21754822 0.10885562445279333 0.9987525899568676
21759293 0.10810441936385942 0.9988274844320341
21763765 0.10872792428132186 0.9984627120972109
21768237 0.1092325124377338 0.9981264232053092
21772709 0.10989898333526119 0.9980050244584633
21777180 0.10957834883740843 0.9979048947371152
21781652 0.1096913404399156 0.9978442118499591
21786124 0.10988201852404093 0.9981344433218208
21790596 0.11094997649242598 0.9984249721509832
21795067 0.11062854300682778 0.9974875840283037
21799539 0.11062391752835266 0.9979999179960094
21804011 0.1111042889326446 0.9983225062057353
21808483 0.11112747536148118 0.9988650920493136
21812954 0.11215352062557353 0.9989044068865885
21817426 0.11145283539527434 0.9987035869347658
21821898 0.111278061221312 0.9985655263853942
21826370 0.1118839977416814 0.9990083607431864
21830841 0.11190137474702443 0.9991168022793216
21835313 0.11238248895616053 0.9990913595024258
21839785 0.11240054948541704 0.9986437112774592
21844257 0.11217578649394304 0.998339272765025
21848728 0.11216854259937271 0.998185489022577
21853200 0.11227705206373616 0.9986607777118521
21857672 0.11338973862302713 0.9981637913662748
21862143 0.11294128235061296 0.9978578557599516
21866615 0.11307097663735041 0.9985677708923533
21871087 0.11318242463139119 0.9985602196594876
21875559 0.1139368368037072 0.9988969488529521
21880030 0.11473019942687084 0.9986388853057909
21884502 0.11523284333891123 0.9984852708650609
21888974 0.11501536599984269 0.9982107336891153
21893446 0.11456064898220848 0.9991875486047398
21897917 0.11546917603025218 0.9985077614907554
21902389 0.11548710154406076 0.9981523912454575
21906861 0.11598377229164775 0.9986238334235671
21911333 0.11562237793260194 0.9987079357988251
21915804 0.11581441450981518 0.9988815996553678
21920276 0.11588701247316359 0.9990766956615097
21924748 0.11590772921559485 0.9973451975955778
21929220 0.11691438693084719 0.9982548369409879
21933691 0.11587892199014961 0.9984895888995263
21938163 0.11776335308071798 0.9980672218828742
21942635 0.11771403278309328 0.9967550714580373
21947107 0.1176309214242012 0.9974353116907728
21951578 0.11717098433352455 0.9976294167680202
21956050 0.11890600104287065 0.9976219489448038
21960522 0.11869244169969377 0.997662997890424
21964993 0.11854761970077406 0.9968484623164374
21969465 0.11881294732365073 0.9967718797494481
21973937 0.11888209719879927 0.9973875545044767
21978409 0.11999410581468173 0.9968955590013836
21982880 0.12003744367231958 0.9964814748304803
21987352 0.12001205080771042 0.9962686799592118
21991824 0.11928769631308558 0.996905953921136
21996296 0.11916091942555951 0.9970270365431948
22000767 0.12072369248930014 0.9976081850688149
22005239 0.12084009386843486 0.9973937910184008
22009711 0.12034562508819954 0.9973281462668363
22014183 0.12042587230081012 0.9974960970547413
22018654 0.1208676913023002 0.9979351406368426
22023126 0.12120333615630612 0.9977937394947848
22027598 0.12183596264717286 0.9975647863055118
22032070 0.12135814813784826 0.9972682682393507
22036541 0.12085335364799596 0.9982220001888304
22041013 0.12169620930454332 0.9977595137019024
22045485 0.1230067954890773 0.9983830620886386
22049957 0.12336449457527769 0.99703891540472
22054428 0.12225021846851881 0.9974640908274758
22058900 0.12193020565519275 0.99767769851143
22063372 0.12310723134764073 0.9975247129428731
22067844 0.12370059395221435 0.9977598097867358
22067844 0.1238206097871759 0.9974842550943122
22072408 0.12415451798705796 0.9969950704899665
22076972 0.1242775866136974 0.9960024088183079
22081536 0.12441570639282604 0.9964358077822157
22086100 0.12367861843768801 0.9964569927149108
22090665 0.12370697499049568 0.9964230951813814
22095229 0.12381662490497977 0.9972404086034189
22099793 0.1248113230521209 0.9973431806036623
22104357 0.12614261664445434 0.997642429372839
22108922 0.1262038097709172 0.9980555122647384
22113486 0.1258313885910902 0.9971184713908006
22118050 0.12664530779993527 0.9969620403362035
22122614 0.12666546757128036 0.9969760627868828
22127178 0.12662053261344788 0.9972867678543053
22131743 0.1261045975156152 0.9970779498502067
22136307 0.12611997114938736 0.9972646787539263
22140871 0.12573682570553316 0.9972070702993958
22145435 0.12612626656744155 0.997805518367047
22150000 0.12717515841170435 0.9974209148455047
22154564 0.1275445822393996 0.9973063934330479
22159128 0.12771341644633252 0.9968084285100229
22163692 0.12834274535561285 0.9968328192825402
22168257 0.12790486147851637 0.9972909308913799
22172821 0.12795607805153833 0.9970491233691483
22177385 0.12817118039975675 0.9967650984240498
22181949 0.1281392700635117 0.996909475652363
22186513 0.12786101526827487 0.9975851306287341
22191078 0.12820272190978907 0.9975452300590071
22195642 0.12929576861081377 0.9971604272439222
22200206 0.12986666752067966 0.9970476255088805
22204770 0.13053905827680842 0.9965830038282404
22209335 0.13032165813215116 0.9966928504237147
22213899 0.1307239849621692 0.996009139404117
22218463 0.1303494334816718 0.9966286746422549
22223027 0.13065711865723587 0.9965299837662266
22227592 0.12995818550073937 0.9964227392698324
22232156 0.12980293698644108 0.9968710165115586
22236720 0.1299301545169283 0.9966381689329723
22241284 0.1306489462213576 0.9955577299225971
22245848 0.13180312220604043 0.9961832637551152
22250413 0.13193517996730708 0.9954448748420976
22254977 0.13226381336022106 0.9956896959074881
22259541 0.13196939897931917 0.9952267521946375
22264105 0.13231061953837459 0.9948623495551715
22268670 0.13306995344552253 0.9952642532189991
22273234 0.13275361197744953 0.995682518505852
22277798 0.13314690527351947 0.9959266432810576
22282362 0.13374390354606552 0.9956470660934277
22286927 0.13354922813349024 0.9953445986816122
22291491 0.133709986833608 0.9950752612989577
22296055 0.13420806123772172 0.9942783909068833
22300619 0.13418132521174453 0.9943342753918639
22305183 0.13433102730478616 0.9955472214253022
22309748 0.13433903794092347 0.9956097519237206
22314312 0.13418981564966712 0.9958075140080471
22318876 0.13478048962088954 0.9953140752747947
22323440 0.13519375578070555 0.9955249052824017
22328005 0.13543820406394036 0.9952711927633329
22332569 0.1351027236982094 0.9954839230390332
22337133 0.13568565268918575 0.9952371313878202
22341697 0.1351174603569325 0.9961211193671472
22346262 0.13546868510919202 0.9963612870022562
22350826 0.13556836133240757 0.9958926787308737
22355390 0.1358467187205539 0.9956264541021139
22359954 0.1362700717599604 0.995825428548756
22364518 0.13584790839277158 0.9963168925678947
22369083 0.13686850673784132 0.9965051360244879
22373647 0.13696514429814352 0.9965883820851388
22378211 0.13737437653697132 0.9967319367070153
22382775 0.13771172755872874 0.996841466927162
22387340 0.13794133882567886 0.9960987449593295
22391904 0.13909645929974057 0.9956421249485324
22396468 0.13942243227561396 0.9954035221019267
22401032 0.13929582668791776 0.9949954685908401
22405597 0.13976729105337468 0.9952205756107102
22410161 0.1399308918196448 0.9950653587198847
22414725 0.13978737338248884 0.9949648913520113
22419289 0.13965139285574496 0.9950349206441098
22423853 0.13997231073134958 0.9948686710855477
22428418 0.14035782586979642 0.9950882566496282
22432982 0.14057296049532508 0.9950233187913691
22437546 0.14027332075084337 0.9952343790133704
22442110 0.1401640828341391 0.9951815683931766
22446675 0.14019681418403143 0.994756842929701
22451239 0.14004553777712125 0.9956020691136429
22455803 0.14009094063011507 0.9954671875651105
22460367 0.13995157868880995 0.9958277629435995
22464932 0.14019979316295925 0.9957684513638458
22469496 0.14139630687983887 0.9955231690423336
22474060 0.14168828261697525 0.9955665770381361
22478624 0.14321128276758327 0.9948976908544079
22483188 0.14261540417528673 0.9949283612979406
22487753 0.14343636368138565 0.994902240220001
22492317 0.1434358969056223 0.9947988919556244
22496881 0.142979608676425 0.9945162042826047
22501445 0.1436322253969183 0.9946005669399985
22506010 0.1438741933571079 0.9941222542713589
22510574 0.14384363913454504 0.9942613544879487
22515138 0.14358697103742507 0.9937252089333117
22519702 0.14386552759186486 0.9936266463983303
22524267 0.14405291104854648 0.9937951245271687
22524267 0.143544017841559 0.9936016217615012
22528925 0.14461588193145702 0.9938277831635159
22533584 0.1452463608662561 0.9939207286839054
22538242 0.14537821230185766 0.9947749565984887
22542901 0.14508011753925196 0.994499816587135
22547560 0.14501979475040033 0.9943843576969315
22552218 0.14523042121751364 0.9940934760963827
22556877 0.14487963765753833 0.9945037852037426
22561536 0.14488796152464434 0.994327391241416
22566194 0.14520260971566615 0.9941464971531019
22570853 0.1455239245346502 0.9943184680925942
22575511 0.14622426624162135 0.994403656872328
22580170 0.14648329971276897 0.9935737577927466
22584829 0.14640454896642024 0.9936361762455947
22589487 0.14738015406332133 0.9940680289879785
22594146 0.14715103158354234 0.9949189488699447
22598805 0.1476451924959503 0.9945021491849129
22603463 0.14788681682788918 0.9943092461500596
22608122 0.14797400611245737 0.9943686627788322
22612780 0.14835925712602324 0.9946108158335003
22617439 0.14853002649342456 0.9943179822589335
22622098 0.14854575866032052 0.9943324535407292
22626756 0.1488197743412743 0.9943397868726976
22631415 0.14910638614028845 0.9940290806504714
22636074 0.14911295724252369 0.9939358309987733
22640732 0.14922314201478024 0.9944175998597126
22645391 0.1499291517557701 0.9951935601196849
22650050 0.14972089769848726 0.994564597094247
22654708 0.14993069509104184 0.9949521548914346
22659367 0.14976593917225517 0.994386476634
22664025 0.15055839266588683 0.99442353980074
22668684 0.15043538933791314 0.994845959715775
22673343 0.15064622771168562 0.9946838502155523
22678001 0.1506991052160278 0.9939368659071965
22682660 0.15014955415422268 0.9939474569850919
22687319 0.15110124016747536 0.9943298857809377
22691977 0.1509823422168461 0.994306803795679
22696636 0.15068867996294816 0.9944233209712817
22701294 0.15116035682855558 0.9939589994990891
22705953 0.151262899002261 0.9943751368069337
22710612 0.15116691472365965 0.9945760873277213
22715270 0.15154668325128642 0.993846546540924
22719929 0.15161512726243132 0.9938966365558368
22724588 0.15200132632732746 0.9940388394153599
22729246 0.15202206886674943 0.9937591615604179
22733905 0.15213799898021718 0.9932014960724643
22738563 0.15248688275007397 0.9928833883122316
22743222 0.15339975981363502 0.9931394008066399
22747881 0.1534470302653826 0.9930357295786387
22752539 0.15396164593915984 0.9933647946773522
22757198 0.15399664594865575 0.9933066958320523
22761857 0.1545285799224061 0.9939293214326558
22766515 0.15457166022836996 0.9937475312273201
22771174 0.15531649941750697 0.9937466139702412
22775833 0.1555582640252759 0.9933661976585106
22780491 0.1555293702243666 0.9933961736910022
22785150 0.15558188155014835 0.9938504751600168
22789808 0.15565738845328583 0.9931446436492336
22794467 0.15602508596893233 0.9932444337596303
22799126 0.15580751386581196 0.9932785792700564
22803784 0.15608361607354537 0.9937623675183777
22808443 0.15631864427439968 0.9938461056141057
22813102 0.15611362434665021 0.9940255882301953
22817760 0.15607239844601487 0.9941981610356956
22822419 0.15600947915440894 0.9936663342248874
22827077 0.15689540004548885 0.9933549065845578
22831736 0.15739352111685231 0.9935307088218756
22836395 0.1574015569320817 0.9938828671128869
22841053 0.15774933930598856 0.9934938748734626
22845712 0.15832784333454392 0.9936496946807196
22850371 0.15837600960014414 0.9939712905691348
22855029 0.15813047295189162 0.9938588643096975
22859688 0.15835674384032578 0.993170442283059
22864346 0.15838614038717264 0.9934108902491826
22869005 0.15901435160547595 0.9931877730899923
22873664 0.15941404348874297 0.99372322018839
22878322 0.15939681546364365 0.9934135043442897
22882981 0.15958458644441287 0.993162557053455
22887640 0.15946501794190665 0.9935170883084088
22892298 0.15939024735651286 0.9930955262772889
22896957 0.1596579347996879 0.9933056740914817
22901616 0.16021412053199324 0.9928698690280412
22906274 0.15974909951661387 0.9923040367396524
22910933 0.16022521304145163 0.9926064861819943
22915591 0.16058054690751464 0.9921683639329797
22920250 0.16110781491437187 0.9922589495858095
22924909 0.1612978173102522 0.9923449397699176
22929567 0.16141679360372022 0.9922396049720266
22934226 0.16195608835443684 0.9922536300641744
22938885 0.16171840902365692 0.9930106402873768
22943543 0.16186474670164044 0.9928592688265604
22948202 0.16172927294297626 0.9928116910471488
22952860 0.16172821447084093 0.9926486713094939
22957519 0.16259061242868783 0.9927768478930385
22962178 0.16292904703129907 0.9925903528899134
22966836 0.162650775048164 0.9931669088727088
22971495 0.1628297242695455 0.992033143310116
22976154 0.16280526886977878 0.9918925635702941
22980812 0.16302050543719762 0.9915799729538841
22985471 0.16291794707508683 0.9914981097872746
22990130 0.16332066005451695 0.9916755172243077
22990130 0.1623782078225623 0.9917314185041887
22994884 0.1626618129817152 0.9920439632644399
22999639 0.1636248605692416 0.9921028946035123
23004394 0.16422994104276922 0.991748974470124
23009149 0.1635073478692182 0.9923156549674534
23013904 0.1644066525796162 0.9919340342639417
23018659 0.16495201470732765 0.9922696365984117
23023414 0.1649280532580972 0.9925321897414463
23028169 0.16550186101809602 0.9919953121265833
23032924 0.16583866027682104 0.9922368518996445
23037679 0.16565560146128136 0.9920432748090564
23042434 0.16498182875876463 0.9909844446719187
23047189 0.16524528135838434 0.990803403688651
23051944 0.16577480857663052 0.9913482359210241
23056699 0.16660836021762704 0.9914495883566539
23061454 0.16751425965797806 0.991213669399354
23066209 0.16775954195920081 0.9914395423229863
23070964 0.16795973054427568 0.9911810883383255
23075719 0.16810369794920146 0.9911360154490192
23080474 0.16821754463375868 0.9901621338439787
23085229 0.1686032951624731 0.9913496380369375
23089984 0.16822071255481483 0.9915812922876626
23094739 0.16760012375325978 0.991897426286624
23099494 0.16787984273720138 0.9913575591414371
23104249 0.16827792177429438 0.9906370242954435
23109004 0.16870211083656975 0.9908138741480477
23113759 0.16947874305336236 0.9906989631258406
23118514 0.16995379901484506 0.9902321271290654
23123269 0.1698995095047837 0.9907458608466958
23128024 0.170070350701538 0.9914282345891158
23132779 0.17055010396720716 0.9908448023702938
23137534 0.17060907613262433 0.9910850374166352
23142289 0.17049914902440647 0.9918195960000667
23147044 0.17052940027226318 0.9915841042088226
23151799 0.17020684828247176 0.9911345531697404
23156554 0.17112177765416015 0.9908413947297184
23161309 0.17076987985660927 0.9904838716719938
23166064 0.17134092933320083 0.990561746469857
23170819 0.17181381142979926 0.989837986710669
23175574 0.17240351357856684 0.9906851332374996
23180329 0.17279751323127152 0.9909969682007496
23185084 0.17228285427165335 0.9903944891288161
23189839 0.17282122786825657 0.9910922636799051
23194594 0.17302178306285076 0.9911582721733021
23199349 0.17304687248177714 0.9908270678508422
23204104 0.17239686046022412 0.9899426876802325
23208859 0.17261387464904698 0.9898668080510926
23213614 0.17384175700329912 0.9901484994864458
23218369 0.17386288938891584 0.9898682765929042
23223124 0.17443467938886498 0.9894621661798577
23227879 0.1743115507256609 0.9893541119783611
23232633 0.17500643172258276 0.9890254066675825
23237388 0.17527600993706824 0.9900274460417112
23242143 0.17440142055064467 0.9899633739770155
23246898 0.17504615739628873 0.9895982079503426
23251653 0.17545892335359245 0.9895971661182601
23256408 0.17498164605126124 0.9890922283458672
23261163 0.1753617767810626 0.9889165713683455
23265918 0.17603343150678086 0.9888646808210217
23270673 0.1764089940852627 0.9886100731162479
23275428 0.17724188309330952 0.9892645548563271
23280183 0.17682099466065085 0.989278968222466
23284938 0.17735969917083433 0.9893948158443961
23289693 0.17694851378936158 0.9898191499381191
23294448 0.17699778569679722 0.9899803118175666
23299203 0.17645939954894949 0.9896697305589544
23303958 0.17688326417527392 0.9895838620541716
23308713 0.17736810136327205 0.9893653196237845
23313468 0.17740006697802738 0.989309071400048
23318223 0.17769152861868975 0.9885156661783902
23322978 0.1782099309112821 0.9877967511266145
23327733 0.17859125739851345 0.9877835137473275
23332488 0.17955188761598384 0.9876815566135307
23337243 0.18030474556382475 0.987911133838322
23341998 0.17990815947162211 0.9879261065089077
23346753 0.1795924717734538 0.9881163990830869
23351508 0.17892024031218218 0.9880146361344065
23356263 0.1790959129586701 0.9886019284251353
23361018 0.17891249658172992 0.9887555667699246
23365773 0.18011809092088849 0.9889700238216016
23370528 0.18025354816405337 0.9888451963518359
23375283 0.18097298165228057 0.9882189380727169
23380038 0.18119656770365106 0.988301125157428
23384793 0.18199718093338443 0.9879804338492981
23389548 0.1820597787706837 0.9878971403507391
23394303 0.1824676435834865 0.987831047937771
23399058 0.18268438983405477 0.9881707843226433
23403813 0.18255302295285192 0.9879958560494628
23408568 0.18208094537064753 0.9882274218127222
23413323 0.18150646500401602 0.9879753018608317
23418078 0.18168374001508575 0.9876470137613349
23422833 0.18281364721479884 0.9873208276376624
23427588 0.18317343459840674 0.9873160459946144
23432343 0.18403292738172528 0.987286644973516
23437098 0.1841327408611843 0.9868669048524253
23441853 0.1844393354583661 0.9868991501551111
23446608 0.18460216236659469 0.9873459160430944
23451363 0.1841267345898726 0.9871272191347115
23456118 0.18406990893480724 0.9871593010698613
23460873 0.1846061030039058 0.9872766752057226
23465628 0.18443271820290896 0.9868056095935545
23465628 0.18473849692367975 0.9873587357403208
23470481 0.18475949635359962 0.9863604371553661
23475334 0.1850584473772187 0.9869509711285581
23480187 0.18498211500279413 0.9873030865509664
23485041 0.18513523128280762 0.9868845659752847
23489894 0.18592348688793905 0.9859139996686623
23494747 0.18690051132304378 0.985889172936427
23499601 0.18605456417737676 0.9861604762617994
23504454 0.18662213069203787 0.9857408931299475
23509307 0.18741419874252738 0.9856153908618126
23514161 0.18853378292723608 0.985937463612458
23519014 0.18765034952316298 0.9866276164369835
23523867 0.18851899810248973 0.9862086624858936
23528721 0.18873842916368685 0.9862053326552014
23533574 0.1878312426236622 0.9869160165000737
23538427 0.18851599463605598 0.9860467765997504
23543281 0.18827497842330035 0.9856309064926371
23548134 0.18790782770916797 0.9858580549792385
23552987 0.18876009382925846 0.9852777697543431
23557841 0.18892327782997242 0.9855225280756789
23562694 0.18975910445009667 0.9846204914436338
23567547 0.18937300310803887 0.9855152624572099
23572401 0.18987846496693936 0.9850889258868697
23577254 0.19044640918446182 0.9843294512002276
23582107 0.19045591613471596 0.9851790184718877
23586961 0.1902747055119864 0.9857395184248063
23591814 0.19060251666657768 0.9852639520572821
23596667 0.19084047771553622 0.9849204557804234
23601521 0.19083537111480464 0.9860285945895583
23606374 0.1909611978892954 0.9857657408887308
23611227 0.19184428563391953 0.9850770904085724
23616081 0.1916316899385324 0.9848829876839963
23620934 0.19139346337813293 0.985142267733075
23625787 0.19179179424043166 0.9840036111227273
23630641 0.19228519014332524 0.9842693811892019
23635494 0.19213702594691165 0.98444433289033
23640347 0.19295915296318888 0.9837628289707473
23645201 0.19334713059011951 0.9831799668059673
23650054 0.1931090743714585 0.9833363873546133
23654907 0.19328878311307215 0.9835140724420725
23659761 0.1943489815059533 0.9833088479792395
23664614 0.1942095696038504 0.9836312102416812
23669467 0.1940515539993794 0.9838800294129261
23674321 0.19443052030686964 0.9844267515152155
23679174 0.19475024046221354 0.9836431042158518
23684027 0.19435407146591097 0.9836810362949252
23688881 0.1943722806248162 0.9840610136130866
23693734 0.19529284686803858 0.983745999106245
23698587 0.19533677664214807 0.9833102123127527
23703441 0.19544979321472933 0.9834440450233697
23708294 0.19585028354002737 0.9832583795857831
23713147 0.19593263334805094 0.982460588301042
23718001 0.19681603020113592 0.9830659276265471
23722854 0.1972296223249232 0.9822676979068011
23727707 0.19728411777987015 0.9831592408054286
23732561 0.19706348834058668 0.9831754083616532
23737414 0.19699916009275367 0.9833350304256638
23742267 0.1971517125689368 0.9831331482213462
23747121 0.19750952176288145 0.9826377702431688
23751974 0.19767618409841894 0.9815552847549309
23756827 0.19822426180968167 0.9821102988403966
23761681 0.19741467497020018 0.9826873557049804
23766534 0.19766447734248369 0.9822032375199398
23771387 0.19833462441458435 0.9820702394683807
23776241 0.19873990650065054 0.9818997898032658
23781094 0.1985590528895195 0.981547773964161
23785947 0.19890277827163122 0.9815303781702313
23790801 0.19935681157037935 0.981665740697162
23795654 0.1994072034781367 0.9813277189025694
23800507 0.19968910448314695 0.9809356190912941
23805361 0.1999513009037297 0.9807698921059536
23810214 0.19978802060474238 0.9817165783227951
23815067 0.19997597596603978 0.98162076318092
23819921 0.2001361815485289 0.9810048921240629
23824774 0.20102004640523813 0.9808438873386598
23829627 0.20092021224661122 0.9802994465085001
23834481 0.2016543434470891 0.9805165335503172
23839334 0.20177667509320713 0.9811319633531232
23844187 0.20180486508629183 0.9811986877455025
23849041 0.201190683876112 0.980475865154352
23853894 0.2021956977107088 0.9795775514684288
23858747 0.20237259623157697 0.9796989883739586
23863601 0.20219204457003143 0.9794864491110303
23868454 0.20289334377182247 0.9800220220651008
23873307 0.20354729586573617 0.9793126385242952
23878161 0.20338352010313213 0.9788661757062672
23883014 0.2030983898888686 0.9789877796881911
23887867 0.20382943249922708 0.9796023741208276
23892721 0.20399998309792575 0.9801904074791811
23897574 0.20410611284913446 0.9796491102039485
23902427 0.20467138040429633 0.9788837595361859
23907281 0.2042487131684792 0.9792772196346641
23912134 0.20478220312043108 0.9794753932384284
23916987 0.20448504568325968 0.9793037287227125
23921841 0.20544930505092618 0.9788880277348504
23926694 0.20501470385968412 0.9787557763234732
23931547 0.20486010347154612 0.9781925275803868
23936401 0.20556386927846287 0.9788288831502903
23941254 0.20554076498655358 0.9796320671831344
23946107 0.20586331921666715 0.978927793564442
23950961 0.20660906082779407 0.9786759471714285
23950961 0.206042808467607 0.9786090351309847
23955914 0.20609595617474885 0.9790812904541202
23960868 0.206595726444922 0.9780424130447926
23965822 0.2061998793208728 0.9781971219986081
23970775 0.20673346595913955 0.9782832638835858
23975729 0.20696198559764573 0.9776730596521985
23980683 0.2074674956064981 0.9778622502673063
23985636 0.20789088713535853 0.9786615703653476
23990590 0.20832270824929155 0.9786718150517375
23995544 0.20882005249780797 0.977750905914812
24000498 0.20833960533016188 0.9783200894060723
24005451 0.20861171285913702 0.9779278749778028
24010405 0.20858116786140807 0.9778143039434117
24015359 0.20869197331979333 0.9772775677731298
24020312 0.20922120237770514 0.9771421692480803
24025266 0.20973016255330584 0.9765487343407877
24030220 0.2092116800961099 0.9758214329358933
24035173 0.2098435435084286 0.9769237486575191
24040127 0.21063036004935531 0.9774703099103195
24045081 0.2102885888097923 0.9767807561142151
24050035 0.21025892945056704 0.9771916918052194
24054988 0.21091182135482542 0.9774742939512592
24059942 0.21045610943927665 0.9769151503545517
24064896 0.21035979465271518 0.9767524034654599
24069849 0.21158244680074867 0.9773615130051354
24074803 0.21059656018303188 0.976930254148089
24079757 0.21056063954057264 0.9767944540333963
24084710 0.21237238979129708 0.9765499489310189
24089664 0.2120080830509252 0.9760206741835057
24094618 0.21206100174262024 0.9753303986831341
24099572 0.21270053868393343 0.975643768734993
24104525 0.2124857900258827 0.9760026919072499
24109479 0.21271993964246286 0.9752536601170733
24114433 0.21324814391739602 0.9751932107334016
24119386 0.21328010039855555 0.9757187000988398
24124340 0.21303122773329883 0.9755829540542345
24129294 0.21332822473949054 0.9755084822960342
24134247 0.21434427745426438 0.9756878115723484
24139201 0.2145923460630129 0.9760336667564505
24144155 0.21468533546698443 0.9752246397793047
24149109 0.21552172773231068 0.9757301842816273
24154062 0.21534426607222185 0.9754818649379973
24159016 0.21500897112344444 0.9748215621627374
24163970 0.21544748253100676 0.9751460731343174
24168923 0.21529897489893282 0.9750489193201197
24173877 0.21575094527486433 0.9743591407780172
24178831 0.21564989111352584 0.9739407034721942
24183784 0.21634621075027022 0.9737405372938699
24188738 0.21606413906407923 0.97309250432916
24193692 0.21525372957976263 0.972106854885852
24198646 0.21601491889089133 0.973174063877557
24203599 0.21676544107815918 0.9728291471871024
24208553 0.21596123981246768 0.9729857204035139
24213507 0.21634463410770957 0.9735486877364814
24218460 0.21748869381951855 0.9739137824918361
24223414 0.2168994603209791 0.9739845651590403
24228368 0.21775279279727436 0.9739839554414124
24233321 0.21910595637926478 0.9745424826245249
24238275 0.2192301030433493 0.9747220827637831
24243229 0.21856497967800212 0.9735601434539903
24248183 0.21970869756590786 0.9737987388191326
24253136 0.21930244995693643 0.9729137145944484
24258090 0.21935643585966935 0.9732972804693613
24263044 0.22079144859867525 0.9731679981993167
24267997 0.22084273028970122 0.9733195727500086
24272951 0.21996145311635373 0.9731488276216133
24277905 0.22015248118793684 0.9729610019726161
24282858 0.22084194258947012 0.9733939108985318
24287812 0.22047461837060117 0.972771386603875
24292766 0.22125066894134854 0.9726441748092882
24297720 0.22237208458193697 0.9729796972298987
24302673 0.22223730710990117 0.9721622802985845
24307627 0.22288510115784613 0.9716688295674576
24312581 0.22259935323862054 0.9729717245850898
24317534 0.22292692765036184 0.9718621153694731
24322488 0.22290260660892663 0.9716965947343477
24327442 0.22278127923813973 0.9720823728981561
24332395 0.22244927420875008 0.9724839335003214
24337349 0.222552585252546 0.9719169121445775
24342303 0.22294071797094134 0.9725852607101669
24347257 0.22379836275508155 0.9722867347389309
24352210 0.22386537525116298 0.9725966583414835
24357164 0.22354840940250342 0.9727403716996281
24362118 0.22364130612716726 0.9726821929137768
24367071 0.22337747392849394 0.972219075243849
24372025 0.2237548476955941 0.9717966512507612
24376979 0.22405202058317533 0.9727709126636328
24381932 0.22455057443675677 0.9724281332825334
24386886 0.22467712743102372 0.9722947777951818
24391840 0.22491146589820932 0.9715760904527758
24396794 0.22576099347929204 0.9703974956507367
24401747 0.2259280501531034 0.9711911568952324
24406701 0.22646258521190932 0.9713144447800287
24411655 0.22762655575880966 0.9703051051169168
24416608 0.22727696125242725 0.9709267027887905
24421562 0.22733920458771875 0.9711978564166869
24426516 0.22718857267296078 0.9712228857101954
24431469 0.22752412624070995 0.9709469483884469
24436423 0.2272128480368854 0.9715062447362598
24441377 0.22737862142436252 0.9716584930518603
24446331 0.22777099003737622 0.9714875379396927
24446331 0.2277043385865225 0.9712931868067023
24451387 0.2278394536863673 0.971030723953596
24456443 0.22795379037730412 0.9709188618949006
24461499 0.22889403056878432 0.9698886416725302
24466555 0.2286345364072586 0.9709412043476336
24471611 0.2287731790559908 0.9702899164465387
24476668 0.22883071540448505 0.9708866968518021
24481724 0.2294356386001007 0.9707953833788747
24486780 0.22986555329579408 0.97009181006768
24491836 0.23054696219677207 0.9695935862899064
24496892 0.23133665559598873 0.9692720772305573
24501948 0.23080530897568166 0.969465608043968
24507005 0.23099546093320533 0.9693513100837091
24512061 0.23001619588455852 0.9693041783291998
24517117 0.23100853357305295 0.9698159648435064
24522173 0.2317057536504503 0.9699512142617093
24527229 0.23167648125679247 0.9697182173663367
24532285 0.23280695967464798 0.9695148296150286
24537342 0.2323109247366365 0.9695462131769342
24542398 0.23285823677372863 0.9694803647804919
24547454 0.2328458401539516 0.9698428731660896
24552510 0.23295346202557143 0.9693551341670917
24557566 0.2334015213860525 0.967928201224258
24562622 0.2326224804731626 0.9681029249604751
24567679 0.2331839211149065 0.9672625015789253
24572735 0.23313674264229203 0.9682771859669449
24577791 0.2337684300805439 0.9681056797276433
24582847 0.2333281574180418 0.9684598233466922
24587903 0.23420370648325206 0.9684954861719924
24592959 0.23489049061278214 0.9680630501619324
24598016 0.23434924893952444 0.9684127103862356
24603072 0.2345355416698414 0.967802283423363
24608128 0.23482578169582125 0.9690498189266823
24613184 0.2351871879631629 0.9684765608117498
24618240 0.23559377976422596 0.9685753475382064
24623296 0.2356456505327993 0.9688018104927709
24628353 0.23636666899595413 0.9678342287315959
24633409 0.23596311215352575 0.9683734961489393
24638465 0.23622151929390023 0.9671791159612904
24643521 0.23640666032794277 0.9675226433377151
24648577 0.23654031543352982 0.966712281755413
24653633 0.2370206549882917 0.9661267928174225
24658690 0.2366909247680868 0.9672093931069081
24663746 0.23791891094645976 0.966795463628049
24668802 0.23807156649764324 0.9673198402306804
24673858 0.23847098881508458 0.9666616444072876
24678914 0.2383904516301712 0.9663613724919677
24683970 0.2382785084972371 0.9660617332526721
24689027 0.2388096459592827 0.9655413560476305
24694083 0.23818417410776627 0.9666785171365347
24699139 0.23866091463539812 0.965796803906215
24704195 0.2386646984901846 0.9670528374981725
24709251 0.23890101094323468 0.966523556372391
24714308 0.2401061063612811 0.9660334356494925
24719364 0.24004912423131836 0.9665087731261848
24724420 0.23988872706576456 0.9657698333483654
24729476 0.24027028285305083 0.9666963114633278
24734532 0.24092880340987063 0.966482372770967
24739588 0.2410830059283223 0.9659840325875158
24744645 0.2410226316659883 0.9660743947224684
24749701 0.2417485126549099 0.9652746763123746
24754757 0.24153538872753327 0.9654636570640435
24759813 0.24149855410925727 0.9647802895252319
24764869 0.2420122990162122 0.9650844440180433
24769925 0.24210590342242994 0.9652399496529565
24774982 0.24238434600963327 0.965149183924237
24780038 0.24220572169342505 0.9652258656516912
24785094 0.24263545868287398 0.9654009805540277
24790150 0.24242676707621502 0.9654437117360382
24795206 0.24356863413793842 0.9650609240926679
24800262 0.24354929698952515 0.9653202874141085
24805319 0.244563405818107 0.9649813174685823
24810375 0.2444709145806647 0.9650921709119165
24815431 0.24436531613513227 0.9650629945467701
24820487 0.24409696985476573 0.9655242637928868
24825543 0.24492187088355588 0.9646467799050183
24830599 0.2447706803081782 0.9650365182464042
24835656 0.24520266513812947 0.9636840876124515
24840712 0.24456126065114117 0.9643089211766128
24845768 0.24502209894005786 0.9630770466183031
24850824 0.24468653695207176 0.9640635517446071
24855880 0.2452600745906229 0.9632515280925172
24860936 0.24527232000106877 0.9635460194185765
24865993 0.24622795695306593 0.9630680582148146
24871049 0.24646924224902486 0.9638529049474973
24876105 0.2473791599545396 0.9632836082001409
24881161 0.24707387489885774 0.9638635066584883
24886217 0.24741643969552773 0.9635659452562617
24891273 0.24761256921039757 0.9635260255559317
24896330 0.2478034358275935 0.9633597758410382
24901386 0.2477344553855029 0.9633977864283666
24906442 0.24770902259549155 0.9623073957917625
24911498 0.24821385927602274 0.9628708216545141
24916554 0.2478328242545825 0.9626817527344019
24921610 0.24832182637325032 0.9629333796705608
24926667 0.2483651468773738 0.9622928585453713
24931723 0.248574074013562 0.9626242928913283
24936779 0.24898436416886632 0.9626613546447802
24941835 0.24943700953577516 0.9631780350168183
24946891 0.24942010292588013 0.96280552426231
24951948 0.24995926350644784 0.9624136839212033
24951948 0.24971857062233013 0.9624634003610234
24957108 0.25010654319881737 0.962510570812901
24962269 0.2500508858929064 0.9620714952846474
24967430 0.25027539336375265 0.9617044725256239
24972590 0.25067348811321927 0.961887860721935
24977751 0.2506824096902357 0.9623635300882862
24982912 0.251448500773187 0.9625050522892058
24988073 0.25126430503090136 0.9624190706896254
24993233 0.25219032660699153 0.9627406364620602
24998394 0.2523848006342182 0.9627991798380151
25003555 0.25256658734754805 0.9629765596666019
25008716 0.2530072365992606 0.9613771902622215
25013876 0.25301218082268073 0.9620100449455818
25019037 0.2528921061018522 0.9612153128584215
25024198 0.2531462595746189 0.9614342544732285
25029358 0.25349489050046714 0.9612344141670837
25034519 0.25385807636021346 0.9616144407575111
25039680 0.2540457093071854 0.9611733892239044
25044841 0.2538488306664368 0.9614426794731342
25050001 0.25418827352517775 0.9610210286082675
25055162 0.2541694758274298 0.9608789420910928
25060323 0.2549363378654203 0.9609099219551296
25065484 0.25519335590460646 0.960296403487639
25070644 0.2553642009498927 0.9612796076126745
25075805 0.25583907188237004 0.9606586051973037
25080966 0.2553323147506268 0.9612715037334139
25086126 0.2556961114283045 0.960642586325598
25091287 0.2561197879808285 0.961051367250976
25096448 0.25618920626407093 0.9612818245834787
25101609 0.2563214290102363 0.9610252130393925
25106769 0.25717750776333353 0.9609395010815708
25111930 0.2570203016514381 0.9596345931754219
25117091 0.2577732827239605 0.9594193372511652
25122252 0.25765655083008304 0.9596162722144744
25127412 0.25833527494262537 0.9596205711627003
25132573 0.25822140306762537 0.9595057440106082
25137734 0.2586687779974501 0.9597069103338087
25142895 0.25882064865583665 0.9591647785019924
25148055 0.2595788314932859 0.9596926429656322
25153216 0.2596770578834569 0.9593578455030323
25158377 0.25968585301492125 0.9598287691094428
25163537 0.2597950626491036 0.9589338194799689
25168698 0.26022533204910875 0.9594784687473
25173859 0.26054126663756716 0.9590690085448556
25179020 0.26067677582183696 0.9595001560534836
25184180 0.26071700590018954 0.9590085163373918
25189341 0.2612268925081225 0.9591594893188509
25194502 0.2610097827894371 0.9587015401108342
25199663 0.26135481930686205 0.9586152373837008
25204823 0.2611274664610356 0.9577884388395824
25209984 0.2623629249381396 0.9579201286747887
25215145 0.2619657342452095 0.9578410860704957
25220305 0.2629431608535623 0.9580703974305431
25225466 0.2626251347055881 0.9572579073671538
25230627 0.2629528830392379 0.9584518848725807
25235788 0.26267351533751926 0.9582724475291102
25240948 0.2631965579318533 0.958481640530661
25246109 0.26366639424220134 0.9580088229609964
25251270 0.26429321314272364 0.9579750397302617
25256431 0.264429310194896 0.9578890822344446
25261591 0.2639407319870049 0.9580207074692066
25266752 0.26415186051881806 0.9581998889348389
25271913 0.26374787420035556 0.9575878596517844
25277073 0.2645820168867535 0.9572509577865551
25282234 0.2652081240857631 0.9572133401084475
25287395 0.26582590785701976 0.9569315026825044
25292556 0.26577820267263624 0.9567527896228764
25297716 0.26551223943566976 0.9569466180993353
25302877 0.26597271190974925 0.9574995193932542
25308038 0.2661157701048804 0.9577017159056789
25313199 0.26611925115141816 0.9574206353389467
25318359 0.26619576459042754 0.9569784517168431
25323520 0.26676592080992617 0.9568670898516645
25328681 0.26687943084216176 0.956887425450575
25333842 0.26753450455734323 0.9571344558748116
25339002 0.26826463428158737 0.9567316540319241
25344163 0.2681126408276602 0.9569326610086036
25349324 0.26821772550111805 0.9570150288007375
25354484 0.2676338263401096 0.9570480370588961
25359645 0.2680624425506723 0.9569219186289938
25364806 0.26869291147596586 0.95643660334073
25369967 0.2685316856362363 0.9555568386968541
25375127 0.2694233467197475 0.9550532145006783
25380288 0.26957847889081743 0.9555798283995234
25385449 0.27037214198129705 0.9555859277011031
25390610 0.27079036721943783 0.95536511822988
25395770 0.27039921378517906 0.9558022783222553
25400931 0.2705867606368414 0.955398867465431
25406092 0.2706437996221898 0.9557782281343158
25411252 0.270650396072726 0.9557708837832596
25416413 0.27083726266567537 0.9560354273815105
25421574 0.27145280414072254 0.9563554291925921
25426735 0.27135366022748275 0.9563990361519766
25431895 0.2717111930726388 0.9561314784273877
25437056 0.27200513922298203 0.9560779994200811
25442217 0.2726975007177534 0.9552744884430584
25447378 0.2723685061529219 0.9557294769214372
25452538 0.27247335731984496 0.9547042495580219
25457699 0.27292499413523874 0.9540005702208292
25462860 0.27323476456094026 0.9539807493140983
25468021 0.2730021979724862 0.9542886061364426
25468021 0.2728947365276368 0.9540593754904688
25473288 0.2740033544811947 0.9546783661178643
25478555 0.27382550879423984 0.9549259709399931
25483823 0.273906152804381 0.9544403837480747
25489090 0.2738838263192243 0.9551446545172844
25494358 0.2736535952443746 0.9543253165544727
25499625 0.2747850558082751 0.9544767143400611
25504893 0.27436558409239026 0.9542799480627104
25510160 0.27495211178278983 0.9543358119552623
25515428 0.2749821121366094 0.9538325287737597
25520695 0.2752839601037991 0.9539073282683579
25525963 0.27527453803085605 0.9537327637344073
25531230 0.27584027684882934 0.9540446908406643
25536498 0.2757605425391583 0.953664593959643
25541765 0.27632829789908375 0.9535622910872118
25547033 0.2761523279213583 0.953801020207865
25552300 0.27648001790259435 0.9534354886181355
25557568 0.27662099432224324 0.9528465498409704
25562835 0.27774627146545844 0.9529269550160069
25568103 0.27784150903081767 0.9526016154764325
25573370 0.27764062564788744 0.9527731156173224
25578638 0.2778479349393306 0.9532596761319541
25583905 0.2783037926721532 0.9530018038081217
25589173 0.2785491125075645 0.9528163494236362
25594440 0.2787587105328301 0.9524315327049434
25599708 0.278581026601274 0.9516541184445011
25604975 0.27963400194538823 0.9527595567174518
25610242 0.2800085056832411 0.9520108129945284
25615510 0.2801026309830363 0.9522177870934058
25620777 0.27993456801440686 0.9528733181957636
25626045 0.28048237767893014 0.9526721643297743
25631312 0.2801195460646879 0.9529158779669749
25636580 0.280499767642855 0.9522260094407885
25641847 0.2808412857878176 0.9520302604923371
25647115 0.28077788100830703 0.9520000911980371
25652382 0.2817406064859941 0.9507829776197995
25657650 0.28148471947237486 0.9517223611015568
25662917 0.2813502582500102 0.952164708048707
25668185 0.2821649089648017 0.9520110032399773
25673452 0.2819399031041701 0.9518573958716405
25678720 0.2821873023866228 0.9514100051667527
25683987 0.2825518667890481 0.9511912556824863
25689255 0.28279593834642136 0.952115809444391
25694522 0.2837499514471426 0.9511492582027021
25699790 0.283100922048793 0.9509484608330266
25705057 0.2835519880495523 0.9511600879018118
25710325 0.283893945423367 0.9509313470709806
25715592 0.2830912204250028 0.9507818610574582
25720860 0.283322700481164 0.9514880068391833
25726127 0.28411089166521486 0.9504535052986928
25731395 0.28450532060200273 0.9503915290832585
25736662 0.28526027991783953 0.9503216997447355
25741929 0.28530011544052813 0.950718494854436
25747197 0.28543344296000966 0.950927605013384
25752464 0.2856133090550814 0.9509566225156654
25757732 0.285576530213417 0.9514634258898433
25762999 0.2864654382815854 0.9506416040696221
25768267 0.28639912722339894 0.951054860259299
25773534 0.2866625811329153 0.9507156228911412
25778802 0.2874310945434287 0.9502696802334868
25784069 0.28737147344948505 0.9502636803960277
25789337 0.28773696013091266 0.9499507360736063
25794604 0.28817394135809427 0.9497114961953227
25799872 0.2883791657051562 0.9502378700945244
25805139 0.2892440310858231 0.9502023257379701
25810407 0.2887258516916005 0.9498216217601607
25815674 0.2884306420072505 0.9507315629605425
25820942 0.2883945113593578 0.9500315461179268
25826209 0.28891923282160675 0.9495481071700339
25831477 0.289134240173205 0.9504809961746251
25836744 0.2892771068328749 0.9499358067925673
25842012 0.29033458841031856 0.9500922334024168
25847279 0.28974251835142456 0.9505180301917522
25852547 0.28995200911399605 0.9495608213521141
25857814 0.2897084471364513 0.9491179121435707
25863082 0.2903376026095183 0.9499337316139014
25868349 0.2905646606392882 0.949947840186013
25873616 0.2908573990729503 0.9495481753441454
25878884 0.29080974600861714 0.949703503384513
25884151 0.29139352360706783 0.9487993977100881
25889419 0.29099430986017527 0.9486367049213132
25894686 0.29193505095235966 0.9483049416926445
25899954 0.29209116128566615 0.9484431003767515
25905221 0.2923750555210859 0.9490385669546333
25910489 0.2930840196007793 0.9494295498591372
25915756 0.2929977020255255 0.9486015990264101
25921024 0.2927276178813819 0.9495865295054039
25926291 0.2927921998285607 0.9493468774768277
25931559 0.29354247188393756 0.9482427578609076
25936826 0.29340873594192113 0.9486309543057417
25942094 0.2938141295984544 0.9479588097485229
25947361 0.2940033106965769 0.9476273540935247
25952629 0.29428559248501407 0.9482708900065632
25957896 0.29451982977621805 0.94876470178295
25963164 0.29510350868795315 0.9480728752921826
25968431 0.29521135980859853 0.9482804299580943
25973699 0.295452058951676 0.9482594877763337
25978966 0.29596426862688346 0.947412721187677
25984234 0.29580233326791366 0.9479693735220416
25989501 0.29584202306932417 0.9477349307622714
25994769 0.2963831903988958 0.9473897795100166
25994769 0.29631480664881404 0.9480137414903506
26000145 0.296630957213676 0.9477045019033943
26005521 0.29737514509317337 0.9478346060349644
26010898 0.29747747716151124 0.9475297130902728
26016274 0.29784546538858764 0.9484238622088267
26021651 0.29743868572207677 0.9469109809868705
26027027 0.2984292674994441 0.9470755726242377
26032403 0.2981946187177032 0.946471575452914
26037780 0.2982464500021478 0.9469633997363672
26043156 0.29826193755306546 0.9466497878573646
26048533 0.29887340842940896 0.9470695304018623
26053909 0.2988702154764322 0.9466492761693011
26059286 0.2992058318829097 0.9456253099369167
26064662 0.29973898208261596 0.9468232051916132
26070038 0.2996790482158307 0.9471145426254818
26075415 0.2996365955151429 0.947126245972477
26080791 0.2999081054511874 0.9480981529688135
26086168 0.3005429381035784 0.9481196287293508
26091544 0.30073496166237546 0.947481786149763
26096920 0.30181592300612725 0.9469380033505276
26102297 0.301557368711526 0.9468632874933274
26107673 0.30175996511068925 0.9465387073988698
26113050 0.30253956905535095 0.9460398679140529
26118426 0.302403780417605 0.9456121607442517
26123803 0.3028939272644376 0.9455252994139371
26129179 0.30232749708189477 0.9455282706908504
26134555 0.30260986906265663 0.9457807993532845
26139932 0.30271628486483604 0.9461106065864777
26145308 0.3035765094415751 0.9463229450690691
26150685 0.30346915151387105 0.9459316347540825
26156061 0.30365926325260895 0.945430895327989
26161438 0.30389555045778965 0.9452433824360803
26166814 0.303937158559938 0.9451525558514177
26172190 0.30440871701743 0.9450052259860049
26177567 0.3044517300115345 0.9455058332387113
26182943 0.3051274668839371 0.9459626125818902
26188320 0.30562733930611746 0.9455214388836094
26193696 0.30573838801479664 0.9449577883275199
26199072 0.3061921174348714 0.9450115693804517
26204449 0.3065357094823384 0.9445093787045492
26209825 0.3064269243719701 0.9443079731173553
26215202 0.30689378388557015 0.9443332285286672
26220578 0.3066998981002396 0.9442577893395632
26225955 0.30685228526147357 0.9440448712994494
26231331 0.30681577303872615 0.9447486986468905
26236707 0.3069574106752057 0.9444015445310769
26242084 0.30701582652500997 0.9449515313564476
26247460 0.3077983104096304 0.9445129308547726
26252837 0.3080377965058668 0.9442365064723656
26258213 0.3084802615788998 0.9445793834791664
26263590 0.3089308189677341 0.9444430231241902
26268966 0.30897303832897494 0.9439056582228073
26274342 0.3102286312862913 0.9440132827629322
26279719 0.3099422783199151 0.9438071214960096
26285095 0.31035718322736844 0.9436485003040389
26290472 0.30983776824670733 0.9433654685411245
26295848 0.3108961891893965 0.9433574270624093
26301224 0.3105424613570267 0.9437834827655064
26306601 0.3105357864404161 0.9437358610064084
26311977 0.310554863407001 0.9439170399573366
26317354 0.31107158559915193 0.943742099271346
26322730 0.31073013295425406 0.943957039048878
26328107 0.31127661590492306 0.9433985948709557
26333483 0.31108982694168225 0.9432988552052187
26338859 0.31166116922716647 0.94393663639032
26344236 0.3124404426628514 0.9436378669098112
26349612 0.3131810280350102 0.9432684344537617
26354989 0.3133677079136528 0.9427585008936027
26360365 0.31336947886853295 0.9431662668120917
26365741 0.3133323184940147 0.9429540118381451
26371118 0.3137100525317254 0.9428804373710612
26376494 0.31409565157981495 0.9426460535936761
26381871 0.314846926387976 0.9425535780997708
26387247 0.3151288565933051 0.9431691479911724
26392624 0.31556016892218414 0.9430463532463252
26398000 0.31444158029914815 0.9417142156850496
26403376 0.3156651274071462 0.9424458262633404
26408753 0.31587723031095655 0.9424379880062183
26414129 0.31626190897587075 0.9424755495767032
26419506 0.3161941421186818 0.9411795915531176
26424882 0.317010422448938 0.9418739345392627
26430259 0.3169653619468632 0.9420155504982173
26435635 0.3169564424641802 0.9421564909928877
26441011 0.3170137240976109 0.94119087465995
26446388 0.31737173049791045 0.9420740916745518
26451764 0.3176564094999975 0.9419033747010652
26457141 0.3185413754465636 0.9422314931618
26462517 0.31887281965004066 0.9411991204945583
26467893 0.31929197227698713 0.9410529533600518
26473270 0.3193296256440561 0.9414162686825887
26478646 0.3195750095119085 0.9411536307411663
26484023 0.3193435197281966 0.9411815757635621
26489399 0.3197515816523908 0.9406584896432774
26494776 0.31951680956252465 0.9412558820159265
26500152 0.319815116402995 0.9411477993061197
26505528 0.3199200282648547 0.9413858920734042
26510905 0.3205845669126843 0.940780595408057
26516281 0.3206697084446581 0.9410928339286753
26521658 0.32118202534586965 0.9413519466164313
26527034 0.3210644856222206 0.9412152081866592
26532411 0.32115641298361336 0.9411040956176318
26532411 0.32153940496811345 0.9411903760939714
26537898 0.32158972851173373 0.9408119291709315
26543386 0.3221863067574715 0.9406046625802462
26548873 0.32260760151126094 0.9405825936758176
26554361 0.32259223554331573 0.9403144468144208
26559849 0.32320010402116317 0.9402204469505977
26565336 0.3235782090562583 0.9407428907430079
26570824 0.3238279884693331 0.9405424562510067
26576311 0.32467866134856826 0.9405503045518911
26581799 0.3245174661424524 0.9403755491205189
26587287 0.325221528872658 0.9403657966327682
26592774 0.32542127719769937 0.9408376284688708
26598262 0.3252894860937917 0.9403849717916892
26603750 0.32527910564534257 0.9403655391338922
26609237 0.3253928799703014 0.9399280430547003
26614725 0.32620594480934917 0.9392584051892927
26620212 0.32670892195071866 0.9388777301165561
26625700 0.3271612887223239 0.9391927569771459
26631188 0.3268562780278873 0.9389110531793691
26636675 0.32724614702627186 0.9388573040496399
26642163 0.32692442167394636 0.9388094740929959
26647651 0.3267014836650211 0.9392016911190456
26653138 0.3272253117797552 0.9388792369327831
26658626 0.3276792545680382 0.9395770864172944
26664113 0.3281856404607867 0.938843506969125
26669601 0.3289257671365902 0.9388686807688458
26675089 0.3289117260647624 0.9387884350512437
26680576 0.3297637327944067 0.9383737955410159
26686064 0.32968379187025754 0.9383777541271572
26691551 0.33003206740304747 0.938875852005004
26697039 0.32951230278475724 0.9391943088520652
26702527 0.32994305033070115 0.9389170278346197
26708014 0.32959808102560934 0.9388397779442212
26713502 0.3300261910115102 0.9383824288461632
26718990 0.33036186849122423 0.9378109358956329
26724477 0.33082753556691324 0.937718510034161
26729965 0.33079735501691176 0.937749826823251
26735452 0.3308055945733767 0.9371126254107416
26740940 0.33172445682562474 0.9377997784194211
26746428 0.3320204527226402 0.9382038622275184
26751915 0.33222653937960084 0.9382217979521356
26757403 0.33252169814267096 0.9380939698266176
26762891 0.3330188881953384 0.9376470577242612
26768378 0.3332440520439569 0.9376915714206838
26773866 0.3338566461813094 0.9375706581370191
26779353 0.3337847115265871 0.9372334124656256
26784841 0.33422373085385126 0.9372373242334588
26790329 0.33405663841799416 0.9372616021755497
26795816 0.3335355612468217 0.9371674621942409
26801304 0.33399979459207585 0.9377047010964781
26806792 0.33415273469627776 0.9367379529005584
26812279 0.33483384501243063 0.9370339396422352
26817767 0.33525328742820554 0.936443264359938
26823254 0.33571826380792763 0.9365873169287033
26828742 0.3361239836618546 0.9356216605156161
26834230 0.3365433127501964 0.9359957542780819
26839717 0.33612669536680434 0.9363765972552728
26845205 0.33620445708849667 0.936375982363572
26850692 0.33637533497948824 0.9370655574187687
26856180 0.33663443780602587 0.9367949391091884
26861668 0.33697052634071173 0.9367256530463576
26867155 0.3376067210203846 0.9367442764240153
26872643 0.33734918855233453 0.9368431785668028
26878131 0.3376099676793421 0.9365590710277778
26883618 0.3375079024057374 0.9373781492891744
26889106 0.33805141114752874 0.9368358624572967
26894593 0.33844303542565957 0.9374279021553416
26900081 0.3386140656603694 0.9363109728322071
26905569 0.3390211236732726 0.9358724425514894
26911056 0.3388255571263238 0.9357023753599425
26916544 0.3390891884402458 0.9352449816953733
26922032 0.3389515044611491 0.9348256103493247
26927519 0.33919268697358335 0.9348653922611735
26933007 0.34010810747783954 0.9359666354485067
26938494 0.3400240025986077 0.9361235336317529
26943982 0.34011275294484933 0.936029844571896
26949470 0.3408478424318462 0.9358115009794439
26954957 0.3414083926245372 0.9357006693411366
26960445 0.34142791638405046 0.9350355514255745
26965932 0.34244863115411456 0.9350457087568141
26971420 0.34230446061654235 0.9347115303610599
26976908 0.3430827926056753 0.9347812928564043
26982395 0.3426674785759939 0.9352780367299957
26987883 0.34353685385735244 0.9354687061659377
26993371 0.3434043282348256 0.9355144169703448
26998858 0.3434282867537231 0.9355672422579022
27004346 0.34289030875711024 0.9350335777496573
27009833 0.3435697662079216 0.9347111573497304
27015321 0.3431313577018726 0.9346533484494488
27020809 0.3437755134084776 0.9347419076754456
27026296 0.3437638471861183 0.9350911341710377
27031784 0.34415739832388387 0.9347953440801305
27037272 0.3439974015664798 0.9354084192977319
27042759 0.3446361092880765 0.9347589445464335
27048247 0.3452518734654378 0.9345847177134943
27053734 0.34564528514253046 0.9342720430168208
27059222 0.3461964077875412 0.9336811014117959
27064710 0.3464273170124296 0.933470858163438
27070197 0.346687988368296 0.9335642148669341
27075685 0.3463280257551685 0.9335642939596785
27081173 0.34677633070814723 0.9337093327195252
27081173 0.34672421688111854 0.933338438777503
27086774 0.34651008001980493 0.9333940386597056
27092375 0.3468780784950614 0.9334941137655155
27097976 0.3472787637799585 0.9330784334283325
27103577 0.34807535209223867 0.9329974965183233
27109178 0.3480958251694395 0.9338951867041881
27114779 0.3484405754729179 0.9334379539706726
27120380 0.3490035064338217 0.9335638346770372
27125981 0.34957988042092397 0.933486119166782
27131583 0.3493803254477867 0.9334860224506746
27137184 0.34994002562843923 0.932738491396129
27142785 0.34950010531250647 0.9324664810551468
27148386 0.3496858075015342 0.9322261793953895
27153987 0.34970095917079047 0.9326460304524631
27159588 0.3502466089171318 0.9328790829353437
27165189 0.3501719229902253 0.9325909864587173
27170790 0.35042753206456506 0.932593218556022
27176392 0.3503079378848686 0.9323753864883384
27181993 0.35111539443766215 0.9329422466595112
27187594 0.3509502389779168 0.9325457537921029
27193195 0.351600549476639 0.9329863850858187
27198796 0.3518812331458866 0.9332222796797655
27204397 0.35237049998838543 0.9328572874973505
27209998 0.35235127335680005 0.932316194705018
27215599 0.35274670331372604 0.9320568242444471
27221201 0.35243066275171486 0.932320294690489
27226802 0.35293486514619155 0.9322297443655696
27232403 0.3530270923901068 0.9322415991452779
27238004 0.3532517632780204 0.9324739235053993
27243605 0.35371343352745094 0.9327169446061414
27249206 0.3542352265172397 0.9329687582107478
27254807 0.35412761228384304 0.9329701853219428
27260408 0.35448862393347447 0.9325487111473492
27266009 0.3548537524870751 0.9327091226036958
27271611 0.3552251239182737 0.9321260117330821
27277212 0.35536280940000603 0.9315926413048254
27282813 0.35564916567995514 0.9312728955171363
27288414 0.35519778877298663 0.9313931824432954
27294015 0.3559189238043692 0.9314505711834147
27299616 0.3552551602959773 0.931809598477649
27305217 0.3559114133783673 0.9316351213489141
27310818 0.35601049702415527 0.9320599876266846
27316420 0.3567381313268254 0.9318791407782258
27322021 0.35651074905010616 0.9321844384511492
27327622 0.35692724627003575 0.9324831102694421
27333223 0.3574913939355152 0.931752131032971
27338824 0.35850915315280735 0.9311783577267728
27344425 0.3594613868354509 0.9303623063001975
27350026 0.3589061806434604 0.931307649857581
27355627 0.3582371322995904 0.9308243530569092
27361229 0.3582988336125511 0.9309162202024212
27366830 0.35864311979519076 0.9304725907595611
27372431 0.35926918953841747 0.9309017013419466
27378032 0.3598586203848845 0.9307037969136808
27383633 0.3600258882900862 0.9309639396796086
27389234 0.36023915390990763 0.9309350758616057
27394835 0.3602438266120736 0.9314211043507982
27400436 0.3603895516741235 0.9306223036013479
27406037 0.3605050022496397 0.9303853510141271
27411639 0.3603059942619612 0.9304578209398661
27417240 0.3599252450527313 0.9300229161198482
27422841 0.36027876508197293 0.9294893458043346
27428442 0.3611843636696865 0.9296410257438318
27434043 0.3612527654480706 0.9301240953972175
27439644 0.36163938579179516 0.9301518323872932
27445245 0.36218803917408005 0.9301088933618167
27450846 0.36239218857677524 0.9302566712968015
27456448 0.36252407640552753 0.9302790614719829
27462049 0.3625096149056556 0.9296879752131118
27467650 0.36288179012877414 0.9294294137835675
27473251 0.3629668892875002 0.9301506594226167
27478852 0.36339238870498053 0.9297803168785236
27484453 0.36315955207982176 0.9298856587247405
27490054 0.3634495595267103 0.9295157894383832
27495655 0.36377479918637745 0.9295229868447615
27501257 0.36403852658103586 0.929362976809874
27506858 0.3637449684241736 0.9294012286094753
27512459 0.36490532149738053 0.9291052063506565
27518060 0.3652260948125319 0.9289554989407405
27523661 0.3655890513118281 0.9289507055671082
27529262 0.3655240865715044 0.9284263929255224
27534863 0.3659481115841096 0.9286819154045736
27540464 0.36616784496323335 0.9284018283823146
27546065 0.3664216841079033 0.9284895145487606
27551667 0.36617601274219214 0.9284881138877217
27557268 0.3667319733716237 0.9287188724301966
27562869 0.3665808981476409 0.9291045276889615
27568470 0.36719117057432027 0.9295281486597263
27574071 0.36721441340865774 0.9288818976833597
27579672 0.3676709140854014 0.9291043892590225
27585273 0.3676114955188873 0.9286716480574085
27590874 0.36788678732924956 0.9286359928424542
27596476 0.36852682625866745 0.9285513322023211
27602077 0.3685903784437759 0.9280283181184847
27607678 0.3687641483882946 0.9280120901113018
27613279 0.3691468229039241 0.9279269105964537
27618880 0.36898464972901923 0.9279983010844377
27624481 0.369430586092489 0.9278508790310608
27630082 0.36966646517511476 0.9276396062683455
27635683 0.3698336359097361 0.9275039049744574
27641285 0.3700082877335576 0.9283342419842394
27641285 0.36957212234461706 0.9278508946270029
27647001 0.3696647511671106 0.9279383870099315
27652718 0.3699932190266827 0.9276735084536938
27658435 0.36972500774347183 0.9279925153951294
27664152 0.3704080952272153 0.9280383689539918
27669869 0.3709078451419377 0.9282422004565333
27675586 0.37135987924721514 0.9281859515697815
27681303 0.37190329838081465 0.9280352105930714
27687020 0.3721658573264101 0.9279414552070095
27692737 0.3722832541116181 0.9279613617575764
27698454 0.3720986971381215 0.9286026073110469
27704171 0.3719965327326676 0.9277189463365771
27709888 0.3728967239865908 0.9272620099286817
27715605 0.3730223311192652 0.9268711090333737
27721322 0.3735743699409365 0.9270128964444361
27727039 0.37359356304744673 0.9267997013721927
27732756 0.3732163156818296 0.9272565405624169
27738473 0.37386576000644295 0.9269031833121565
27744190 0.373611456734247 0.9276348854052925
27749907 0.37415277089444277 0.9273465597075065
27755624 0.3741881994857812 0.9274876687583004
27761341 0.3750012368961151 0.9269013807888413
27767058 0.3752489208639675 0.9263555574180311
27772775 0.375460419645702 0.9265173626517489
27778492 0.3751221015293441 0.9268973062565489
27784209 0.375768781806259 0.9268921512974673
27789926 0.3759509738615946 0.9271057721828537
27795643 0.37617127267497585 0.9274866734091325
27801360 0.376292055155945 0.9265683081507166
27807077 0.3763549106053102 0.9265570858627135
27812794 0.3762386983548871 0.9261377104439892
27818511 0.3762863812414902 0.9266346765178491
27824228 0.3766960943707254 0.9263145785257546
27829945 0.37638999401889056 0.9265241613959313
27835661 0.3775239036999698 0.9266801105950433
27841378 0.37801636872661243 0.9259063408610709
27847095 0.37821097077352306 0.9260806369995878
27852812 0.378273246784421 0.9261678535933536
27858529 0.37874722197056915 0.9262636987924805
27864246 0.3794957224805917 0.9263745361879477
27869963 0.3793897857030482 0.9267594728248609
27875680 0.3798643472381474 0.9260835297265343
27881397 0.38054794330628355 0.9264843388503466
27887114 0.3807376978771355 0.9259981544129051
27892831 0.38017216617986116 0.9263190741869325
27898548 0.38055314774745513 0.9263445204564215
27904265 0.38045775245038593 0.9262136428572563
27909982 0.3801308235036614 0.9254651140744918
27915699 0.3798705841110186 0.9258890416687906
27921416 0.38027818138721076 0.9255265095030718
27927133 0.38096726515575163 0.9257423780226774
27932850 0.38093067001846775 0.9256460615990154
27938567 0.3819347158051145 0.9253108913793613
27944284 0.38199236921473495 0.9255196867829165
27950001 0.3826335578724613 0.9256777156149167
27955718 0.3822601587909949 0.9255174993891173
27961435 0.3821402819639311 0.9255422320764918
27967152 0.38259860431635156 0.9251287353298886
27972869 0.38207919937047136 0.925758441440404
27978586 0.38253806168080695 0.9252568981608368
27984303 0.38288386596124363 0.9252895874449449
27990020 0.38280051314875946 0.9250959395196104
27995737 0.38236192469234354 0.9251407294051277
28001454 0.38281989598095595 0.9250549707587277
28007171 0.38264840823639246 0.9250728034513603
28012888 0.3840324427590816 0.9245150199132941
28018605 0.3840693554513099 0.9241429632973743
28024321 0.3856990198709178 0.924376843490653
28030038 0.38542861383100385 0.9243951233963551
28035755 0.38512918417880926 0.9242405859095076
28041472 0.38523133697999434 0.924570096072908
28047189 0.38528330905896246 0.9248465904577096
28052906 0.3856663372834191 0.9242683502901899
28058623 0.3862371051669858 0.9244558731888682
28064340 0.38646357783930274 0.9243873831817704
28070057 0.3862551860497675 0.9249490623384712
28075774 0.3859558249733322 0.9246534566540341
28081491 0.38571362689413996 0.9251388574295814
28087208 0.38577115426723474 0.9246116988213066
28092925 0.38559796709633515 0.9245612004125132
28098642 0.3865638173905456 0.923947212392883
28104359 0.3870129569860969 0.923818016809592
28110076 0.3876154802827072 0.9241867237008445
28115793 0.3875257167352538 0.9239223826944971
28121510 0.38788878199630933 0.9244597827553369
28127227 0.38740035006046675 0.9240688104780028
28132944 0.38804840332106055 0.9239548174631576
28138661 0.3884533034614203 0.9238488626995095
28144378 0.38905399489943504 0.9238251776567287
28150095 0.38939223701779546 0.9230787885452001
28155812 0.3902391923061122 0.92347781540929
28161529 0.39059293724518046 0.9230440963963655
28167246 0.3908724983652091 0.9235959485752426
28172963 0.3908687138654178 0.9230984834638223
28178680 0.39095704502777234 0.9235605790099963
28184397 0.3916468657045196 0.9232681090347836
28190114 0.39111305090742415 0.9229879900043637
28195831 0.39153258375301314 0.9232448237963269
28201548 0.3912101524403464 0.9230406090038198
28207265 0.3912482841954044 0.9233474938076937
28212982 0.3907327850364498 0.923761075628955
28212982 0.3913049433749228 0.923192206129362
28218817 0.39158498415791587 0.922871690704533
28224652 0.3921382546644457 0.9229143464638283
28230487 0.3921844522874941 0.9233471083869312
28236322 0.39236860861259243 0.922927637916409
28242158 0.39264897670365 0.9221437656998235
28247993 0.39324243165981176 0.9222006572670914
28253828 0.39269217709567683 0.922898852918123
28259663 0.39344005351167527 0.922263087707851
28265498 0.3936840213835078 0.9219386892272269
28271334 0.39397598491426494 0.921999008569069
28277169 0.3933145177551994 0.9228787267213308
28283004 0.3937464393030006 0.9218580114477982
28288839 0.3940386272517929 0.921617385548607
28294674 0.3951943622942479 0.9217069854347963
28300510 0.39419910922792756 0.9216891943425617
28306345 0.3949473968405744 0.9215066029613885
28312180 0.39513014894776827 0.9209269293379454
28318015 0.39564823402999977 0.9215259930167529
28323850 0.39507802463184616 0.9212973543059032
28329686 0.3952194422578253 0.921687099604099
28335521 0.39608172715496387 0.921200864873705
28341356 0.3959931770442179 0.9212049447814827
28347191 0.3956120490535742 0.9215878559027523
28353026 0.3956559184302201 0.9208022725229377
28358862 0.3965771672152314 0.9206567269605951
28364697 0.39738425251243104 0.9199279423945019
28370532 0.3964494623768932 0.9205329136772624
28376367 0.39719790455631504 0.919836010435095
28382202 0.3973403766874059 0.9201068596020305
28388038 0.39846605842007915 0.9196532671946939
28393873 0.3984488466706889 0.9202056939277261
28399708 0.39907461191223514 0.9200659654484388
28405543 0.39939847308307 0.9206449661760445
28411378 0.3995338361327035 0.9204990725387939
28417214 0.4003955769787914 0.9206860723755155
28423049 0.3998334199277442 0.9209113905280154
28428884 0.4000377319069278 0.9204447072721265
28434719 0.4001521646006707 0.9198898755340003
28440554 0.4007839629975717 0.9200731303068608
28446390 0.4002179503435628 0.920119113328705
28452225 0.40036836276025495 0.9197774962500685
28458060 0.40085487379982654 0.9194962490518301
28463895 0.4009584223337358 0.9189793183735423
28469730 0.4011419893643267 0.91954326020677
28475566 0.4013142813963248 0.9196533935582455
28481401 0.40165060064147307 0.9196381528915998
28487236 0.40156201172378075 0.9192933941543151
28493071 0.4020779406361761 0.9199268150260536
28498906 0.40058966747124786 0.9200979661146685
28504742 0.4009167195525672 0.9197646714106892
28510577 0.40134145368647556 0.9189338733495206
28516412 0.40165279098744716 0.9189808260626381
28522247 0.4014492573993848 0.9186635752243948
28528082 0.40123148271193243 0.9187133844620925
28533918 0.40205159000334717 0.9181435302581964
28539753 0.40240646530591856 0.9183251012064074
28545588 0.40240024712205175 0.9180555023646263
28551423 0.4024490610039737 0.9183388194842834
28557258 0.4029626384569229 0.9185009394946109
28563094 0.4028721100341763 0.9183271567958522
28568929 0.40342383775014884 0.9180987463755597
28574764 0.403262943182063 0.9182390534524505
28580599 0.40367159400221875 0.9178787634422212
28586434 0.40362611916689123 0.9177973538045922
28592270 0.4038565740823206 0.9173892536323051
28598105 0.40414264487932056 0.9170270401185421
28603940 0.40496474532478777 0.917016348369029
28609775 0.40459043445808957 0.9173940186466174
28615610 0.4051736265448215 0.9174525367558946
28621446 0.4061218352839255 0.9177330136831066
28627281 0.4068394309527619 0.9176995496709379
28633116 0.40615560894589586 0.9177439090598566
28638951 0.4068835556292305 0.9180953032800014
28644786 0.4072349911123613 0.9181228362453878
28650622 0.40664888853321934 0.9184619961452997
28656457 0.4069812494003586 0.9174846763370688
28662292 0.4068677413399149 0.9177373971119748
28668127 0.4080163459999425 0.9179290071366933
28673962 0.4074188475771864 0.9174813887881845
28679798 0.40856633039030854 0.917333581582736
28685633 0.4079063092368756 0.9167087041232718
28691468 0.40861354320014814 0.9173661993319073
28697303 0.4078656111686663 0.9168744567513487
28703138 0.4080785846280845 0.9168121378135851
28708974 0.4085579137530455 0.9171873496609135
28714809 0.4083371146228137 0.9171961672895287
28720644 0.4077829137640091 0.916817823427959
28726479 0.4082290726032341 0.9162142886858831
28732314 0.40840414400994857 0.9160430452839059
28738150 0.40891627551509807 0.9159947392439681
28743985 0.40875294853109057 0.9157559536882411
28749820 0.40985094920497067 0.9152319079716557
28755655 0.4105522747896371 0.9163825904875613
28761490 0.4099053585838146 0.9158960179113366
28767326 0.40984451907243624 0.9155737081958509
28773161 0.41046195031058746 0.9157133919336796
28778996 0.4101970552363905 0.9158434631539016
28784831 0.41002200214044066 0.9160064787998565
28790666 0.4109987435244242 0.9158138003939135
28796502 0.4113118429694296 0.9160001809094367
28796502 0.41143949862343265 0.9161322729991257
28802457 0.41164608983281104 0.9165464356410208
28808413 0.41216692308108094 0.915341089130404
28814369 0.412559704444422 0.9158437941447863
28820325 0.4126491977116955 0.9150782350371501
28826281 0.4122350816988681 0.9151708192051958
28832237 0.4119648685138455 0.9144420216888844
28838193 0.41166190880428427 0.9150989348391496
28844149 0.41211257861141176 0.9144399539350632
28850105 0.4127088188376306 0.9152126009045408
28856061 0.4129772793897406 0.9146051768713952
28862016 0.4130172240548519 0.9144433272301088
28867972 0.4135234560471758 0.9145694810954768
28873928 0.4139797475101401 0.9143501753646224
28879884 0.41392101457293706 0.9145019095040172
28885840 0.41470963471703015 0.9138989456951245
28891796 0.4148900948188494 0.9147003349266991
28897752 0.4152443213953282 0.9143534021806077
28903708 0.41510227219539225 0.914767987238875
28909664 0.41515464705830085 0.9136722157762837
28915620 0.414714235845691 0.9146047861954922
28921575 0.4155295768920114 0.9141289437170469
28927531 0.41532618758861056 0.9147541693038354
28933487 0.4161727630255662 0.9140120766533637
28939443 0.41560865009021836 0.9142843344584428
28945399 0.41610192430422893 0.9138229990013207
28951355 0.41538927605576803 0.9138369558737214
28957311 0.41603384741382704 0.913092133867839
28963267 0.4158101071827224 0.914053434945032
28969223 0.416922312151241 0.9133552106138303
28975179 0.4171997486152604 0.9141973660583262
28981134 0.41689532686401765 0.9142249473034854
28987090 0.4171250910014876 0.9140461024472499
28993046 0.41672211412283244 0.914598201652887
28999002 0.41756447121189677 0.9133347087328194
29004958 0.41702995488847594 0.9139576757610803
29010914 0.41801640122273087 0.912648457784089
29016870 0.4182108605989873 0.9134394988941531
29022826 0.4185803814367597 0.9127548053685697
29028782 0.4193077869770703 0.913272021649299
29034738 0.41908022060240424 0.9124546809900206
29040693 0.41909436143614587 0.9131724498011747
29046649 0.41931357278282627 0.9121992759031855
29052605 0.41989903229956577 0.9119502027129109
29058561 0.42040366108127036 0.9126310179016695
29064517 0.4212334410818369 0.9120329265206767
29070473 0.42082920225596426 0.9128814814799541
29076429 0.4215135063085163 0.9119493081706085
29082385 0.4203130248320213 0.9119943897493171
29088341 0.420648316242654 0.9115911720875657
29094297 0.42032476815996733 0.9120255929231741
29100252 0.4204578374565984 0.9113926087671478
29106208 0.4210929673046544 0.9119962913061631
29112164 0.421756708810613 0.9118097831238744
29118120 0.42138131093458586 0.9122815940142252
29124076 0.422284647376607 0.9115794870482334
29130032 0.42251385115398155 0.9121890844169018
29135988 0.42306252444738385 0.9116661025904841
29141944 0.422966577289139 0.9118099870836311
29147900 0.42224514334212604 0.9118772815371182
29153856 0.42286296172093996 0.9112748721714264
29159811 0.42312018416308816 0.9120763403482716
29165767 0.4234767243727292 0.9114895290288784
29171723 0.42341732318834685 0.9108398378667409
29177679 0.4231169386105987 0.9115874050072107
29183635 0.42350263358302337 0.9108050180178867
29189591 0.4247532453598701 0.9112646598136019
29195547 0.4245136406234105 0.9111532814585478
29201503 0.4241252678671139 0.9107843913862368
29207459 0.4246036330188007 0.9110527462555118
29213415 0.4243552591514311 0.9101020184588825
29219370 0.4247219503049926 0.9096440628526462
29225326 0.4251806075278475 0.909979538227013
29231282 0.4249950294450539 0.9092755589026508
29237238 0.42569913958597233 0.9097433882327747
29243194 0.42642134162672585 0.9101967970250229
29249150 0.4265153900791117 0.9096567172459007
29255106 0.42629112319945595 0.9099730607062629
29261062 0.4266451231298317 0.9096492545032877
29267018 0.42687353896954044 0.9094323430441333
29272974 0.4262616371536014 0.9096164468531693
29278929 0.42701389829421366 0.9091032440397274
29284885 0.4273813981012243 0.909764882749828
29290841 0.4274826071530591 0.9095848617745864
29296797 0.4279704562678517 0.9098267272583981
29302753 0.42763160189636246 0.9099829503537006
29308709 0.4282136049795593 0.9095781052294686
29314665 0.4282486450299824 0.9095769267376155
29320621 0.42820067495286995 0.9094299453315186
29326577 0.4281655805743528 0.9094442815403603
29332533 0.4285398032326934 0.9097607695696432
29338488 0.42923875660789645 0.9091977391875683
29344444 0.42969567559524297 0.9094000455996162
29350400 0.42996574733800946 0.9088496293123633
29356356 0.43015392773777517 0.9086241683685987
29362312 0.4299377207913327 0.9083678615298258
29368268 0.42945729645768965 0.9085517351470506
29374224 0.42994640223466424 0.9085551771866217
29380180 0.4296793030997819 0.9094593591230367
29386136 0.42990520467997234 0.9097800715994254
29392092 0.4300206453147832 0.9095868164394932
29392092 0.4300785269853348 0.9094463389757766
29398171 0.43027559050282066 0.9090700498121779
29404250 0.43058601024097165 0.9079448740643191
29410329 0.43082907816354477 0.9079999641702136
29416408 0.431433841126468 0.908544886104502
29422487 0.43139760639029845 0.9086740949659692
29428566 0.4315840956546746 0.9087916151883739
29434645 0.431982807049268 0.9088584431704464
29440724 0.4320866152714184 0.9088784448209892
29446803 0.43221956705567927 0.9085718670856986
29452882 0.4326560235444201 0.9084772033705105
29458961 0.43294269530076274 0.9086310055261103
29465040 0.43334781461336985 0.9085162222311256
29471120 0.4328631185543701 0.9077485984756919
29477199 0.4330414995736909 0.908139279122461
29483278 0.4334677588043863 0.9071197797698153
29489357 0.43322691286437204 0.9071780163836388
29495436 0.4329665334267439 0.9072051895794171
29501515 0.43274516003270513 0.9072854043060535
29507594 0.43311233451442616 0.9076571277849722
29513673 0.4341602344125136 0.9073560446648749
29519752 0.4343837042150586 0.9070171803804055
29525831 0.4350304331370741 0.9069191614630278
29531910 0.4349394562261564 0.9071415266255516
29537989 0.43527792502565127 0.9076394248562218
29544069 0.43528647502047574 0.9074462139133208
29550148 0.4359591190262405 0.9075305455628216
29556227 0.4355943590547654 0.9072485531854441
29562306 0.4363458527788602 0.9062969139599893
29568385 0.4362372487581596 0.9065654109662981
29574464 0.43721934927508227 0.9064670977825757
29580543 0.437256049387548 0.9063700038205574
29586622 0.4380449446267646 0.9059901639787058
29592701 0.43752850448463854 0.9063028643762557
29598780 0.4377306726117035 0.9056697835269159
29604859 0.43714426117383526 0.9061366533585131
29610938 0.43756853143349267 0.9055021204738005
29617017 0.43700768389036854 0.9052434419762175
29623097 0.43733594250020824 0.9052170872101608
29629176 0.43729212743529705 0.9050845957128376
29635255 0.4378529001543611 0.9051406267346999
29641334 0.43778814067852684 0.9050565414163319
29647413 0.4383665430783213 0.9049478343577015
29653492 0.4384165419043203 0.9055535791470866
29659571 0.43920410340977056 0.9055560246725914
29665650 0.4393899142584568 0.9047891774326577
29671729 0.4394626888133677 0.9052460252032728
29677808 0.439287710338183 0.9039938829773273
29683887 0.4390582682418846 0.9047326732604892
29689966 0.43947894443721686 0.9042587713391502
29696046 0.4401660146793428 0.9048586721919706
29702125 0.43994915909944554 0.9046263241827331
29708204 0.44119254338888514 0.9052675594891472
29714283 0.44067179667170325 0.904039236174186
29720362 0.44153000846714774 0.9048848458494073
29726441 0.4416749736877057 0.9039778747745413
29732520 0.4411101005293085 0.9047336383812973
29738599 0.44159948988819575 0.9039772173456665
29744678 0.4406823535783574 0.9045121922841939
29750757 0.4417438165981431 0.9036032624663692
29756836 0.4413556583548449 0.904043417026836
29762915 0.44252879088399855 0.9032728621851709
29768994 0.4418453029173415 0.9039547549121908
29775074 0.44265578814865825 0.9029843488857684
29781153 0.442180905184251 0.903340431017855
29787232 0.4432578270792729 0.9034979854007948
29793311 0.44278614483070217 0.9032464935144153
29799390 0.44442172367214877 0.903499809080023
29805469 0.44393230083362806 0.9030003864550394
29811548 0.4443586345562056 0.9034821618981761
29817627 0.44401946856695446 0.903397510243674
29823706 0.4435552401616179 0.9034008223672724
29829785 0.4436600814122647 0.9023970717210988
29835864 0.445337329842974 0.9030390956376968
29841943 0.4458674727089919 0.9022022168993696
29848023 0.44527212140540967 0.9028265109932877
29854102 0.4451394972769121 0.9018179594747581
29860181 0.4449585178418641 0.902910541465434
29866260 0.44548351663734964 0.9016544105561026
29872339 0.4452390065050415 0.9021902806999682
29878418 0.4463428105364566 0.9014533777745598
29884497 0.4449205398313794 0.9018422129936811
29890576 0.4463061606982023 0.9011797484290122
29896655 0.44537801066452304 0.9016932638442069
29902734 0.44609309984592704 0.9008289926115671
29908813 0.4460781499848281 0.9011105228147551
29914892 0.44683939033462394 0.9013845137888421
29920971 0.44635023173767857 0.9018465132915563
29927051 0.44733837782067876 0.9011058782855476
29933130 0.44657069137745575 0.9017292978377627
29939209 0.4470049938315014 0.900533694944686
29945288 0.4467147132776612 0.9008564406817168
29951367 0.4479647488546252 0.9003251417760243
29957446 0.4475865909039867 0.9001174788840512
29963525 0.449261388233402 0.8998854904259902
29969604 0.4485798313569833 0.9002270717843363
29975683 0.44913988489112816 0.900263290271912
29981762 0.4488985560071967 0.9005076512232789
29987841 0.44982982646978126 0.9005597787397365
29993920 0.4486224008296918 0.9006566008857393
30000000 0.44912349787487243 0.9015546357985108
