# HZ S RI R 50
500000 -1.0057438148881899 0.03243630157521993
500103 -1.0043809656604907 0.031753851429237506
500206 -1.0012880324411346 0.03089210960128643
500310 -1.0010691271900274 0.030397966248431114
500413 -1.002234169685892 0.030020631307113254
500517 -1.002624474628096 0.0310308362943288
500620 -1.001038371193367 0.03111580038036798
500723 -1.0022631024959363 0.032729111636008626
500827 -1.0030359343058328 0.03312567139940082
500930 -1.0043310488852477 0.03264923475121966
501034 -1.0017873672541429 0.0320339049317631
501137 -1.002398478243724 0.03109588561244658
501240 -1.0032659501257686 0.030848514453310095
501344 -1.0023521211248754 0.030425635816572608
501447 -1.0017435064548195 0.031538251003018686
501551 -1.0018608043787312 0.03166429671954229
501654 -1.001866929213256 0.03256803253138015
501757 -1.0030486157932377 0.032562394818429916
501861 -1.0026278367301287 0.032565633864250786
501964 -1.0037142320220258 0.03345358275606363
502068 -1.002941537051906 0.02971444817411835
502171 -1.0013890699107344 0.029064665508558445
502275 -1.0039871497429933 0.03221550961687052
502378 -1.0021619215502944 0.03166826642553093
502481 -1.002160709489749 0.031877951844506244
502585 -1.004095303979379 0.03354652051058486
502688 -1.0023548462000897 0.03333477587867565
502792 -1.003356282697377 0.03282958669484766
502895 -1.0020521183774884 0.03204003636924813
502998 -1.0016105051282784 0.03162069580686041
503102 -1.0046428452699732 0.031289064939737585
503205 -1.003915370673462 0.030574248895445143
503309 -1.0006052394631497 0.031204809613107093
503412 -1.001969593007389 0.031745951340422844
503515 -1.0021034544288547 0.0320239435880403
503619 -1.0025681707274492 0.03260931356600972
503722 -1.003235924787339 0.032084913570010296
503826 -1.003070135355154 0.03182180801638405
503929 -1.0032111030216602 0.0323814873170888
504032 -1.002864117437867 0.03194025312577227
504136 -1.0029851062890034 0.031289168808031564
504239 -1.0024565161840364 0.03164100146690659
504343 -1.0018072644881186 0.03201353685468041
504446 -1.0018703588169888 0.032099477264351084
504550 -1.0025509562919568 0.03274741237233561
504653 -1.002891661702969 0.03250673168471511
504756 -1.003021353469449 0.03231660666308568
504860 -1.0034507462135898 0.032628681556329364
504963 -1.0025697735069565 0.03183464494330247
505067 -1.0012986910240684 0.03172374315486239
505170 -1.0038136646665856 0.03274835305535923
505273 -1.0037116577338998 0.03385868823874073
505377 -1.0025678989754407 0.03237765906263106
505480 -1.0037941468259544 0.03343702292686676
505584 -1.0026384170401887 0.03247947641291018
505687 -1.003396171759889 0.03234455637481384
505790 -1.0032578046909357 0.03168562159120055
505894 -1.0040143081007575 0.032200596135149785
505997 -1.003523770016453 0.03184572167514901
506101 -1.0008119717688206 0.03315257306525276
506204 -1.0069027948687856 0.033223139805856394
506308 -1.004472859059151 0.03407653515682412
506411 -1.0037701175122384 0.03149936236660726
506514 -1.0039636769417033 0.032713560976936826
506618 -1.0026761030033011 0.03156251273969453
506721 -1.002032187548187 0.03260944199921448
506825 -1.0041664191690376 0.03198409141839458
506928 -1.002828043453301 0.0321915128935261
507031 -1.0022487521150727 0.032144930448017306
507135 -1.0019311603983079 0.03134865352375997
507238 -1.0026628407733646 0.032778101040082976
507342 -1.0019306956682088 0.03148615358426171
507445 -1.0027678259951085 0.03258996447080858
507548 -1.0025265852544232 0.03214536104698732
507652 -1.0033832869812533 0.031829055914888535
507755 -1.0031151730238341 0.03194307400402906
507859 -1.0021903360095459 0.0323917175366239
507962 -1.0017518742720468 0.03247338301874856
508065 -1.0022981083801268 0.03278766496124894
508169 -1.0024367843840796 0.03292931873202763
508272 -1.0027395896601856 0.03250619142362799
508376 -1.002822149282281 0.032642244938997915
508479 -1.0024784243284142 0.0323809128430007
508583 -1.0027975513081644 0.03255432178345189
508686 -1.0025881372008012 0.032355490450171984
508789 -1.0018996381521732 0.03210583043355941
508893 -1.003128738754593 0.0325724934645612
508996 -1.0017712691057603 0.032606970026864905
509100 -1.0033537238553485 0.03315316863970083
509203 -1.0021795760476402 0.032879572235928016
509306 -1.0039708521479143 0.03307433883638737
509410 -1.0003160556663848 0.03156576691656301
509513 -1.0022903058470793 0.0321830554154896
509617 -1.0016009480946564 0.03151856747876238
509720 -1.0025471068928455 0.03241044969498335
509823 -1.0023089759870385 0.03229394465323118
509927 -1.0018870482753526 0.033501075559787194
510030 -1.0019365122884727 0.03259794801500216
510134 -1.0029175489361488 0.03310770400795303
510237 -1.0037431644478965 0.03259349414517999
510341 -1.0026895549692914 0.032749469243864106
510341 -1.0023595273441603 0.03208861894499016
510446 -1.0065921446517985 0.03295627677935377
510552 -1.003114418028706 0.030781255729758844
510657 -1.001464003449434 0.03087598440555787
510763 -1.0023938430216326 0.031663771103080135
510868 -1.002185478753615 0.03225583531093274
510974 -1.0017311973229714 0.032407989546648856
511079 -1.0024917887048066 0.03329730361512249
511185 -1.0029627592486126 0.03316103073416646
511291 -1.0035446533256631 0.03293149222916649
511396 -1.0019835310591085 0.03199336067516979
511502 -1.0024364810955602 0.03146847987466542
511607 -1.0021030858499824 0.03103569876451612
511713 -1.001684499603757 0.031426885640104735
511818 -1.0016574574538128 0.03210384138338899
511924 -1.0014012693410967 0.03303708530573289
512029 -1.0024297498079942 0.03370668256810231
512135 -1.0028914697353524 0.033633636019088205
512241 -1.002697357580839 0.033093488286751016
512346 -1.003500730561317 0.03234017387108326
512452 -1.0026505489225463 0.03181350496248543
512557 -1.0024671538781997 0.03140468259554284
512663 -1.0015384339704254 0.03188311272440472
512768 -1.0016122606160147 0.03215143071679376
512874 -1.0020246809545246 0.03357019450620382
512980 -1.0027984757018986 0.03348255423182404
513085 -1.0025461089472107 0.03337297791419483
513191 -1.0024505868918803 0.033486104405128836
513296 -1.0036549826464816 0.03175104936041395
513402 -1.0031662254327318 0.03194161278846482
513507 -1.0023729718745746 0.032911918517888654
513613 -1.002170662949303 0.03339016548724884
513718 -1.0017123616782948 0.032123556585962394
513824 -1.0016214468520086 0.033884764465651765
513930 -1.0024870612663042 0.034057076145268324
514035 -1.0020304462169114 0.03328525757124453
514141 -1.0036792156611722 0.03357326347324623
514246 -1.0036975008154325 0.032642154575171646
514352 -1.0026751402862026 0.03180439704745651
514457 -1.002124788242234 0.03179532016328103
514563 -1.0020978686656399 0.03241023660008844
514668 -1.0021590961813513 0.03244662132443766
514774 -1.002096277777976 0.033563344972636244
514880 -1.0027690884443592 0.03377027310458207
514985 -1.002778717275046 0.03357943233508067
515091 -1.0032826532035843 0.03291722662851267
515196 -1.0035452851824795 0.03264852333541056
515302 -1.0034967805142834 0.031905744129675374
515407 -1.0037085365499574 0.03201477550944039
515513 -1.0033899784743148 0.03256961564745596
515619 -0.9998201558435814 0.03311886368953578
515724 -0.9998117279358708 0.033542794247237946
515830 -1.0036535355441325 0.033509682250855606
515935 -1.004053084578079 0.03368282247981735
516041 -1.0038135202269183 0.0320459024162034
516146 -1.0022615093596827 0.031130917684402085
516252 -1.0020811831540761 0.031051645726116996
516357 -1.0026980418060645 0.0320338544141946
516463 -1.0019650474281496 0.03246081492076746
516569 -1.0014347127020427 0.0329239089729288
516674 -1.0023651371335105 0.03424227611510737
516780 -1.0030505059411519 0.03399231047493754
516885 -1.0031258366673033 0.033648158986742845
516991 -1.0033768809318202 0.03226164133692693
517096 -1.0033586513999244 0.03239875485573902
517202 -1.0025612751322441 0.03199554192877879
517307 -1.0018310285941838 0.03234982783597709
517413 -1.0016847711716013 0.033210151596260735
517519 -1.0019533379353602 0.034083582903145344
517624 -1.0025369065689729 0.03455320298513727
517730 -1.0055985897734512 0.03370441698944189
517835 -1.0061669864653517 0.03369944225102654
517941 -1.0026651127383657 0.032485300762375297
518046 -1.0032841069660636 0.031998016572487895
518152 -1.001359335268807 0.031820091220156915
518258 -1.0009023269658708 0.03179390966017592
518363 -1.0019022710906849 0.03298115011196857
518469 -1.002620455712191 0.033831131987275435
518574 -1.002044222246232 0.034472654708296836
518680 -1.0023825751689857 0.03388161342731515
518785 -1.005015240080573 0.03387257627877966
518891 -1.0043534943843853 0.03338868724226945
518996 -1.0032793623068583 0.0308747511940674
519102 -1.0025815229647381 0.031522903445106866
519208 -1.001768125465805 0.032561056832071035
519313 -1.002785502214127 0.03353865432995273
519419 -1.00225185678104 0.033448506908598144
519524 -1.0032015133317427 0.03434479922321319
519630 -1.0041180099309477 0.034371636783265026
519735 -1.0059795807510885 0.034464037089799046
519841 -1.003217593331932 0.0321587911147776
519946 -1.0030478717928695 0.031281409365402954
520052 -1.0015117222971281 0.032067912041366844
520158 -1.0016460323380876 0.03248762463748959
520263 -1.0013830662543053 0.03426786362072187
520369 -1.0016557317413561 0.03426438002437517
520474 -1.0032282783515998 0.03463084861214703
520580 -1.00327543894801 0.033586774299185496
520685 -1.0038616709384172 0.033167269809764366
520791 -1.0031082264592632 0.03188873418278841
520897 -1.0023419958845214 0.031843497444910225
520897 -1.0027674617505755 0.03198248845300192
521004 -1.002014274312804 0.032517999816969324
521112 -1.0021219070853535 0.03309030700491246
521220 -1.0019331084177534 0.03400765891823723
521327 -1.000253471039339 0.03450277580830213
521435 -1.0010474637201972 0.03375903164859197
521543 -1.003346316741944 0.033746267761372975
521651 -1.0038195636032223 0.03281422508018285
521758 -1.0029574434830453 0.031476068044675676
521866 -1.001301145128219 0.03277674689564986
521974 -1.0010764141419224 0.032886514511346124
522082 -1.0028049074352994 0.03322657638914437
522189 -1.0015160329644022 0.034152944095734536
522297 -1.0023474512946045 0.03502245240694813
522405 -0.9982273911339238 0.03352358505879602
522512 -1.0057373195784645 0.03297462106746885
522620 -1.0032095712662565 0.03219964292371833
522728 -1.00310533373752 0.03226724263553253
522836 -1.0012803025281216 0.03183368299853909
522943 -1.000988732574538 0.033246120710755285
523051 -1.000883848114606 0.034065005461278754
523159 -1.0025631564377449 0.03489400881634082
523267 -1.0029936891798557 0.0344764112271209
523374 -1.0033770850519816 0.03373793297299126
523482 -1.0037178551580002 0.033342185381971486
523590 -1.001922508836543 0.032730202367984955
523697 -1.0009004396975567 0.031887976124761186
523805 -1.0016660726402387 0.031168271874829737
523913 -1.0007879459798878 0.03535561875781096
524021 -1.019902661757837 0.035033986908824
524128 -1.002451766047126 0.03465729619780561
524236 -1.0108104060937044 0.03511518344996371
524344 -1.003098681498204 0.03432713408609556
524452 -1.025198673861887 0.036427290712181926
524559 -1.0131714108585814 0.030758763474484925
524667 -1.001042494401612 0.0325341571267214
524775 -1.005647601181057 0.03358862708615604
524883 -1.0010346362875469 0.033309274323432086
524990 -1.004119055978584 0.03494007711712997
525098 -1.005743070168734 0.03410189180831708
525206 -1.0052910823631307 0.03478683491226774
525313 -0.9997689123603429 0.03429505833700189
525421 -1.0093165676975449 0.03358169077722132
525529 -1.0280307845920027 0.035844120792049655
525637 -1.0201285954367518 0.03562533075743788
525744 -1.0008673116615867 0.03242969835992576
525852 -1.0059991146526805 0.03355655126805092
525960 -0.9950850018600017 0.03424935240485497
526068 -0.9985267571860111 0.031661826399637535
526175 -1.0102606111527421 0.034519761694912346
526283 -1.0033897987594456 0.03369232339783893
526391 -1.0052946417890274 0.03321752303730961
526498 -1.003651275851109 0.032431155553089036
526606 -1.0025174135590058 0.032174054705097356
526714 -1.002926198464238 0.03281610397751832
526822 -1.0014635122036941 0.03313250667736053
526929 -1.0013241187079274 0.03353041353734914
527037 -1.0045589785488387 0.03486246831704183
527145 -1.002144284986259 0.032286438305855786
527253 -1.003747505627182 0.03294495450167343
527360 -1.0024397496162067 0.032275975344050946
527468 -1.0027247541122313 0.03296513869743558
527576 -1.001820731845473 0.03292565938746872
527683 -1.0026612617315405 0.03196306021027946
527791 -1.0003146085789196 0.03340605562518462
527899 -1.0018586236493527 0.03458370476247667
528007 -1.0044299918577761 0.03609705994066604
528114 -1.0009854052598466 0.034469451863703135
528222 -1.0044343348039828 0.03485512633442878
528330 -1.0023442472759765 0.03270565700576447
528438 -1.0027953684691986 0.032789704192797406
528545 -1.002057503030787 0.032725804308376925
528653 -1.0022630787016358 0.03291049018793061
528761 -1.0032212723754401 0.033661465280387104
528869 -1.0024583013356405 0.03512011013411424
528976 -1.0030829510884733 0.03506123959458573
529084 -1.0030981587079335 0.03448382449940681
529192 -1.0035373326293535 0.033970306951415695
529299 -1.0031631932557672 0.03348632955612292
529407 -1.0030790101112808 0.03274955013542141
529515 -1.0026202234846397 0.03350250915444227
529623 -1.0018839145254765 0.03352969341196941
529730 -1.00181924665756 0.03458360146984323
529838 -1.0026413184959002 0.034856840967790875
529946 -1.003533155250772 0.03463718606499787
530054 -1.003100333776219 0.03426786756469376
530161 -1.0045554595930992 0.03408343351218086
530269 -1.001751201466284 0.03267381178700314
530377 -1.002285935925524 0.03276549205709315
530484 -1.001771395675522 0.03282938403007579
530592 -1.0017340442798892 0.03358289669459089
530700 -1.0022012709110246 0.03449765520900936
530808 -1.0031271770823031 0.034849713844993094
530915 -1.0029790502627924 0.03520357957922312
531023 -1.0036520206527282 0.03378213663223066
531131 -1.0028105495601651 0.03232418832559074
531239 -1.002850226238919 0.03220387431378214
531346 -0.9998954932573557 0.029857018232862628
531454 -1.002076112882404 0.03305370111753232
531562 -1.001367667450944 0.03289195175163609
531670 -1.0030861763447394 0.0346270844179088
531670 -1.00363181381048 0.0353190889757025
531779 -1.002635504900277 0.03490462481115861
531889 -1.0043771489905104 0.03380177721045035
531999 -1.0027081562287785 0.0333688715142555
532109 -1.0024255221594172 0.033752851308580904
532219 -0.9996476327468496 0.032720353375557246
532329 -1.0031860874768639 0.03503835525785689
532439 -1.0016477631731102 0.03479428887297697
532549 -1.0030652635902966 0.035675752196597965
532659 -1.0033314836377043 0.03533945598180852
532769 -1.0034563325704304 0.03458975877622332
532879 -1.003065074624687 0.033396178773821464
532989 -1.0027714422639789 0.03299177884094042
533099 -1.0025538690993416 0.032810884057958796
533209 -1.002013892226599 0.03304755731710202
533319 -1.0016329378926219 0.034066262096761085
533429 -1.002448581598063 0.03549830120013443
533539 -1.0031438169622824 0.03460108320669169
533649 -1.002850384186793 0.03457812172992777
533759 -1.003446806877958 0.033970252280476405
533869 -1.0044824102203047 0.03294148284961372
533979 -1.0024998594631807 0.0331882941848759
534089 -1.0015364958666295 0.033118785801010006
534199 -1.000977857181849 0.03317449184138795
534309 -1.0009439233290176 0.03341415849868628
534419 -1.001511343536344 0.03584854817548547
534529 -1.0020622808864226 0.03352252279448544
534639 -1.0031318485135776 0.03482731364247778
534749 -1.0030134198450604 0.033724650146345084
534859 -1.0032023699733523 0.0341138268454633
534969 -1.0008422877654541 0.033381782111100176
535079 -1.0018314648445863 0.033518034796098224
535189 -1.0016829219381365 0.03475098159838765
535299 -1.0039437013898844 0.035948634933601904
535408 -1.0009402304756598 0.03520646999496513
535518 -1.0019360160826973 0.035537090812922924
535628 -1.00458044969422 0.033760809087656565
535738 -1.0040987216980752 0.03393238045115473
535848 -1.0033465169268274 0.03318489849530421
535958 -1.0024056172938123 0.03358399366552901
536068 -1.002290763419839 0.033582719982343086
536178 -1.0020278092211907 0.03508168601281079
536288 -1.0026933945095908 0.03554049555780768
536398 -1.0029423841499607 0.035547270395319075
536508 -1.004913057395799 0.03487088083834385
536618 -1.0031921707591227 0.03390415634165808
536728 -1.0034571376250725 0.03270896770874284
536838 -1.0023495454051077 0.03348523787500093
536948 -1.0017501597053282 0.03367270367861746
537058 -1.0023582015240065 0.03401506883597756
537168 -1.002774401951216 0.0353635504767215
537278 -1.0036978900665765 0.034838153577314505
537388 -1.00351139134455 0.034699658107123096
537498 -1.003062921071635 0.03471438917450579
537608 -1.0027563982759087 0.03388986159222212
537718 -1.0034974449642993 0.03314108185834911
537828 -1.0023323140812155 0.03348853616148264
537938 -1.002153991970086 0.033303033714932935
538048 -1.0015826911791095 0.034484734887344104
538158 -1.0016749351511611 0.0351397716836556
538268 -1.002994262097103 0.03475633899081099
538378 -1.0019559526229322 0.034030335412168475
538488 -1.0026615385686477 0.03323935066938503
538598 -1.0029449566508442 0.03419267090173153
538708 -1.0001959809112047 0.033819182164468296
538818 -1.0027442119808425 0.03350176172626878
538928 -1.00197571283116 0.03410785976872764
539037 -1.0020902392243547 0.03506565890642179
539147 -1.0026335018756651 0.03518864626054399
539257 -1.0026381646623077 0.03541962356486776
539367 -1.0030808010019325 0.03441877237460191
539477 -1.0031233845561536 0.03433223020890032
539587 -1.0022867638026245 0.03381088974361281
539697 -1.0019527903941243 0.03358139567438724
539807 -1.0022704037927537 0.03320502180932651
539917 -1.0023052182491738 0.034083620529720915
540027 -1.0030459251497448 0.03552511846478471
540137 -1.00274269379067 0.035179168495984355
540247 -1.0033910446736958 0.034538779233232716
540357 -1.0031138445032128 0.034684010618414626
540467 -1.003434248642875 0.033812277853952785
540577 -1.0041808343288532 0.03441817876031053
540687 -1.000113798901924 0.03271564751034897
540797 -1.0010329893889918 0.0332123922328335
540907 -1.0026512013404745 0.035427403089430376
541017 -1.002508764311565 0.035832932706615785
541127 -1.0024151970538127 0.035232873057489
541237 -1.0036926401214081 0.03455950180300331
541347 -1.0031080227641123 0.03427787973987663
541457 -1.0027585890239152 0.033881776550755756
541567 -1.0025758002664542 0.033548572230077546
541677 -1.00203223987257 0.033475141764492566
541787 -1.0021773496842705 0.03440194235186777
541897 -1.0020677178119333 0.03520862220762357
542007 -1.0026403380717186 0.03541052755996362
542117 -1.002732347615246 0.034829793759353196
542227 -1.0029825406268074 0.03476092873443461
542337 -1.0028139606964168 0.03365691409298265
542447 -1.0025320919391183 0.03343979336944548
542557 -1.0013001239794492 0.033753248155856216
542667 -1.0010189624696109 0.03438510119383455
542667 -1.000122523557171 0.034667694951346896
542779 -1.0002928277359031 0.035508689743557025
542891 -1.0029687285236484 0.03535794085184215
543003 -1.0029669474404876 0.035724221781102135
543115 -1.0035525369625367 0.03479845605799258
543228 -1.0031074671287115 0.03392421206683814
543340 -1.0023011743389145 0.033476408164420435
543452 -1.0021577618917796 0.034414822919918465
543564 -1.0015918338292187 0.03459108501452234
543677 -1.0023748824846486 0.03816083001011885
543789 -1.0036182890348035 0.03717468569704984
543901 -1.0028926444720676 0.03768493080537153
544013 -1.0034542093751728 0.036831194906935504
544125 -1.0036772105441063 0.03418542478933884
544238 -1.0038582580257542 0.03485194572571792
544350 -1.0019038002299656 0.032950199613869025
544462 -1.0019323795940311 0.03399668863166367
544574 -1.0010358071778171 0.03433848049921784
544687 -1.0013112330662661 0.03458688436846796
544799 -1.0026509759386242 0.036706303722055196
544911 -1.0023883055964478 0.034915076938056566
545023 -1.00434070723738 0.03444338210291746
545136 -1.0036069222405803 0.034208085775419776
545248 -1.0027731169176095 0.03329973267414147
545360 -1.0020327057227965 0.03362066006828977
545472 -1.0013582926122686 0.03454403633119092
545584 -1.0016434472447913 0.03554904835979573
545697 -1.0033055552108547 0.036198655817140366
545809 -1.0035189438742056 0.03591772033243545
545921 -1.0036782861753475 0.0345461214579099
546033 -1.003381002211248 0.0335544934351703
546146 -1.0023780897974184 0.03358491093115893
546258 -1.0024992290663304 0.03360584978379731
546370 -1.0012105927181176 0.03437385571707434
546482 -1.001997458931383 0.03528023364818184
546595 -1.0028940708152043 0.03612943451766862
546707 -1.0037653220751817 0.03643167390642019
546819 -1.0024902190509908 0.03666254650404515
546931 -1.002995725824856 0.03636480674747527
547043 -1.0024843218743227 0.03159226579853231
547156 -1.0020314503088301 0.03363817294766969
547268 -1.0013249373105224 0.03426821913991465
547380 -1.0016061781783712 0.034936655264901584
547492 -1.0028402512405832 0.03646317441667729
547605 -1.0037034242426084 0.036198264466022895
547717 -1.0033450497766583 0.03705092947258286
547829 -1.0028911726312202 0.03563811399679512
547941 -1.0041062663862976 0.03465975709835305
548054 -1.0024422294532374 0.034590198685358384
548166 -1.0009384321249384 0.034527792526443404
548278 -1.0033229137172799 0.03586028205154193
548390 -1.0025454821994322 0.03594688807458674
548502 -1.0029843275992825 0.03639142236723009
548615 -1.0035273200939927 0.035544230378424156
548727 -1.003766121690715 0.03521613743456883
548839 -1.0041135713989617 0.034405943375701555
548951 -1.0047428187616907 0.03406419391701518
549064 -1.0031939608357647 0.0346586173494332
549176 -1.0003473754046917 0.033939879361300315
549288 -0.9989168121939279 0.03568174907618169
549400 -1.0010131563621214 0.03563636005910035
549513 -1.0028884881563098 0.03592440287278996
549625 -1.003711641333706 0.034682547352296526
549737 -1.001701145080782 0.034253400681716645
549849 -1.0035608467676462 0.033465423857606855
549961 -1.0006804690340982 0.03423903197984276
550074 -1.0107953156311984 0.034597683365828684
550186 -1.0011624844028657 0.03477552066607011
550298 -1.002948542264379 0.03672118920210561
550410 -1.0052602757767681 0.035586403671269994
550523 -1.0018857033947897 0.03560657971885808
550635 -1.0032357673424401 0.0351158137846108
550747 -1.0005662311453722 0.03492576986309431
550859 -1.0027665342431447 0.034115116705113
550972 -1.0030422815044246 0.034129586924709694
551084 -0.997922368637723 0.03371627481867035
551196 -1.003657050470646 0.035864296083250785
551308 -1.0024275818655766 0.03623708707221453
551420 -1.002792454744521 0.03562202403721285
551533 -1.0030712068698842 0.03540588545593814
551645 -1.0028561127952813 0.034617208520767155
551757 -1.0021645862656028 0.03416513891812224
551869 -1.0025030913263868 0.03432099795773051
551982 -1.0021281431828497 0.03514748876874286
552094 -1.006350740164697 0.03588442420720473
552206 -1.0038210367997014 0.03668502088849492
552318 -1.0035801381613865 0.035848623101016205
552431 -1.0050645220870673 0.035390079369614615
552543 -1.003307903112443 0.03508834322659197
552655 -1.0033573725951914 0.03477504347844453
552767 -1.0027197781407309 0.034241691227358734
552879 -1.0026683718854597 0.034369585796621104
552992 -1.0031334669827543 0.03389127741002945
553104 -1.0029143007688213 0.03819893665949662
553216 -1.0041875123728636 0.037497932640775805
553328 -1.0031202712213692 0.03406391422805413
553441 -1.0029619305680595 0.03459960133173216
553553 -1.0022164316803597 0.03433597428313758
553665 -1.0028426831084902 0.03417983681862081
553777 -1.0024073688100612 0.03393877461022774
553890 -1.0016437262750872 0.034948645927277505
553890 -1.0022172787466324 0.03594565237788896
554004 -1.0021294199619772 0.03642752096332544
554119 -1.0030509648249404 0.036185684686469315
554233 -1.0037780505097775 0.035442407797627806
554348 -1.0036662534420375 0.03463833691038794
554462 -1.0026590019204737 0.03419846279850494
554577 -1.0017198896934272 0.03445313707496777
554691 -1.0016067214819468 0.03578088775727793
554806 -1.0021464224459762 0.035704145756345736
554921 -1.0009760024683967 0.0362715535039701
555035 -1.003191457381837 0.03651907314360524
555150 -1.0022541598185593 0.03530484640348137
555264 -1.0032268648660836 0.03452222470050513
555379 -1.003072555935849 0.03417852928411219
555493 -1.0022738764183652 0.03447882296877201
555608 -1.0018516299614573 0.035107629262592255
555722 -1.0017484736504543 0.036017745579314905
555837 -1.0022533499859632 0.03650406297605921
555952 -1.0025897481119024 0.03661365003212796
556066 -1.0028849209153134 0.036550946559973096
556181 -1.0046831803371041 0.034804673852637275
556295 -1.002522567557418 0.034923433220213004
556410 -1.0026207975897334 0.033265032432774566
556524 -1.0014053895091466 0.03422400276589944
556639 -1.0016220155487996 0.03559761178392504
556754 -1.0013389979908718 0.03582373414021991
556868 -1.0031194610402723 0.03721302316965567
556983 -1.0036592155086028 0.03585714631772375
557097 -1.0037406231818078 0.03575468804204316
557212 -1.0029678421097223 0.03467345072273684
557326 -1.0037612032096552 0.035163202920727624
557441 -1.0015513021746763 0.034600774209769446
557555 -1.0018052015320973 0.035583762845409636
557670 -1.0021644848874622 0.035951260322593256
557785 -1.001582979942746 0.036583188424903185
557899 -1.0029419259974253 0.036593514912952846
558014 -1.0037784622299812 0.035965274588715665
558128 -1.0031150490853606 0.034777662701715846
558243 -1.0020979276641224 0.03484664897727898
558357 -1.002352557995668 0.03500373979327241
558472 -1.0020403704712832 0.03574277284585435
558586 -1.0023822525591466 0.03597952232476346
558701 -1.0024165918820345 0.036903573712524895
558816 -1.0026531035868298 0.036568396903237786
558930 -1.0031703517128439 0.03624532689907495
559045 -1.0033937372711874 0.03528985704261986
559159 -1.0030715938439345 0.03476895951048178
559274 -1.0003465623090464 0.03514421928653089
559388 -1.0025070357091597 0.03547167615406057
559503 -1.0025819455879845 0.035531383551599224
559618 -1.0022316099090596 0.037251287565762944
559732 -1.0033705041384207 0.036573044246885934
559847 -1.0034061741211338 0.036288380387669295
559961 -1.003062807306138 0.035599283404799384
560076 -1.0032762782510893 0.035123302690298876
560190 -1.002043327424415 0.034335698378219724
560305 -1.001695751900899 0.03504663275554749
560419 -1.0028161541001042 0.03669386118603788
560534 -1.002701403089753 0.03708860053403253
560649 -1.002274833367802 0.036704694779355666
560763 -1.0035002356477964 0.03638023786040651
560878 -1.0043870611035384 0.035568915056701345
560992 -1.0030999866210601 0.03496928548624902
561107 -1.0027107696795754 0.03433757727199994
561221 -1.0027022703938253 0.03480736060371742
561336 -1.0024632178245425 0.03635342884391253
561450 -1.0010989238231438 0.03665162611979578
561565 -1.001514185889579 0.03631041239707373
561680 -1.0035380307843578 0.03698910193106107
561794 -1.0026305145926664 0.035741072978595315
561909 -1.0035958601835056 0.03488906636718099
562023 -1.004518717592048 0.034543350416869845
562138 -1.0020319881469073 0.035194889270145795
562252 -0.9989612005788424 0.03547078564777963
562367 -1.0016127842336104 0.036097956289746796
562482 -1.0044949161585088 0.037081434019391214
562596 -1.002373666121751 0.03678060036788873
562711 -1.0037334390431856 0.03653390278769529
562825 -1.0012912182285623 0.03495787408874245
562940 -1.00230428372728 0.034499221718256985
563054 -1.006427206235208 0.035163448138646004
563169 -1.002062649245828 0.03547521229057545
563283 -1.0027376447146896 0.036098215094286436
563398 -1.002382634195688 0.03682037271981903
563513 -1.0018756361496481 0.036588954702046546
563627 -1.0025778485697432 0.035791821698568385
563742 -1.0040215092185754 0.03536848276867113
563856 -1.0035748870067327 0.034869499134515244
563971 -1.002255936377423 0.03509304195064478
564085 -1.0021552630048813 0.035452154596541025
564200 -1.001899032944814 0.036427409923176716
564314 -1.0014867283540265 0.03670015144659196
564429 -1.0016061440135975 0.0368774587077819
564544 -1.0016650952217028 0.03723747992625741
564658 -1.0022533121721957 0.03583810226995954
564773 -1.0029978066186225 0.03598489609483482
564887 -1.0024180277683377 0.03590609092910454
565002 -1.0015480731859143 0.03527707571814488
565116 -1.0012490031183516 0.035974944969217194
565231 -1.0016933129019137 0.03669377014051743
565346 -1.0019171327536998 0.03727267504566717
565346 -1.002353649333246 0.03657239651140773
565462 -1.0006322152724334 0.03585596016985876
565579 -1.0068391729614337 0.035050831159784274
565696 -1.0046650060238762 0.03366420997945683
565813 -1.0008796168104483 0.03601331771037975
565930 -1.001324669533218 0.03642552965944157
566047 -1.0011482385139274 0.03637013786918888
566164 -1.002089882955911 0.036483161325422814
566281 -1.0024173758473613 0.03709056177858888
566398 -1.0037765589499144 0.03689859864205737
566515 -1.0043604130970292 0.035650822944906374
566632 -1.0026955871813459 0.035092258237304774
566749 -1.0027262994663033 0.035601472688643276
566866 -1.0020792020214517 0.03622580937277603
566983 -1.0020482040003984 0.03656150688101967
567099 -1.0019672030812217 0.03661122826037546
567216 -1.0030003487443189 0.03738144718610539
567333 -1.0034777231277934 0.03670062628085678
567450 -1.0036080514559302 0.03548899928931814
567567 -1.0030719842343532 0.03525549286036125
567684 -1.0031809346812919 0.03497697035690293
567801 -1.0025485646343342 0.03486371416686277
567918 -1.0009129171406483 0.036872246927357535
568035 -1.0015412764482665 0.037190572271669504
568152 -1.0021799676785001 0.036860129594521354
568269 -1.0030784471612568 0.03612379312971655
568386 -1.0030445026406754 0.03588645623721788
568503 -1.0033389028197628 0.03560675460003481
568620 -1.0039286102630418 0.037345385968258024
568736 -0.9984397706519712 0.0342739266504313
568853 -0.9970951203001295 0.03534144178273833
568970 -1.0041754501410023 0.037820578822188394
569087 -1.0032474475007411 0.03826072693966951
569204 -1.0030485600674588 0.03749105015738779
569321 -1.0021947620844613 0.03546299076896071
569438 -1.0041822677225565 0.03561923803976795
569555 -1.003488035472443 0.035458307438173076
569672 -1.005357981853569 0.035485787489205806
569789 -1.0014796196588354 0.03802765828758859
569906 -1.0005656276655928 0.03819829569318733
570023 -1.0029053647432322 0.03677412157001606
570140 -1.0033685663346288 0.037271539364805394
570257 -1.0070979528699355 0.036705157418670684
570373 -1.0026792142473822 0.03564314579891053
570490 -1.0025338059602353 0.035609328462386895
570607 -1.002452615093409 0.035574217473360654
570724 -1.0015188085316726 0.03628465755712461
570841 -1.0025476794039516 0.03725950161112129
570958 -1.0032143004140455 0.03726924308529775
571075 -1.003287442665634 0.03684403916441489
571192 -1.0033606337333292 0.03616999268244607
571309 -1.001888242491047 0.035324401485449436
571426 -1.001690836368228 0.03566624436493944
571543 -1.0015143119755765 0.03648140011052031
571660 -1.002486052944967 0.03688535761039372
571777 -1.0024955320526048 0.03771160168213887
571894 -1.0021261941257253 0.03688657104713552
572011 -1.0019633932211789 0.036065137933881566
572127 -1.0044454678287844 0.036635204829096595
572244 -1.002737738168907 0.03560077380941402
572361 -1.0015782072426367 0.03614741706293301
572478 -1.0007753413660767 0.0357993115099255
572595 -1.0018870651351988 0.03706079651766907
572712 -1.0025483830485122 0.03760261023254056
572829 -1.0044600712683325 0.03761978730565403
572946 -1.0005880311196023 0.0361978789718121
573063 -1.0012899737154484 0.03567788479442598
573180 -1.0035604214846714 0.03579738211555848
573297 -1.002396542612299 0.0364021177565843
573414 -1.0018596083014852 0.03709081157978917
573531 -1.0021804808988501 0.03714660351959431
573648 -1.0018508554526988 0.03720972840835764
573764 -1.0028996647843171 0.03727512156939794
573881 -1.0034984978415058 0.03727175218989004
573998 -1.0030459617142062 0.035785511887057225
574115 -1.0026609705017482 0.03559918109569118
574232 -1.0025707976544402 0.03607222903839729
574349 -1.0020668328547673 0.036927766760222656
574466 -1.0024724238440774 0.03728480238855559
574583 -1.0027754505470141 0.03685990609886368
574700 -1.0030444470024047 0.03724838452265729
574817 -1.0031215946359633 0.03672493459673778
574934 -1.0024990139091223 0.035675210867107135
575051 -1.002532641174647 0.03622707795758705
575168 -1.0019519317484613 0.03594147965017418
575285 -1.0016906298464796 0.03698485564510871
575401 -1.002185951270055 0.03700780383001283
575518 -1.001740995332911 0.037243399743884506
575635 -1.0026682801761924 0.037033468581271406
575752 -1.0031550553225335 0.0367866263457415
575869 -1.0029970369341372 0.036349573171342096
575986 -1.0021037225316656 0.03632148740209372
576103 -1.001540814392247 0.03652799118364151
576220 -1.0024905119858536 0.0369236977061658
576337 -1.0017113720953545 0.03709678467794068
576454 -1.0022246486185868 0.03702395977334889
576571 -1.0029269898986664 0.0374204277962698
576688 -1.0028263593780646 0.03702520739609937
576805 -1.0034645755647444 0.03666321644994748
576922 -1.0025931632674348 0.03614097911737805
577039 -1.0014212872543835 0.03578180894017863
577039 -1.0028946349941645 0.034522807789775685
577158 -1.0019593541682021 0.03430921299290568
577277 -1.0017580966391988 0.03814488870556021
577397 -1.0014108358635425 0.03757936408288334
577516 -1.002217581895936 0.03808046118265638
577635 -1.003685438750751 0.036766461017933905
577755 -1.003297170282458 0.03630008186906643
577874 -1.001306056467026 0.03520994439361991
577993 -0.9988158681858894 0.03519502570153769
578113 -1.0069652786918952 0.038114633111125666
578232 -1.0046830418789117 0.04000901488194175
578351 -1.0018683161217976 0.0366139833839116
578471 -1.0025900152374685 0.038226642758376166
578590 -1.0039468575733923 0.03785156400218095
578709 -1.0040989117960466 0.036458576583367514
578829 -1.0024914458025476 0.03565462180288529
578948 -1.0024482963473376 0.03530890079225653
579067 -1.0018583553844054 0.03587518868955747
579187 -1.0018321422220011 0.037137305840475504
579306 -1.0017612120711836 0.03853417741274301
579426 -1.0030700051813546 0.038248441997063724
579545 -1.0034027026254377 0.037059164074991276
579664 -1.0030542629932473 0.03631527547904463
579784 -1.0019204024312984 0.036258905560711215
579903 -1.0018514216173922 0.03533726452315793
580022 -1.001278883549597 0.03613520336944365
580142 -1.0017071678727294 0.03777290244169568
580261 -1.0020059535143018 0.03730551225804151
580380 -1.003160953203617 0.03927978175460182
580500 -1.003392509013554 0.037934643692692296
580619 -1.0034624879112461 0.03625902397579022
580738 -1.0008758716248172 0.03689024902307492
580858 -1.002386621475998 0.03606295420434286
580977 -1.0018419781187455 0.03580930911869686
581096 -0.9998522884115042 0.036433321853515784
581216 -1.0055106632548092 0.038139558773310725
581335 -1.00680474487336 0.037607050028314715
581454 -1.0015958984311006 0.03748479448411997
581574 -1.0025509063860734 0.036544990426913025
581693 -1.0025594563681786 0.03520316629229097
581813 -1.003350195609173 0.03631467466863146
581932 -1.0016023793096542 0.03643495300913045
582051 -1.0007927583689684 0.03734517585966949
582171 -1.0030767353665604 0.0371572919541274
582290 -1.0022383474378391 0.03963493463981613
582409 -1.001309123678322 0.03737690237155193
582529 -1.0049858310663295 0.03647140647479202
582648 -1.003016106109372 0.035610954673274166
582767 -1.0019943952721768 0.03620773538712128
582887 -1.0021626801590364 0.03687722839980299
583006 -1.0024682807128928 0.03854770340026666
583125 -1.0037829681984793 0.03828439276603067
583245 -1.0023308834093998 0.03719532733005475
583364 -1.002462415375351 0.0362530027570703
583483 -1.002796729982481 0.03597506911943453
583603 -1.0025200593006685 0.036275669709679
583722 -1.0017473274057491 0.037425568756226255
583841 -1.001491277336855 0.037954657971365616
583961 -1.003238070684799 0.038964853678940585
584080 -1.0028079234938547 0.03827448380401729
584200 -1.001801448417573 0.03848519199865227
584319 -0.9973829635938267 0.03554560364556164
584438 -0.9995321775251939 0.03899683507420791
584558 -0.9990921678746106 0.03391343743474847
584677 -0.9998083605152259 0.036710867160665066
584796 -1.0004369347980338 0.036858195551045504
584916 -1.0017278741188436 0.03679729593730667
585035 -1.001927250298389 0.03882690869693962
585154 -1.0054127490493463 0.037949110192288
585274 -1.0094748925704673 0.035540796809721636
585393 -1.0010028675861884 0.04014055776060485
585512 -1.004689527770606 0.04031061463268558
585632 -1.0009018310223656 0.03504835962649554
585751 -1.0019885365224142 0.03774202670236742
585870 -1.0032238305417678 0.03854598112130025
585990 -1.0037931549027044 0.038630929250217015
586109 -1.004083874859573 0.03717959870924449
586228 -1.0034613083908714 0.0359981181044093
586348 -1.0031657570889638 0.03574444897941516
586467 -1.0013624202334246 0.03643587680512145
586587 -1.0021815891555106 0.03643293519307194
586706 -1.0012143263920341 0.03849156522859232
586825 -1.0014490336217694 0.0387349426477525
586945 -1.0036611771494761 0.03765927718971671
587064 -1.0034920353050316 0.03699079161835083
587183 -1.0020138631285356 0.03620741568986107
587303 -1.0024809842229998 0.03627502201535785
587422 -1.001052886823907 0.03739159132851092
587541 -1.0014447888980147 0.03810222820261447
587661 -1.0011700754880664 0.038244279068523915
587780 -1.001408601204027 0.03840861800714545
587899 -1.0025504838761727 0.038344449051037864
588019 -1.0030805923344939 0.038010387904245366
588138 -1.0026791947986577 0.03595213188258803
588257 -1.0020150769416252 0.03665657998717265
588377 -1.0061982773644684 0.03725555257307208
588496 -1.0045816627270232 0.0402424233758926
588615 -1.0089597461960447 0.038875507513135676
588735 -0.9998676845212525 0.04037891847292374
588854 -1.0028856380043047 0.038591710314016106
588974 -1.0041214958454379 0.037080856980042015
588974 -1.002686600920817 0.037870339254101215
589095 -1.0028602423883586 0.03693073958030169
589217 -1.0025453540305855 0.03663692991898228
589339 -1.0027189256100775 0.03709498748900346
589461 -1.0052610827651167 0.03914735477555416
589583 -1.0015706035814194 0.03876801460812662
589704 -1.0083481380006574 0.03928086459327128
589826 -1.0053621323531294 0.03828990550448099
589948 -1.0038125087014373 0.03668117978930494
590070 -1.0022771061979678 0.03643100502129512
590192 -1.0025711934023058 0.036082819137773676
590313 -1.0018377653640582 0.03725318019317838
590435 -1.0024980779874717 0.03836717567645445
590557 -1.0007918219822467 0.03863204271142552
590679 -1.0036522354606918 0.03960093735949546
590801 -1.001832418505956 0.037445802232718574
590922 -1.002707743777635 0.03637220408403623
591044 -1.0024905806945417 0.036749733146523356
591166 -1.0018123400296113 0.03617604884439044
591288 -1.0011276155674622 0.037566149133551094
591410 -1.001368128956223 0.038855568501415264
591532 -1.0027176902272512 0.03906001975916331
591653 -1.0029694142530756 0.03875368504170328
591775 -1.0036041726168303 0.037869932605425025
591897 -1.0026747180984492 0.03673716196712199
592019 -1.002876159702373 0.0366911374332615
592141 -1.0027275805056686 0.03715999395747855
592262 -1.0011418155415182 0.037806610617035975
592384 -1.0019301436708912 0.03887413731677394
592506 -1.0014247032113768 0.038822803998869636
592628 -1.0042010858562749 0.038528541526390084
592750 -0.9991012348509325 0.03694673114057121
592871 -1.0048296294568662 0.03633381430964645
592993 -1.0017280342968184 0.03641512368608231
593115 -1.0010005021505946 0.03726013633179478
593237 -1.0003193252869287 0.03771281061411604
593359 -1.0033273674978807 0.039418814920300124
593480 -1.002172256709428 0.0381154618216498
593602 -0.9966357549298006 0.03722083518500356
593724 -1.007657999056245 0.03527250591728495
593846 -1.0004960084906152 0.033273023225232554
593968 -1.0069916689716183 0.03942457943191613
594090 -1.0008202123288112 0.037906640958745144
594211 -0.9992914780201573 0.03881800359249903
594333 -0.9973913845098243 0.03808449566196166
594455 -1.0025432930650091 0.038210176504170565
594577 -1.0033818988688799 0.03775612722853994
594699 -1.0021732925995919 0.03702767681366045
594820 -1.0011736516105656 0.036386668765432534
594942 -1.0011851784493402 0.036608692786336966
595064 -1.0002286744747981 0.037372552184570494
595186 -1.0021456648334552 0.038863347504606224
595308 -1.00219196460159 0.039321107866394804
595429 -1.0010568691439805 0.03887269438153759
595551 -1.0025338372642876 0.03734825648234745
595673 -1.0047315097232987 0.037330957012879376
595795 -0.9997441592565546 0.036750370047648355
595917 -1.0003519356949886 0.03729876088339621
596038 -0.9988839197202126 0.03657393701149587
596160 -1.0027691026909227 0.03897982911774745
596282 -1.0039395380366238 0.039847457360720734
596404 -1.0042746194742156 0.03905713404216956
596526 -1.0013505210093707 0.037429408924804966
596648 -1.0010690150447428 0.03756528930889784
596769 -1.007094027158741 0.0399076059188417
596891 -0.9863355906461384 0.03456387157317991
597013 -0.9854921039463769 0.035078293573745235
597135 -1.012743865087081 0.04346826804316649
597257 -1.0024458993067398 0.04011205518790711
597378 -0.9966156095893087 0.03692709728996086
597500 -1.0066881169301511 0.035375523433919094
597622 -1.001092496870229 0.036427809221024905
597744 -0.998050778725864 0.030558026431961278
597866 -1.0076838064846978 0.030724775169092174
597987 -0.9674833126749933 0.0377707365198888
598109 -0.9871032929590426 0.03375493269005799
598231 -0.9885073974040125 0.03918538060039585
598353 -1.0044650191273294 0.04036209253277191
598475 -1.0072743217351148 0.04163208233200051
598596 -1.0045735120724797 0.03590964339267678
598718 -0.9997394105340115 0.03569659118322254
598840 -1.002681328158986 0.04210375543680877
598962 -0.9785891930859332 0.0289145191071054
599084 -0.9667557141747732 0.03012381694042283
599206 -1.0280647626158044 0.04432784398991598
599327 -1.0115317228688254 0.039452417570113786
599449 -0.9885395059403228 0.03681674774974501
599571 -1.0102713748733354 0.041068343199256216
599693 -0.9939574883705181 0.03854120116182687
599815 -1.0168328328094185 0.04414231736363523
599936 -1.0475346805528996 0.05154413683828261
600058 -0.9401518686207638 0.023065743094889672
600180 -0.9670839523918435 0.02030508701157276
600302 -0.9825770345526041 0.04317119499234916
600424 -0.9927870541382009 0.03629616659696609
600545 -1.0215876377799964 0.0363361768813714
600667 -0.9950458277471687 0.04129863888109486
600789 -1.0067708143198015 0.03813526272891903
600911 -0.9669968867611834 0.03735235167285208
601033 -0.9683454805055014 0.025643910618317552
601155 -0.9869451674660172 0.035044384223954374
601155 -1.0599713781249238 0.047231992674112766
601279 -0.9963537085935495 0.0279225323076349
601403 -0.9996030740490083 0.03660955201522128
601528 -0.9867183041621914 0.0366692024534417
601652 -1.009080768549729 0.039375763678595126
601776 -0.997874937643772 0.03831063428126839
601901 -0.9987620481203332 0.04211400309376684
602025 -1.001369236670817 0.03335365927802249
602149 -0.9967538229491496 0.03363130337382424
602274 -1.0048224441124345 0.03956204136286844
602398 -1.0007802073610872 0.0385606235180179
602522 -0.9945800064195298 0.038783117112203155
602647 -1.001069348090385 0.03736795587435195
602771 -1.000689885220005 0.03941094278509332
602895 -0.9887446767165553 0.03628815597782721
603020 -0.9792484545703499 0.03253946834432017
603144 -1.0063305284656658 0.04414921276532324
603268 -0.9795735079705817 0.036613633591170605
603393 -0.9991703288971283 0.040587548962286606
603517 -1.002264397984283 0.03995243730845682
603641 -1.0032820949285024 0.041708250264217754
603766 -1.0066768930685095 0.039883242781388724
603890 -1.0025962031346023 0.038151282017112036
604014 -0.9990841656638672 0.03734137829268717
604139 -1.0032994802084914 0.03768794876923724
604263 -1.0021800937405692 0.03842170673787782
604387 -1.0014930346153204 0.038341875154697766
604512 -1.0028717291791136 0.040469914227984835
604636 -1.0036805427499127 0.04059908844818304
604760 -1.003404517695608 0.038261768580213136
604885 -1.0045849242640654 0.03780698975451686
605009 -1.0039352606226293 0.03670565441080125
605133 -1.0052252641155563 0.038063097992329924
605258 -1.003989633346416 0.03750390888438521
605382 -0.9987722063326696 0.03979912098241846
605506 -1.0018850654266398 0.04031031104758828
605631 -1.0021394056586415 0.03967157606658642
605755 -0.9981562022946036 0.03793598537596782
605879 -1.00197679841922 0.037918366151058695
606004 -1.0071374303363603 0.03841993233601944
606128 -1.0184156093963632 0.040858585029627505
606252 -0.9808531107012445 0.035093209502600135
606377 -0.9919319674477252 0.03568729663810631
606501 -0.9959056828306496 0.040212573358955124
606625 -1.0041360336487641 0.039529349609949783
606750 -1.0089583089184933 0.039259860489479145
606874 -0.9978605026829842 0.036669935042483094
606998 -1.0032390869424288 0.03828098549183598
607123 -1.009311800713449 0.039470571015278934
607247 -0.9956807545898747 0.040132428999029954
607372 -1.0010160561833656 0.04086474087708076
607496 -1.002161190819685 0.0399150679738646
607620 -1.0042534450515952 0.03926535429037112
607745 -1.0045719508458841 0.03836465115963164
607869 -1.0029208093531154 0.03781515388583184
607993 -1.001951894144279 0.03754647431130967
608118 -1.001802914593625 0.038898617623935074
608242 -1.0014847664967583 0.03954147090408982
608366 -1.002773674735321 0.0398886257081002
608491 -1.0039792024342888 0.03955941983421617
608615 -1.0032895465710576 0.038655490027710966
608739 -1.0028419149501473 0.03766226054542343
608864 -1.0022891706399026 0.03767956541169612
608988 -1.0012369334775781 0.037877783266543084
609112 -1.0015436524810921 0.038576895811570464
609237 -1.000226786069121 0.03854621010331341
609361 -1.006767658598731 0.04179694711253586
609485 -1.0073026195109318 0.04000873933155638
609610 -1.002561355030048 0.03706205764950946
609734 -1.0022991404676924 0.03717771939885357
609858 -1.0024433448459074 0.038479418618258876
609983 -0.9992379939870726 0.03817841216897219
610107 -1.0017818713382853 0.03919484139954762
610231 -1.000696208511786 0.03948565083181957
610356 -1.0044586021462352 0.03944541761907081
610480 -0.9995748496605629 0.03790701009847927
610604 -1.003826512658874 0.038210251839951415
610729 -1.0026653569697797 0.03802796932594067
610853 -1.0029241839933165 0.03850708913859
610977 -1.0032613234456944 0.03928533468526818
611102 -1.002592643408376 0.040122068721146605
611226 -1.0031730039861604 0.04034290698352416
611350 -1.0047276775528475 0.040247915281889604
611475 -1.0020667127537746 0.03863731623726775
611599 -1.0029473116969878 0.038335647555120936
611723 -1.0020074738848914 0.03791628951678302
611848 -1.0014201612498876 0.038301881254608795
611972 -1.0014061857075733 0.03975724878048127
612096 -1.0026892451287284 0.041216925664912016
612221 -1.0036336548307727 0.040264620328883324
612345 -1.0034236728307033 0.039138771152884964
612469 -1.0035471541477918 0.038092349724391544
612594 -1.003539455512835 0.03824068597718472
612718 -1.001034087885939 0.03821346520425277
612842 -1.001899067979322 0.038953906107351596
612967 -1.002337029123034 0.03984809600825298
613091 -1.0034342417200888 0.040675581959435166
613215 -1.0036921842543876 0.039677190269224984
613340 -1.003325864583879 0.03882562336719685
613464 -1.0026548262180408 0.038669748819879814
613589 -1.002761735181719 0.03839223731023345
613589 -1.000696505513672 0.03976632634776039
613715 -1.0015952875727387 0.039969985130533674
613842 -1.0030584730481273 0.040058142654805756
613969 -1.0035641882020527 0.03967912904105973
614096 -1.0039943058228826 0.038190992685652264
614223 -1.002755583621816 0.03837677006169139
614350 -1.0017149028311698 0.03826872345006472
614477 -1.0002280487380257 0.03919639261224707
614604 -1.0026691304366442 0.040237600925586516
614731 -1.0012966594944035 0.04064766974027908
614858 -1.0032614268961604 0.04034542821042926
614985 -1.004156174367692 0.039043499659316826
615111 -1.0036394445804835 0.03850500479728815
615238 -1.0018304207864597 0.038176024652800886
615365 -1.0008868381697889 0.03843409643426769
615492 -0.999960340888947 0.03915921886845786
615619 -1.004307606405411 0.04083770730259156
615746 -1.0042843990246813 0.04133946294694455
615873 -1.003050619331758 0.03974661038954755
616000 -1.0031797409457213 0.03837794510854488
616127 -1.0019465200232032 0.03804205274192005
616254 -1.0018931995163258 0.0387400964321756
616381 -1.0019758861908263 0.039387033546783246
616507 -1.0022702447965335 0.039814180488071706
616634 -1.002386728336616 0.04012340108108726
616761 -1.0034634958477013 0.03969481231604724
616888 -1.0031158793068506 0.03896809677682859
617015 -1.0020769632359394 0.03812066283470925
617142 -1.0014445013708875 0.03843709316803913
617269 -1.0015925887561663 0.03874665270132287
617396 -1.001658173115252 0.03932511913549282
617523 -1.002027505434422 0.04023725003673971
617650 -1.0038554341120183 0.04066570333264461
617777 -1.0037180972958721 0.039856202340786955
617903 -1.0025246719938483 0.03854268901986094
618030 -1.0021214212699603 0.038165362949079164
618157 -1.0020118614566984 0.03894561268371874
618284 -1.0020781537977899 0.03990022222822711
618411 -1.0020879311741724 0.04036237849309584
618538 -1.0029753661100447 0.04056755805704972
618665 -1.0033444402976437 0.039780014169846445
618792 -1.0045045306406841 0.03958635922465767
618919 -1.001465385425418 0.03830453676912727
619046 -1.0020888860767707 0.03871148862656671
619173 -1.0019514924779125 0.03998215910082408
619299 -1.0024746949391785 0.04008963209746151
619426 -1.0023915439318756 0.04032690169050157
619553 -1.0036994320177888 0.04036037907000242
619680 -1.0054334648359404 0.03897034214726018
619807 -1.0020847067510468 0.03912853516016089
619934 -1.0007815370538486 0.038576610398401816
620061 -1.0030183970226283 0.03922669396349446
620188 -1.001922720716806 0.039572048009341526
620315 -1.0018486558973605 0.04021617763083442
620442 -1.0028065958653118 0.04045413234722014
620569 -1.0030179251016589 0.039986657473446485
620695 -1.0037843711168462 0.03899682025356955
620822 -1.0027606700586877 0.038246137344130425
620949 -1.0024747632811475 0.038689699589590974
621076 -1.0011762615133435 0.03987067505601187
621203 -1.0016833800114504 0.040039216835899734
621330 -1.002330650900776 0.040500051481520805
621457 -1.0035455590322553 0.04100008146501019
621584 -1.0031471496192488 0.039562395471135194
621711 -1.0032557601026895 0.03908392351638756
621838 -1.0017370187851777 0.03876077367381065
621965 -1.0019002258847372 0.03926011205131616
622091 -1.0014280428740883 0.04007929818121158
622218 -1.001946312918223 0.04074059409202476
622345 -1.0026148185407127 0.04083460365683169
622472 -1.0031175182072753 0.04056289429305668
622599 -1.003328797844964 0.03941756418923636
622726 -1.0024177487670374 0.038628858036444225
622853 -1.002515450641748 0.03876234934148259
622980 -1.0019810118603611 0.04011104569486436
623107 -1.0026663310489594 0.039993297873814115
623234 -1.0026440431620014 0.04080676153466078
623361 -1.0038504323307953 0.040571611785295676
623487 -1.0035056099918676 0.03920876969018598
623614 -1.003084885638771 0.038757303784908395
623741 -1.0023196494640503 0.03902363246856634
623868 -1.0011917821365461 0.03888725921825418
623995 -1.003263657768537 0.04061766985315842
624122 -1.0024240014953198 0.04103636099804688
624249 -1.0027863467175986 0.040540191631429905
624376 -1.003290561838051 0.0401767204803966
624503 -1.0032097203740067 0.03867041176901294
624630 -1.0025201999512081 0.03876359638420234
624757 -1.001941769533788 0.0391364760806087
624883 -1.0018553895719662 0.03990190372580957
625010 -1.001647510554303 0.0407633049235763
625137 -1.00206279319259 0.04064005379524822
625264 -1.003257554224868 0.04032879279596555
625391 -1.0032328050730959 0.03942026450130196
625518 -1.002762785981496 0.03915058264155001
625645 -1.0016494474927267 0.03945522716516677
625772 -1.0018074904111973 0.0398257178743667
625899 -1.0016947715733835 0.04043924972591397
626026 -1.0014340270288993 0.04086661185921766
626153 -1.003972533857977 0.040613639997825315
626280 -1.0027815779578098 0.03891117940651902
626280 -1.0029338443123343 0.039228856304575496
626409 -1.002171488693368 0.038920123431030504
626539 -1.0014014821913024 0.04044903497107158
626668 -1.0024102019411358 0.040526013804665424
626798 -1.001991043367626 0.04036323514865046
626927 -1.0024379505838423 0.04113264611747691
627057 -1.0040933216155477 0.040079113151465943
627186 -1.0030972780228344 0.038884281149719674
627316 -1.0027626053511547 0.038767191621090484
627445 -1.0019166516558213 0.03934344561135195
627575 -1.0006552753348352 0.04043806011563679
627704 -1.001548904345712 0.0405548016857212
627834 -1.0031462434779694 0.040909112988084556
627963 -1.0018264811697717 0.04032086414116948
628093 -1.0052877007352452 0.039274877443169834
628222 -1.003383879042365 0.03920410829023676
628352 -1.0008926932420958 0.0394614794918566
628482 -1.0019310094154366 0.04005562352356096
628611 -1.0023461326737941 0.040321276806332663
628741 -1.002121026112208 0.04136965302563947
628870 -1.0039610786257016 0.0406123881907814
629000 -1.0035776652904878 0.039753471945927
629129 -1.003366459286278 0.039182889181903935
629259 -1.001860712832776 0.03986087842994608
629388 -1.001350555406291 0.040002698930845085
629518 -1.0013003659225947 0.040176442487733895
629647 -1.0029865279723256 0.040919762931910575
629777 -1.003733343764178 0.04071951045997472
629906 -1.0026542495057258 0.040178949457395405
630036 -1.0030328857560136 0.03921442215047986
630165 -1.0023048998895185 0.039786259953322974
630295 -1.0022524019237946 0.039731101970304175
630424 -1.001024981072941 0.039846519083642826
630554 -1.0022698070157667 0.04120092937155117
630684 -1.0029569563444853 0.041066354698703435
630813 -1.0038058420628524 0.039991636418035124
630943 -1.0029741547745141 0.03922909335116859
631072 -1.001492254550761 0.038923927190564575
631202 -0.9998122369725299 0.03929758827164107
631331 -0.9999355031631851 0.03987184348763971
631461 -1.0029534474864714 0.040960848863458535
631590 -1.0027676632686544 0.04131824483124522
631720 -1.0031794194117678 0.04072048202317224
631849 -1.002194578501175 0.0397593360089279
631979 -1.0022988861224478 0.038749277789089154
632108 -1.0005243653536497 0.039839972973234675
632238 -0.9994208118160339 0.04087969859617603
632367 -1.0010743011386045 0.039790640468978906
632497 -1.0021389015689912 0.041450180399682214
632626 -1.002875149998162 0.040798745059435884
632756 -1.0030386175125072 0.039641462703543726
632886 -1.0028430610173564 0.03887849305341882
633015 -1.0020661314739754 0.040340289633552365
633145 -1.002377453436964 0.039876648829322854
633274 -1.001696844200968 0.04111683165586628
633404 -1.0022304501924184 0.041208385981244045
633533 -1.002460903884193 0.04070598585688473
633663 -1.0030004615272519 0.040567188310310906
633792 -1.0033481348627287 0.03980947939802746
633922 -1.002230297711869 0.04026375378750654
634051 -1.0020206623361776 0.04076395363577667
634181 -1.0023073613293265 0.040508257314517085
634310 -1.0032578122035851 0.040586180156600565
634440 -1.0024002046754785 0.04019830776448514
634569 -1.0034400528029799 0.03992634022311676
634699 -1.003302089491363 0.039482743240357054
634828 -1.0028704788802056 0.04020320465657689
634958 -1.0021893847975762 0.04072822536015079
635088 -1.0021616059836276 0.04095325974792836
635217 -1.002642746324319 0.040903188139039294
635347 -1.002820585450798 0.04090078569632069
635476 -1.003003483384471 0.041032188915423526
635606 -1.0034659725122779 0.04109048527747774
635735 -1.0023138378308418 0.0399217631883744
635865 -1.002263740445319 0.04075262264293682
635994 -1.0023518416950448 0.041257274859132574
636124 -1.0025775166311355 0.04115457979040292
636253 -1.0028675071059507 0.04102353914900491
636383 -1.003030051557376 0.04108014678699195
636512 -1.0026601007910556 0.04062934295282101
636642 -1.0026500063676835 0.040063394876948044
636771 -1.0016825044797972 0.04086902809083756
636901 -1.002730282688458 0.04086353874416522
637030 -1.0003422538316182 0.04061045313938621
637160 -1.003286774724778 0.04088620627961866
637290 -1.0014276235469597 0.040347550152987494
637419 -1.002570561339235 0.041094016511472174
637549 -1.0032361575391127 0.03993450328928649
637678 -1.0002126949358172 0.04050646741747884
637808 -1.002223659633565 0.04123827891239537
637937 -1.0018754641450238 0.040685340725530976
638067 -1.0032462452277675 0.04087106964802051
638196 -1.001971756078753 0.04000777064710831
638326 -1.0024902647176104 0.04021704048362362
638455 -1.0026492773358797 0.04026977168882035
638585 -1.001938765739698 0.04017387640950054
638714 -1.0004330966644517 0.04065001643768017
638844 -1.0017388517420167 0.040934463191423534
638973 -1.0022516724788264 0.040748408560654245
639103 -1.0026381567982556 0.03996700305550875
639233 -1.0031715601947733 0.04043603223836001
639233 -1.0033110583232685 0.04018608458151409
639365 -1.0023225039602772 0.03971791948732553
639497 -1.0022900798700785 0.03977002279368488
639629 -1.0019348332417057 0.04042200348815487
639761 -1.0012401932420891 0.04107957715451056
639894 -1.0012198823319989 0.04141603548856795
640026 -1.0027889007753235 0.04154939596381442
640158 -1.0039364023161885 0.04084398470413532
640290 -1.0027161467247552 0.04025594761669412
640422 -1.003074484627233 0.04014238968143347
640555 -1.0009570652888298 0.03947362194518754
640687 -1.0023077337145894 0.041548512643876906
640819 -1.0015597254854118 0.04237166631772388
640951 -1.002857406707423 0.04170907826093348
641083 -1.0038325254298053 0.040949903255236286
641216 -1.0030079015632858 0.040344502172996066
641348 -1.0021568353656605 0.03974691789776656
641480 -1.0018951868323638 0.040482699870499496
641612 -1.002445121190937 0.041287063913221185
641744 -1.0026375292334828 0.04214869423875056
641877 -1.0032663006387168 0.04188825455560653
642009 -1.0039185284743348 0.04083335150209834
642141 -1.003873062522908 0.0399832583963317
642273 -1.0021361207598516 0.0399863686547663
642406 -1.002099230484844 0.04064637854169643
642538 -1.002785171115192 0.041206891443134684
642670 -1.0017275900239693 0.04180186219129124
642802 -1.002681046103832 0.042019928148782144
642934 -1.003775020894747 0.04113140748131674
643067 -1.0033691292010423 0.040159410525114445
643199 -1.0017657102895994 0.040274481466378645
643331 -1.0014693519571478 0.04048946455767466
643463 -1.001882729998439 0.04195250643092286
643595 -1.0018787913736626 0.042455588440310534
643728 -1.0039211955061442 0.04152812582925737
643860 -1.0029536005218544 0.04063188420020226
643992 -1.0038679593694195 0.04120060839467659
644124 -1.0021586357154686 0.040668791633860314
644256 -1.0014201077142857 0.04097054515817765
644389 -1.001756615295075 0.041335272569304596
644521 -1.002518264239805 0.04231538910513527
644653 -1.0029794838557509 0.04298588457004102
644785 -1.0029146333534327 0.040800438807634
644918 -1.0026234491568755 0.04000504213319882
645050 -1.002700486568861 0.040175781608132274
645182 -1.0019532750592262 0.0405073368429941
645314 -1.0023050337618764 0.04139885337518658
645446 -1.0015675763233922 0.04147005547441885
645579 -1.0027749752158963 0.041796253949500935
645711 -1.0031948738121286 0.04174085199187519
645843 -1.003285299579995 0.040757349051238394
645975 -1.0025554249392894 0.03949864060203764
646107 -1.0018763139548725 0.04105789394259867
646240 -1.0020701018666283 0.04146216005431048
646372 -1.0017962388442325 0.0415610503170679
646504 -1.0027548392197747 0.04209772104317118
646636 -1.0036628476020568 0.04197233447501865
646768 -1.003988940494952 0.04111482327907657
646901 -1.0010848272314754 0.04015886610796624
647033 -1.0012107790454798 0.04100309251988797
647165 -1.000488105057391 0.041644031595534786
647297 -1.0012058926870866 0.04215180653074644
647430 -1.001580314727781 0.04224787741229435
647562 -1.0018956370725538 0.04235859532075062
647694 -1.0026782292301117 0.0414305036687906
647826 -1.0008813981641194 0.04036268384455044
647958 -1.001712729286184 0.03920174074131838
648091 -1.0002986514896357 0.04161656085752893
648223 -1.001690432142395 0.04196364061685538
648355 -1.0011175462423938 0.04204030941647871
648487 -1.003801704114332 0.04223683158164431
648619 -1.0035880839755436 0.041636631113787466
648752 -1.0027999449824054 0.040120109182632244
648884 -1.0028468293618065 0.040915520916877515
649016 -1.0027353953014235 0.04112444059666861
649148 -1.001796535047001 0.04185396666454247
649280 -1.0037869879503667 0.04253141778237815
649413 -1.0045626617780221 0.04243250467594993
649545 -1.0041729173749159 0.04123551484153206
649677 -0.9980211494622234 0.04037279628153559
649809 -1.0015785804240105 0.04061287456315531
649942 -0.9997442360021166 0.040902846010158714
650074 -1.0044771603895908 0.041723438491148936
650206 -1.0023052496146638 0.041961310426398925
650338 -1.0051042624088316 0.04242495452623473
650470 -1.0038019664431492 0.04096943664403111
650603 -1.002701610078242 0.040644689833532664
650735 -1.0054405884730448 0.040775622396060356
650867 -0.9997787546923662 0.0411299849147002
650999 -1.0004564715010464 0.04229770880491809
651131 -1.0011099284840155 0.042888935202541806
651264 -1.0033252701507316 0.04199394818867739
651396 -1.0030587906286885 0.04128694803619904
651528 -1.0029398993440033 0.04085640792287285
651660 -1.0022477483432604 0.040463804871247205
651792 -1.0029814494119187 0.04162877347307142
651925 -1.0012233928366931 0.04139365509028202
652057 -1.0028141549710006 0.0429931767693541
652189 -1.0031269066722288 0.04246152934979137
652321 -1.0028880134118598 0.041843116205761866
652454 -1.0037631605327377 0.04059232059664775
652454 -1.0035551807414365 0.040344158465184354
652588 -1.0016986764124696 0.04072974203294266
652723 -1.0020101639459809 0.04188374150760937
652858 -1.0021768717473196 0.04247982200390472
652993 -1.0025713948862012 0.04293101442932038
653128 -1.0015475924188562 0.041782439754217325
653263 -1.0027130258810146 0.041041336394363415
653398 -1.0022446765027826 0.040360473360256395
653533 -1.0025238217690888 0.0408012793239197
653668 -1.0011307709919848 0.04201277225528971
653803 -1.0007436075007765 0.042121811168060984
653938 -1.0018587166318664 0.042312233668300836
654073 -1.0023559751713316 0.04269459898466887
654208 -1.0035679467545717 0.041698065944884094
654343 -1.0025723613294808 0.04091888498181172
654478 -1.0016610269233268 0.04106249153030826
654613 -1.001430437159015 0.04162909788041394
654747 -1.0011285842920343 0.04257850917631978
654882 -1.001782683244303 0.0428051239410378
655017 -1.0028198820575691 0.04254556294986306
655152 -1.0036192143693796 0.04171611102970962
655287 -1.0020998230778864 0.040616079354930494
655422 -1.0020931728444247 0.0415392803460117
655557 -1.0014314505356747 0.04270935374220657
655692 -1.0012221882940435 0.042594264712777344
655827 -1.0018424295950525 0.042762142150637124
655962 -1.0028246204941316 0.04262155905500453
656097 -1.003992250996587 0.04212380388902561
656232 -1.002467087277098 0.04050792289254039
656367 -1.0011978838612081 0.040427132937552235
656502 -1.0025676402730614 0.04291194183577319
656637 -1.0014921849848386 0.042413898366266946
656772 -1.0016620795538076 0.042018931506948645
656907 -1.00323825130339 0.04291992743628356
657041 -1.0037631254182198 0.042189924875058474
657176 -1.0023326294990502 0.04052986555142272
657311 -1.0036908808964624 0.04180550355691396
657446 -1.001989676657285 0.04185022270204894
657581 -1.002602219221059 0.04210475668920723
657716 -1.0024942226517035 0.04261349262136054
657851 -1.0030718913241796 0.04254166476355249
657986 -1.0029077789435008 0.04136687408074553
658121 -1.002780100731445 0.04099555355238323
658256 -1.0023854164425416 0.040715437518431485
658391 -1.0014924231065696 0.0425821173963074
658526 -1.002206568096607 0.04220052878564777
658661 -1.0019040869288094 0.043140205334042184
658796 -1.0036634607024253 0.042985849217770454
658931 -1.0032294011470648 0.04110188600883722
659066 -1.003479072291774 0.04113073390013911
659201 -1.0020422903190398 0.04134650120590697
659335 -1.0014350922034283 0.04093149472134518
659470 -1.0027128587583924 0.04298960997106492
659605 -1.0021372574032759 0.04333294129184712
659740 -1.0028210822091121 0.04236554356900733
659875 -1.0029745489566109 0.042038952175585294
660010 -1.0036113019975 0.04081758810487047
660145 -1.0023844551795307 0.04125309693732449
660280 -1.0007924710979537 0.0415234961889574
660415 -1.000387098838691 0.041039415534960794
660550 -1.0000056265076003 0.04150299249286664
660685 -1.0038627641408235 0.043355252646182674
660820 -1.0036841691451348 0.042099909635203776
660955 -1.0021962696305922 0.0410022452361487
661090 -1.002195131506867 0.04094145149867269
661225 -1.0012586679246456 0.0419657708147993
661360 -1.0014626115667442 0.04213215900953624
661494 -1.0022979082424568 0.04260937631742109
661629 -1.002256749567048 0.04258026683074063
661764 -1.0032166143641095 0.04196502358244583
661899 -1.0025997421193544 0.040848822776170614
662034 -1.0016600070464576 0.04139360699813445
662169 -1.0013559953607853 0.042144797436160966
662304 -1.001335965460625 0.0422089840102962
662439 -1.001314913377919 0.04321471152176902
662574 -1.0026687043706854 0.04325562182047218
662709 -1.003397101162972 0.04255059465317273
662844 -1.0026989560456028 0.04126275296991361
662979 -1.002191258613877 0.041256912158969754
663114 -1.0023481747872558 0.04212934058512956
663249 -1.001163843562183 0.04248599500973974
663384 -1.0018152764227959 0.04280915944062514
663519 -1.0025394366660494 0.04215445856184157
663654 -1.0038299379301188 0.043975454622688356
663788 -1.0020767481366029 0.040566694273739136
663923 -1.001984564858873 0.04138581492652192
664058 -1.0020798604535726 0.04240719989617902
664193 -1.002797644966832 0.0424767156708986
664328 -1.0017450254297955 0.04316694504863758
664463 -1.0029998415894217 0.04238642009918997
664598 -1.0039591487194055 0.04240506295951175
664733 -1.0036159062947603 0.04106342360618016
664868 -1.0016527200369152 0.04170463612599013
665003 -1.0018951324195922 0.04241338828274836
665138 -1.0018274781231866 0.04267015096557522
665273 -1.0018326362160266 0.04329519095494943
665408 -1.002694062998612 0.04321737274343818
665543 -1.0035469421755272 0.042288592788795994
665678 -1.0022246216417054 0.04143849144282908
665813 -1.0015318577264953 0.04182029115163862
665948 -1.001660746513519 0.043040903376843444
665948 -1.001951662664071 0.043050248833012214
666085 -1.0022889511474793 0.04350100099550151
666223 -1.0025310892745243 0.04318713926855615
666361 -1.0039818449814821 0.04214579579240335
666498 -1.0027633209965559 0.04175519580615201
666636 -1.001703705014201 0.04167235765028862
666774 -1.002420771359841 0.0428841363674729
666912 -1.0012713656268375 0.043913095297990104
667049 -1.0027499148737984 0.0434679254250171
667187 -1.0024214253188233 0.043085198555719684
667325 -1.0037454896682234 0.04190779965194761
667463 -1.0025524926926226 0.04158418541682955
667600 -1.0014766186458153 0.04247024955224307
667738 -1.001168446030009 0.04231900761402997
667876 -1.0022863980721297 0.044022499923132015
668014 -1.0027267268912523 0.043668360183426236
668151 -1.0037371388395495 0.042786796773309675
668289 -1.0029967517430571 0.041722883495270834
668427 -1.0019746015699202 0.04175443593091249
668565 -1.0019531798342933 0.042099667090780744
668702 -1.0011393477666226 0.043065988176893256
668840 -1.001969196971318 0.04259972345514263
668978 -1.0026893576677758 0.04350612473439548
669116 -1.0030432772175015 0.04247998427308123
669253 -1.002522844429085 0.04137735686193423
669391 -1.0018504514733748 0.04213597042556785
669529 -1.0014606879751276 0.04283253075556681
669666 -1.0013367482153381 0.042841514389759056
669804 -1.002290488123609 0.04446591418009379
669942 -1.0031055334631709 0.043501791224707376
670080 -1.0032049099117943 0.042566593072532986
670217 -1.0027245669328613 0.04176622935902446
670355 -1.002073241272131 0.04210169146916628
670493 -1.001519567136727 0.0427783014246418
670631 -1.0015063782057694 0.043645692910588306
670768 -1.0024855344304322 0.043915534062538106
670906 -1.003325119722071 0.043263531005195775
671044 -1.0032290928800127 0.04185411849959345
671182 -1.0022909787466603 0.041875227539957684
671319 -1.001739614893615 0.04190835672803124
671457 -1.0012788341750987 0.04283988628361424
671595 -1.0018463486347162 0.04365921463781089
671733 -1.0026126348945552 0.04389205488293923
671870 -1.0026037818911795 0.04277676698529746
672008 -1.0027629381466365 0.04138861331910904
672146 -1.0016344154964127 0.04194747420349236
672284 -1.0024352101615996 0.04297294627144619
672421 -1.0028054782328566 0.04338180380379559
672559 -1.0018212614251367 0.04325656491901846
672697 -1.0023516188709571 0.04356566954214738
672835 -1.0026356476099643 0.04347624436912457
672972 -1.0028299296534322 0.04282520867484248
673110 -1.0016687418382297 0.041741378630876874
673248 -1.0016666172310609 0.04185716165936288
673385 -0.9999654655862508 0.042705247083899216
673523 -1.0047829735702964 0.0437161585007093
673661 -1.0020807358413837 0.044164057467336905
673799 -1.001565948117465 0.04390183009618605
673936 -0.9999151927083694 0.042795154702407065
674074 -1.0029356711491373 0.04297035301350355
674212 -1.0021789127142005 0.042532924038398805
674350 -1.0016166616818225 0.043349173930617664
674487 -0.9973467539713925 0.043967648397245304
674625 -0.9991935898050247 0.04369356525030921
674763 -1.004002848114113 0.043285996356924636
674901 -1.0025171104903936 0.042328354390384224
675038 -0.9978502855337548 0.04192954888683567
675176 -1.0026484487162337 0.04263288276130959
675314 -1.0039548007454877 0.0428703237108505
675452 -1.0013688899262 0.044019897897684346
675589 -0.9981104203259085 0.0446092109743801
675727 -1.0039142524866325 0.04296707055927788
675865 -1.0016122199173165 0.04238497185069723
676003 -1.0025776795310382 0.041574474713147
676140 -0.9994905556255637 0.04265762043804912
676278 -1.0004447858486654 0.04285085637879107
676416 -1.0018799586006413 0.043864102934009365
676553 -1.0024049786111535 0.04416554765868097
676691 -1.0035038886936596 0.04327549074991328
676829 -1.0021502819101256 0.042419409669397716
676967 -1.0016904019223773 0.04281721148452287
677104 -1.0008196454792573 0.04240633309491331
677242 -1.000906484138165 0.043489999137552034
677380 -1.0017325733419995 0.04477764029820756
677518 -1.002816021956852 0.04412301946569862
677655 -1.0034471714852005 0.04304074965786898
677793 -1.002037760163212 0.04212496778300613
677931 -1.0017146902325411 0.041520092155323596
678069 -1.0015028823345082 0.04282447668594399
678206 -1.003941505420047 0.04500478845306576
678344 -1.0020199169513677 0.04446923844698836
678482 -1.0031334559921972 0.04428139692045307
678620 -1.0033444414362942 0.04325459107910539
678757 -1.0027319076543937 0.04197082890547641
678895 -1.0019175141062109 0.04216355029778299
679033 -1.0018426302459864 0.04337204592023729
679171 -1.0016598748004124 0.04410895346880525
679308 -1.00234093716492 0.044151267236095595
679446 -1.0035981512149967 0.043600461925368775
679584 -1.0033964055775857 0.04288540758808697
679722 -1.0008736987857174 0.0413331762004364
679722 -1.0019772170611387 0.04304643680580006
679862 -1.0018333168170255 0.04366263657681253
680003 -1.0020206836424297 0.04379864625666099
680143 -1.0031334469075444 0.0434196348034968
680284 -1.0025564815050712 0.04265325816680911
680424 -1.0025963362961212 0.04239693302541055
680565 -1.0019574954328045 0.043532381422314484
680706 -1.002466930148857 0.04340606660647894
680846 -1.0015935247783878 0.0439257313610247
680987 -1.0024400070076938 0.04390934614189117
681127 -1.0020259104047613 0.043691731303625046
681268 -1.0032667583440824 0.04335626567157693
681409 -1.0028251654371252 0.04256466464096249
681549 -1.0018618549464264 0.0435206535463682
681690 -1.0020973307418366 0.04363655466144531
681830 -1.0009385138440077 0.044479601261606966
681971 -1.0023752408515085 0.04366351980525606
682112 -1.0021656294175654 0.04351680587834673
682252 -1.0030454717966113 0.04308282106499914
682393 -1.0023152711769143 0.042868215612542344
682533 -1.001998012843109 0.04338937172118156
682674 -1.0023227535398356 0.04379934085514301
682814 -1.0024709498950624 0.04372301549794861
682955 -1.0022935703216254 0.043634161616716086
683096 -1.00289847419335 0.04334634698847659
683236 -1.0027561481044749 0.04256220226374569
683377 -1.001839748342371 0.04348006787304181
683517 -1.0019542887640651 0.0435995604649144
683658 -1.0020721058144193 0.043825118512592326
683799 -1.0017229387891748 0.043752658339136344
683939 -1.0029053154545702 0.04354866315396243
684080 -1.002824900482809 0.04325037758868067
684220 -1.0017444710183936 0.04281523402765832
684361 -1.0021563790904602 0.04409234929741697
684502 -1.002095929201721 0.04457012525184308
684642 -1.0022637230510407 0.044405379942247
684783 -1.0020063345757046 0.04428381803343157
684923 -1.0027355298851297 0.04396018134391533
685064 -1.0028003987486755 0.043047685160244514
685205 -1.0018035707737736 0.04316813213341986
685345 -1.001365920557588 0.043337754436085146
685486 -1.002048009518905 0.04413966849992425
685626 -1.0022124986293663 0.04413485742235935
685767 -1.0018480890469925 0.044375525913848086
685907 -1.0030392407081175 0.04409331144589232
686048 -1.0019685782279424 0.0429763068750256
686189 -1.0027174353099002 0.04352966408099347
686329 -1.0020955596151133 0.044456380254893395
686470 -1.0012450979623981 0.04368863892663682
686610 -1.0026486094173068 0.04425795426259425
686751 -1.0027767016827922 0.04372346253336441
686892 -1.0026349400888621 0.04335001472499171
687032 -1.0029070720943623 0.043845344797577734
687173 -1.0016158215550641 0.0435659868197505
687313 -1.0017656092785385 0.043983060518752996
687454 -1.0025459566538544 0.044150268276989
687595 -1.0026451315837623 0.04384891052017885
687735 -1.001978574591211 0.04370176305730834
687876 -1.0025441740154926 0.043556255302471446
688016 -1.0027019393985992 0.043221770728704624
688157 -1.001851432806517 0.04376417585803524
688297 -1.0015874645981888 0.04490612334404899
688438 -1.0018634427833497 0.044124532970329956
688579 -1.0026780249005276 0.044438394528725694
688719 -1.0025290220203211 0.043507330061495916
688860 -1.0027966204037413 0.04318932278944453
689000 -1.0024372817302365 0.04391955101143056
689141 -1.0019179830377798 0.044211734788874586
689282 -1.0023858926068008 0.04456577175108364
689422 -1.0026528472607716 0.043583727746796946
689563 -1.0023394032335804 0.0440785669895875
689703 -1.0028938903090185 0.04317274359527152
689844 -1.0029155288041411 0.04327186377711119
689985 -1.0016830147099856 0.04396116817716452
690125 -1.0018776017593198 0.04438788871652155
690266 -1.002647339376624 0.044302563856617544
690406 -1.0021513650433767 0.04405282418658957
690547 -1.0020376999287437 0.04399341827427272
690688 -1.0022831247018287 0.04302187718668017
690828 -1.0016120999223468 0.043814463230695974
690969 -1.0019888815925433 0.04433649004008524
691109 -1.0020557985089182 0.04446297923149033
691250 -1.0019935851619457 0.044016252404465835
691390 -1.002385421603343 0.04431746737402013
691531 -1.0025001046339344 0.04424307710926645
691672 -1.0025697874670867 0.04330748645783894
691812 -1.0013424481162387 0.04396236051050776
691953 -1.0017730694054634 0.04467209509395004
692093 -1.0017683248344726 0.04434003265003945
692234 -1.002190951201835 0.04426024117261943
692375 -1.0023225170199355 0.04406658892243157
692515 -1.0020009401302985 0.04431341763017903
692656 -1.0024331341660035 0.04407208377637373
692796 -1.002137743860763 0.045099191653824124
692937 -1.002160631401275 0.04407775649454024
693078 -1.0019385728528907 0.04481594734299744
693218 -1.0020767844491596 0.044725735797809016
693359 -1.0026065791152134 0.04435054738916392
693499 -1.0029272213481462 0.043760472521452
693640 -1.002178283246902 0.043705378953554815
693781 -1.0020727474125182 0.04399259912335747
693781 -1.0025001425735163 0.04406859046021879
693924 -1.0014210460961912 0.044728161390301474
694067 -1.0016661638159894 0.04527694625011372
694211 -1.0035966106661809 0.04496063438846356
694354 -1.0041857571528559 0.043920906886961486
694498 -1.0028622072435456 0.04303015068926407
694641 -1.0020145087935208 0.04240122181419964
694785 -1.0020906425816887 0.044419202822428214
694928 -1.0023999945053135 0.04502487279052998
695072 -1.0023497820931386 0.04544925830576136
695215 -1.003104303974127 0.044861943181253305
695359 -1.0028929891724196 0.043928933035638586
695502 -1.0023248696186413 0.043488709504143436
695646 -1.0020576514639672 0.0434056629912003
695789 -1.0018684578533543 0.044660444774401405
695933 -1.0016815963843797 0.04560663391182752
696076 -1.0028483530997365 0.045233646209946805
696220 -1.003264648533619 0.044646168287132186
696363 -1.003275578777869 0.043646051529788586
696507 -1.0023538878411589 0.04398630044639016
696650 -1.0014553848083327 0.04449913290147896
696794 -1.0010366579693404 0.04447195971820842
696937 -1.0026189969869792 0.04507169850561779
697081 -1.0023228085523266 0.045025812175992344
697224 -1.003230721535498 0.04407595180677457
697368 -1.0027016502396224 0.04404438855356353
697511 -1.0019455583647348 0.04361148506205402
697655 -1.00098624447236 0.04451606660938024
697798 -1.0020104838505424 0.04581368163872771
697942 -1.0015696036179234 0.045196830295318624
698085 -1.0045830143401913 0.04487026067710187
698229 -1.0032723706813824 0.043759097295904735
698372 -1.0020495483266618 0.0430829564670983
698516 -1.0017083101625022 0.04419994137798608
698659 -1.0008270081525257 0.0449001082224
698803 -1.0015846038059941 0.045199684466257335
698946 -1.0031936415966283 0.04531048837592757
699090 -1.003373237223048 0.04377393515195301
699233 -1.0030512595673113 0.04332216048953735
699377 -1.0020380008286374 0.044140261651773045
699520 -1.000853251337967 0.04441585446133791
699664 -0.9998830449948284 0.04585055264701441
699807 -1.0026477908719362 0.04579592091592489
699951 -1.005840663416429 0.04511498275386686
700094 -1.0011811852430632 0.04337233127666761
700238 -1.0013734058398749 0.04398386139177791
700381 -1.002300136659166 0.044159776387088116
700525 -1.0015104000096795 0.04540872543165317
700668 -1.0002759105753578 0.04531276494721457
700812 -1.0025059794280844 0.045638026072231296
700955 -1.0041772343757958 0.044397092586244226
701098 -1.0027219502644298 0.044082560719020676
701242 -1.0029580368109225 0.045826382771108766
701385 -1.0023138826443438 0.04490234816022292
701529 -1.0024949882659624 0.04501063832564874
701672 -1.0021003771703925 0.04442081822535283
701816 -1.0020558957006902 0.04503261932840172
701959 -1.0033001588320412 0.044488277192421016
702103 -1.0021420227961526 0.045442745716017204
702246 -1.0011798509710788 0.04456394286549395
702390 -1.0023681104959241 0.044731353981039355
702533 -1.0026981971621851 0.04490032892597143
702677 -1.0018502486705485 0.04426886496446709
702820 -1.0026260673314968 0.04435859875865333
702964 -1.0022654045451231 0.04453947056344621
703107 -1.0026101390317688 0.04482759874405843
703251 -1.0025852249920149 0.04513227089234934
703394 -1.002225389306607 0.04479267921583396
703538 -1.0013487253573683 0.04520607215772565
703681 -1.002316946239119 0.044854617129028614
703825 -1.0025099452821138 0.04569006504663567
703968 -1.0024905154715171 0.04544323833848887
704112 -1.0022100040190798 0.04507109009259051
704255 -1.0024187856342883 0.04522645740417382
704399 -1.0016568227811231 0.04501571021314522
704542 -1.0021628812916565 0.04513011549238743
704686 -1.0024130628788563 0.044733093111666546
704829 -1.002402933276949 0.045189835906401916
704973 -1.0028920320394956 0.046047174205956276
705116 -1.0033143942222755 0.04463237240402815
705260 -1.0013069625452593 0.04478385006521682
705403 -1.0014492575288658 0.0447083561577215
705547 -1.0026252071199984 0.04480715705251814
705690 -1.0025113330536872 0.0444789048058618
705834 -1.0019585695119124 0.04518211437286805
705977 -1.0019219521587912 0.045283063000314455
706121 -1.001908425630209 0.0447577865835547
706264 -1.001685547279694 0.04446395562343924
706408 -1.0025740221422756 0.04540095820804887
706551 -1.0019725376287423 0.044809406458584805
706695 -1.0018384714741932 0.0450958774707473
706838 -1.001286936435702 0.04529132751070261
706982 -1.0017419514670378 0.04461838221170053
707125 -1.0012603614221751 0.04478664384344779
707269 -1.0005707920364793 0.044823790387358814
707412 -1.0018775651283742 0.04584923269916901
707556 -1.002808038408349 0.0454433639910636
707699 -1.0025584106847258 0.045908455148285766
707843 -1.0017336533932144 0.04521730855482155
707986 -1.0025730613607395 0.0451794385872291
708130 -1.0014125426825224 0.04514408219480092
708130 -1.0019699250788396 0.04655521689774976
708276 -1.002477899573282 0.046355813754091854
708422 -1.003169772510303 0.0453030301974796
708569 -1.0030551139865647 0.04415741185451775
708715 -1.0018488843578557 0.044203831683984125
708862 -1.001480157912887 0.04492728875752046
709008 -1.0014479892412704 0.04560561634435662
709155 -1.0020967197628257 0.04598378125685481
709301 -1.0029439599123242 0.04581842548080308
709448 -1.0035193630702044 0.04427319482400587
709594 -1.0021078854263505 0.04419991505367237
709741 -1.0012329094543284 0.04418955171411958
709887 -1.0008895937139313 0.04576866506591198
710033 -1.001787805616545 0.04572432975286374
710180 -1.002604894807725 0.04603734368976912
710326 -1.0021486119292464 0.044274464406839464
710473 -1.00171396934861 0.044862564858092535
710619 -1.0019191684367623 0.043869191121793556
710766 -1.0014129095805386 0.045441219664085854
710912 -1.0016163676347356 0.04644687328072676
711059 -1.0017131407866107 0.04628264411794752
711205 -1.0024427908303524 0.045920656926678766
711352 -1.002865771162443 0.045045960019259305
711498 -1.0033208611929099 0.04401215224612612
711645 -1.0012586353029032 0.04555310628220243
711791 -1.0016740819615109 0.04617833340027896
711937 -1.0019882317243527 0.04631592207090456
712084 -1.0026919580117635 0.04619870786154441
712230 -1.0040127844647087 0.04535865865210343
712377 -1.0018757366592557 0.04443220302326999
712523 -1.001264759394601 0.04454831436036906
712670 -1.0009640135130442 0.04549088807244147
712816 -1.0010980157188853 0.04602809798511765
712963 -1.0027035670685591 0.04645586883099845
713109 -1.0032152410229267 0.04501194070827632
713256 -1.0030286005336995 0.04445731472832456
713402 -1.0008766049548778 0.04394857510651329
713549 -1.0032761190819104 0.04512612085894744
713695 -1.002636265376488 0.04648122686764041
713841 -1.0024771080482902 0.04624477222648427
713988 -1.0032434463314965 0.04594820694509242
714134 -1.0036315889850285 0.04524876285043098
714281 -1.00151116074032 0.04393914535186815
714427 -1.0015144249864534 0.04573617697926286
714574 -0.9996235273969897 0.044884737005363225
714720 -1.0008051206007778 0.04705309270953841
714867 -1.0026436856356493 0.04660595098611849
715013 -1.0035176906839753 0.045188687764334115
715160 -1.0021006790912543 0.04497598345656443
715306 -1.0011323607932678 0.0454247043296905
715453 -1.0012508473453732 0.04605945192089212
715599 -1.0010668698568204 0.04661517136484376
715745 -1.002045800508893 0.04682189158474049
715892 -1.0034801980478136 0.04572566462486214
716038 -1.002929907805566 0.04496373577681385
716185 -1.002044676677211 0.04488332842081545
716331 -1.0016876524255918 0.045356485217896515
716478 -1.0016937573642803 0.046527704829252926
716624 -1.002335993412162 0.04667969799602208
716771 -1.0032514417480924 0.04632314667980549
716917 -1.0032490266370262 0.044714168429884515
717064 -1.001767921808546 0.044672478830688006
717210 -1.0014726895331583 0.045449113659798326
717356 -1.0020025855025634 0.04567719965489186
717503 -1.001795169556367 0.04647383951210652
717649 -1.0033897574263593 0.04669547516728646
717796 -1.0028687707319126 0.04496992247023693
717942 -1.002979248555522 0.04480561080820694
718089 -1.0017846669937054 0.044959668890826796
718235 -1.0014702427936741 0.046325163887702865
718382 -1.00106378929082 0.046760124784268046
718528 -1.0022434614359517 0.04653289538080833
718675 -1.0026879277167273 0.04574540726859248
718821 -1.0035250991174003 0.04565694509607504
718968 -1.001870286426133 0.04536819161041944
719114 -1.0013739826584402 0.045878249810035285
719260 -1.0010163729768928 0.04684465068297817
719407 -1.0018998621575792 0.04733932419051402
719553 -1.0025950779748012 0.04660949255866008
719700 -1.0025600494904447 0.0457611844560982
719846 -1.0034246634680075 0.04462442000834743
719993 -1.001498972586764 0.04559552939937498
720139 -1.0015146101612729 0.04613750836377519
720286 -1.0022879461734675 0.04695002234828579
720432 -1.0030034969049997 0.046970597230234605
720579 -1.0033587014472698 0.04574883100916953
720725 -1.0031035248748625 0.044760618624404815
720872 -1.0017435200714455 0.045021093007661994
721018 -1.001476106425216 0.04578116649698134
721164 -1.0014066350432207 0.04662478579903126
721311 -1.0019994137452126 0.046519385665024636
721457 -1.003217620191385 0.04665123570878848
721604 -1.0025689814954024 0.045659769258696074
721750 -1.0017734654093704 0.04540534512304612
721897 -1.0007680401673469 0.044709932463287666
722043 -1.001029190788634 0.04571612369159869
722190 -1.0017431757695225 0.04743344282744283
722336 -1.0026080729011857 0.04698110537725137
722483 -1.0027313461939333 0.0454672696533705
722629 -1.002428172677264 0.0451798803397875
722776 -1.0019782072960233 0.046471921910683146
722776 -1.00222111881692 0.04544069856883236
722925 -1.0002699934177044 0.04591019181418172
723074 -1.0019106198943555 0.04742474271254056
723224 -1.0029422849298517 0.04736082415046746
723373 -1.0038379298106124 0.046502456700059966
723523 -1.0020587133945962 0.045515418587239356
723672 -1.0020083866189495 0.045344956506552625
723822 -1.001218183540414 0.045386786615849044
723971 -1.0013018521633386 0.046917262338715036
724121 -1.002132773689932 0.04772276023915292
724270 -1.0032524971904624 0.04649873407151197
724420 -1.0033476438018665 0.04556687597926373
724569 -1.0026196777809278 0.04473557779356345
724719 -1.0013783461911505 0.04528148679858741
724868 -1.0021863130530964 0.046581823519942354
725018 -1.0006755809120769 0.04762287316848859
725167 -1.003115753104119 0.04705928886494176
725317 -1.0036310237872832 0.04575812198786229
725466 -1.0020809426127635 0.04517780392569182
725616 -1.0014928946154564 0.04466309217209564
725765 -1.0014567474940366 0.04637491013266253
725915 -1.0012702487168137 0.04700294115765236
726064 -1.002663732748665 0.048578149011924684
726214 -1.0031631498148634 0.04606772149764304
726363 -1.0031179711394993 0.04588638159540352
726513 -1.001468072316077 0.045430511776079326
726662 -1.0012579611630898 0.0463264709702509
726812 -1.0015402527443362 0.04701024839825687
726961 -1.0018963376085797 0.04745681425269684
727111 -1.0030041311204385 0.047330656805519206
727260 -1.0034265496187122 0.044908304977272225
727410 -1.0020775544155955 0.04502396701805845
727559 -1.0020105947299913 0.04548269546753924
727709 -1.0017146126713712 0.04680123922628206
727858 -1.0018197367043122 0.04791057173619522
728008 -1.0028306502824011 0.04714491168153574
728157 -1.0030850714613473 0.04606324989962675
728307 -1.0014963077629793 0.04517881895292924
728456 -1.0016444684944885 0.04574101658262396
728606 -1.0017924825526592 0.046661864952003966
728755 -1.0022923343056178 0.04743774443513237
728905 -1.0021572526658544 0.04764773726465914
729054 -1.003267940962428 0.04625221131193191
729204 -1.0018448338810402 0.04584597005721559
729353 -1.0014564625298108 0.04564394293726976
729503 -1.001172425677384 0.046467046562636054
729652 -1.0014176527616578 0.04756041386542355
729802 -1.002664324580853 0.04770912468979938
729951 -1.002814093910553 0.04664604233750643
730101 -1.0028265803673506 0.045595588301200175
730250 -1.0013545847974723 0.04499875988115274
730399 -1.0015537044898954 0.046887356234007874
730549 -1.001728098450447 0.04791985394180975
730698 -1.0029254643977312 0.04711922280718021
730848 -1.0033683787117498 0.04664261507534136
730997 -1.0022829207692394 0.04579651022524973
731147 -1.0028468033941045 0.046025677182200554
731296 -1.0007249867714174 0.04612224563379199
731446 -1.0020099147581043 0.04808687804431186
731595 -1.0024028406844043 0.04775382318349267
731745 -1.0037724186262427 0.046845966256715686
731894 -1.0019934168747349 0.04572324724592036
732044 -1.00222071196994 0.04541353630265657
732193 -1.002727140030599 0.04673023381637357
732343 -1.000280715599246 0.04711211152826163
732492 -1.0029438921128218 0.04818053167173405
732642 -1.0033075080889313 0.04732262371285215
732791 -1.0035257104169735 0.04624973383405326
732941 -1.0020265638286336 0.04512441233143758
733090 -1.0009195051012765 0.04579525769534438
733240 -1.001506373166784 0.047133108354412534
733389 -1.0021154190931507 0.048098858017320625
733539 -1.0029257481698177 0.04795787454209826
733688 -1.0031790245467593 0.04634692068927702
733838 -1.0021931392656185 0.046079420659615136
733987 -1.001200997506889 0.04575654585359907
734137 -1.0015964316927495 0.04676289322092174
734286 -1.0012746879337207 0.04809862519490432
734436 -1.0031332746850254 0.04826269624838571
734585 -1.0027758464202974 0.04662106935002801
734735 -1.002697923054539 0.04656413521559962
734884 -1.0019966749282199 0.0458153451084708
735034 -1.0022819697224945 0.046913819185748676
735183 -1.0020058564894798 0.04777862690798147
735333 -1.001968938854131 0.04758355087485426
735482 -1.0023103933670272 0.04801969370620843
735632 -1.001259418153099 0.04503481759413175
735781 -1.0023275731260453 0.045248393686164394
735931 -1.0021127261364577 0.04617418804934934
736080 -1.0013312951738975 0.046834763830308664
736230 -1.002276949650617 0.048013436860666864
736379 -1.003830447665683 0.047094114887089596
736529 -1.0016449509471792 0.047087236087610916
736678 -1.0012988956870974 0.04453638376216294
736828 -1.0014898198281432 0.04585471936303611
736977 -1.0013298875128078 0.04735109100878675
737127 -1.0013773013800362 0.04843127378403666
737276 -1.0024323646887858 0.0478700703847532
737426 -1.0031533728424356 0.04698937745253508
737575 -1.0021948787813488 0.04626288522299488
737725 -1.0019141210631757 0.04568023503202551
737725 -1.001670734247675 0.04586644999981582
737877 -1.0016298437801467 0.04738789943885215
738030 -1.000887870239315 0.04855667756783273
738182 -1.0021813745729184 0.04807392712938883
738335 -1.004219899911236 0.04821088749296837
738487 -0.9995680389076084 0.046760692654320306
738640 -1.001821316318328 0.047788388733025156
738793 -1.0035607912869642 0.0465092699508839
738945 -1.0012197920836752 0.04798809704486236
739098 -1.0035236084549615 0.047383083349204456
739250 -1.0033601753160541 0.04757558350761388
739403 -1.0007451693869083 0.04479829503859263
739555 -1.0068308631631095 0.04544464655238859
739708 -1.0048448246546047 0.04571665996761347
739861 -1.0004425957504495 0.047024444103728684
740013 -1.001850137748471 0.04796776911802662
740166 -1.0033069251643223 0.047317289776377926
740318 -1.0031706285571524 0.0463672799890757
740471 -1.0014049357539794 0.04581549991632045
740624 -1.0019410882834492 0.04688693877773999
740776 -1.002212210862358 0.04797400127350874
740929 -1.002144757087063 0.048389201161085686
741081 -1.0035784102020238 0.047834169351689465
741234 -1.0030403733478856 0.0462710787631336
741386 -1.001545854324174 0.046492265119743886
741539 -1.0012499452756078 0.04735466825429147
741692 -1.0011211602719463 0.047481559932163984
741844 -1.0013261170345753 0.04826633163735083
741997 -1.003332748183298 0.0479693844102607
742149 -1.0028435421335287 0.04660522675930585
742302 -1.0023143689541052 0.04582160850705649
742454 -1.0011529652003957 0.04609490611317521
742607 -0.9981238451331802 0.047004235775835825
742760 -1.0043123260321816 0.04939320491304593
742912 -1.0016958021444435 0.04772850157806866
743065 -1.0031820606533015 0.0470485444159757
743217 -1.0021022717977297 0.045701323065224904
743370 -1.001713056049824 0.046535733114426235
743523 -1.0013580415987784 0.04770063091096451
743675 -1.0005827840307475 0.04836326945304582
743828 -1.001676978243772 0.04925890450050985
743980 -1.0032216002764438 0.04598264813301388
744133 -1.002323924934436 0.04616231527715729
744285 -1.001681444456735 0.046867235893553995
744438 -1.0013167003277985 0.04768578165571209
744591 -1.0003081060559909 0.048945909639101164
744743 -1.0035153895980915 0.04842611163780875
744896 -1.0017147847734127 0.05026527494814188
745048 -1.0035863763611605 0.0453510968550212
745201 -1.0014545003336595 0.04663518490378081
745354 -0.9992067732200853 0.04643130316580776
745506 -1.0006808570517653 0.04814845783470463
745659 -1.00139460042964 0.04953291327338643
745811 -1.0025872973872403 0.0483771315785782
745964 -1.0033767142820393 0.046957429227293894
746116 -1.000708392950766 0.04621331107450618
746269 -1.0012025012730112 0.046705917970860544
746422 -1.0004950565556021 0.04730945180656956
746574 -1.0022851406817508 0.04907574413585153
746727 -1.0030845181014725 0.048890314246213595
746879 -1.0071954242322847 0.04681899317221207
747032 -1.0063598557524633 0.04680015361576186
747184 -1.005241889127865 0.046465440129857066
747337 -1.0032769479159394 0.04722797114790134
747490 -1.0061798212173076 0.04995280250803289
747642 -0.999899875459642 0.048661613954520046
747795 -1.002372631299857 0.05203928939035684
747947 -0.9813481378336947 0.039073148703602414
748100 -1.004547112376136 0.04031302429910528
748253 -0.9961185705116503 0.04582855248863156
748405 -1.0016587299636655 0.04608287676109458
748558 -1.011508340734955 0.050659978413660066
748710 -0.997378023454493 0.046305137874116345
748863 -0.9802529994763495 0.04891146072264207
749015 -1.029048283131832 0.04975370307741714
749168 -1.0143212386678806 0.05294458554695556
749321 -1.0030621833832174 0.05003981050358295
749473 -1.004649128134652 0.05317800980342768
749626 -1.0063749056109643 0.046603844181227386
749778 -1.0028837843464895 0.04625641565058703
749931 -0.9966646828072632 0.04482369613838757
750083 -0.9979754671699088 0.050884310641306024
750236 -0.9972736103702369 0.04490062918651075
750389 -0.9981733780761081 0.048341089080120254
750541 -1.009688245460053 0.05060268913715379
750694 -0.995530510206651 0.04633019097759269
750846 -0.9901950935013005 0.047179165470089324
750999 -0.9820894934255954 0.047903736742206104
751152 -1.0249835135318068 0.05497618062028918
751304 -0.9872658749382246 0.04607954142282155
751457 -1.002506672363366 0.048751930188516215
751609 -1.0053124055292788 0.05048547870668034
751762 -1.0040771121724306 0.046953025654030214
751914 -0.9977301533628261 0.04561320336719743
752067 -1.007877410622905 0.04774801525248111
752220 -0.9952672810927456 0.047637405193161356
752372 -1.0020552963038787 0.05068903736778149
752525 -1.0045780186261923 0.048695136956678056
752677 -1.0041103258143875 0.048647176016892606
752830 -1.0013867413091146 0.04756182825644686
752983 -1.0036359793942544 0.04920138014763685
752983 -1.0039378668286663 0.04910877986199738
753138 -1.0000703237000517 0.048237580975919576
753294 -1.0011418957211606 0.04669021514603591
753450 -1.0014419728566744 0.04767002255358891
753605 -1.0009658428514245 0.048023007832694996
753761 -1.0003774129613434 0.048910627988708044
753917 -1.0033851924956756 0.04893173746762053
754073 -1.0037087417561998 0.048456745744071994
754228 -1.0030364992102898 0.04678563158140677
754384 -1.0011851053819731 0.04701457110879531
754540 -1.0014946140986078 0.04841501853413096
754696 -1.0017420425028951 0.04891498945373721
754851 -1.0026494886893051 0.04891741231795449
755007 -1.0036868997423778 0.048370060953055995
755163 -1.0097177063966531 0.04771207117760057
755319 -1.004574597301702 0.047504938673462664
755474 -0.9983103042598205 0.047857727434184046
755630 -1.0014299508091624 0.048728979202222356
755786 -1.001680543665498 0.04907887550526278
755942 -1.0019831581308034 0.048612940692271074
756097 -1.0022985757293257 0.04762529529863426
756253 -1.0001173741780962 0.04739080721212843
756409 -1.0002350642460094 0.04775960466466311
756565 -1.0009653690560905 0.048943871014231415
756720 -1.0017433140162681 0.049250516566007325
756876 -1.0041964021176932 0.04906247855840162
757032 -1.0010292702323138 0.04697062551751407
757187 -0.9999018968154909 0.04713939428000683
757343 -1.0052214429433113 0.048427750461402075
757499 -1.002133242293354 0.04889969428083368
757655 -1.0019354016653257 0.04901383256479649
757810 -1.001901232759897 0.04830937642998134
757966 -1.0028851172904585 0.04700165363124705
758122 -1.002182198577794 0.04759084336985015
758278 -1.0014113979791326 0.048149696497182946
758433 -1.0013848149282327 0.04871483450338907
758589 -1.0016717577560807 0.04919827910775957
758745 -1.0025954993384563 0.0487372993446761
758901 -1.0025682119278636 0.047331911112278205
759056 -1.0014867846583513 0.0475832751777392
759212 -1.0015352611599724 0.048349059543384525
759368 -1.0006804423438556 0.048676218222290096
759524 -1.0016192821881351 0.04901496534916186
759679 -1.0030855539198065 0.049316488389055696
759835 -1.0036610395893029 0.04795584160394082
759991 -1.002300110124452 0.04794098884818856
760147 -1.001104686659636 0.04830142878437983
760302 -1.0017864784239263 0.04925231767014714
760458 -1.0002543321644128 0.04905251256044643
760614 -1.0031626882272537 0.04975734424490905
760770 -1.003030286805876 0.04886347029139442
760925 -1.0032324986964516 0.04837229375173011
761081 -1.0011677120298865 0.04823224280397483
761237 -1.0017601896676944 0.04899061226872142
761392 -1.002721843079719 0.05003719479748349
761548 -1.0019383949657725 0.049542957953184946
761704 -1.0033551286342848 0.048661807994441475
761860 -1.0026566428042718 0.04759958252526835
762015 -1.0018716760037085 0.04787125878460818
762171 -1.0018425312811514 0.04836546140815578
762327 -1.0014840352325385 0.049347449398014345
762483 -1.0021010566599364 0.049427718916089214
762638 -1.002930005027246 0.048400186649690695
762794 -1.0025348331056814 0.0479360381094114
762950 -1.0020575793983773 0.04820630924320025
763106 -1.0018703175026584 0.049081493083483044
763261 -1.0017066790795048 0.049774331389314246
763417 -1.0023414339385837 0.04935587140447737
763573 -1.0030808739174335 0.04822844334980044
763729 -1.0026520222242523 0.0479280418162486
763884 -1.0020978107407246 0.04774355396845405
764040 -1.001602225873644 0.048751090804377326
764196 -1.0014495500616114 0.0497022995762022
764352 -1.0018778478825323 0.04961126374002028
764507 -1.00212812902295 0.048467118330983765
764663 -1.00300380186176 0.04805274707049487
764819 -1.0013226556860264 0.04754727335682293
764974 -1.001195347897291 0.04888832505795783
765130 -1.0013536375018224 0.049441583923221684
765286 -1.0022463262877201 0.04946243977062162
765442 -1.0030407549745533 0.04887221311141161
765597 -1.0027735576099155 0.04772411696530487
765753 -1.0014378203698209 0.04712114573849976
765909 -1.0015302350671158 0.04882702859550814
766065 -1.0010242798062234 0.04952747305304552
766220 -1.0017705423265757 0.04905205547536701
766376 -1.0021008711373975 0.0487850273835481
766532 -1.002195953663849 0.047791428626632784
766688 -1.0013594468432903 0.04764942851102495
766843 -1.0012989202489286 0.0487456094578289
766999 -1.0007089150677841 0.049757467380729954
767155 -1.0015739928206786 0.049759639771997405
767311 -1.0025595967328256 0.049354490187683946
767466 -1.0027458392552802 0.04815049043053334
767622 -1.0010560376601747 0.04817259062002195
767778 -1.00221236593441 0.049267061562302435
767934 -1.0015330644623235 0.04955615727323499
768089 -1.0019397534501737 0.050145896207903905
768245 -1.0029011082873043 0.049467386686631004
768401 -1.0025247859978694 0.04813842319666299
768557 -1.0015187730482806 0.04801568748391068
768557 -1.0013437249905317 0.04903482325992687
768715 -1.0020301988920064 0.049120906209280675
768874 -1.0025811126733837 0.04966417063356543
769033 -1.0020677444623505 0.04925166731013403
769192 -1.0025215948021433 0.04807789721741823
769351 -1.0017060520449979 0.049056743702208715
769510 -1.0013327627234812 0.04943291706967654
769669 -1.0024609834583877 0.049850993153670795
769828 -1.000915147194315 0.04899952819650475
769987 -1.0026020848370352 0.049372814297688375
770146 -1.0026756471758596 0.04773476637611397
770305 -1.001990390020728 0.04915710666506349
770464 -1.001012086712285 0.0499907062642992
770623 -1.0018595834776012 0.04967452488780983
770782 -1.0016900165694358 0.049424645803497515
770941 -1.0026902641689617 0.048911350815857034
771100 -1.0021931357890859 0.048710617136149194
771259 -1.0016272078049782 0.04943497545292344
771418 -1.0015291589709565 0.0499393312069722
771577 -1.0018032499803278 0.05002777549605692
771736 -1.001631536225452 0.04901734271034709
771894 -1.0024201526855292 0.04947291605750449
772053 -1.0021653662545351 0.04902827678526145
772212 -1.0019018479696722 0.049108331905316854
772371 -1.0016177523807204 0.04923512310046204
772530 -1.0016787275442063 0.049729721921623116
772689 -1.0021196826950294 0.049789377764526334
772848 -1.0029022038433364 0.04898650481727075
773007 -1.0031336800837334 0.049067271443033175
773166 -1.0012858793360258 0.048501744454567626
773325 -1.0015039856493844 0.04910375009891511
773484 -1.0015018342490873 0.049544700868148626
773643 -1.0017677152897744 0.04933310777658162
773802 -1.0024115198082721 0.04838227789940584
773961 -1.0028537937319841 0.04883505799686026
774120 -1.001616110436995 0.04919485239764548
774279 -1.0012765683861926 0.04981998296792504
774438 -1.0020153618335292 0.049708801694140416
774597 -1.0015319998575891 0.04921950759355191
774756 -1.0022276227763878 0.048927383193992334
774915 -1.0023671453926473 0.04894575464266645
775073 -1.0020990323693286 0.04933652220207757
775232 -1.0021011268190285 0.050040694331961094
775391 -1.001557772911722 0.0498798948162581
775550 -1.0019198499340367 0.04997448193167508
775709 -1.0026457912750708 0.049023258044301
775868 -1.0024336775076668 0.04885413113359076
776027 -1.0016884758630145 0.049665789200512976
776186 -1.0017701197685647 0.049987557950370735
776345 -1.001544499820354 0.04925895591131151
776504 -1.001339819022788 0.04908242193959361
776663 -1.0028786887323167 0.049332447225275085
776822 -1.0023767589626613 0.04979318901318352
776981 -1.0022777769730398 0.049686109589449245
777140 -1.0012998138230236 0.04909746003748088
777299 -1.001482083552384 0.04951681869307515
777458 -1.0013786291909197 0.04961396286898424
777617 -1.0020968852352496 0.050216609808316014
777776 -1.0020687594179434 0.05002011465328732
777935 -1.0016063337734842 0.04962080495365629
778094 -1.00210977226868 0.049511206359324045
778252 -1.0022334216515012 0.049410931743657675
778411 -1.0016477264143353 0.05001958128480566
778570 -1.0020391041900156 0.049745140990514906
778729 -1.0020524009053535 0.049709878105834146
778888 -1.0017982769724854 0.04975394282574384
779047 -1.002094562401198 0.049277745603781516
779206 -1.0018167097023032 0.04989707697109656
779365 -1.0021649011878533 0.049366071317775616
779524 -1.0024939702012163 0.050341762773019855
779683 -1.0012878987851581 0.05012311860260676
779842 -1.0026428862561017 0.049322599423718715
780001 -1.0021764752864926 0.04983032802969166
780160 -1.0023229911067004 0.049671340473746446
780319 -0.9992950202746927 0.0491764226708098
780478 -1.003217844391335 0.04996521001999953
780637 -1.0017134530297174 0.05052164336790417
780796 -1.001302305064731 0.049489651426508005
780955 -1.0014988466222183 0.049073326408266504
781114 -1.0015315398345261 0.04914028024182878
781273 -1.0014698939940527 0.050235760035031475
781431 -1.0021920900499741 0.049930581066252575
781590 -1.0019442678848967 0.050216059166895026
781749 -1.001551366686862 0.04988589004379006
781908 -1.0015828679603194 0.04922919265698066
782067 -1.0013536216124672 0.049197011132219186
782226 -1.0012809540114025 0.04941411879270828
782385 -1.0032796029243358 0.05127430864404365
782544 -1.0025123728475482 0.050185026371022526
782703 -1.0024239525017626 0.04948460334647909
782862 -1.0010854774478066 0.04965564206899694
783021 -1.0010895385703278 0.04980726282457778
783180 -1.0021031479754827 0.04987367613932174
783339 -1.0017542559963706 0.05028179948152594
783498 -1.001882711089846 0.05020728988954624
783657 -1.001836269373375 0.04936930527709869
783816 -1.0017461142491304 0.04956996197776311
783975 -1.001335116591934 0.0493016721350875
784134 -1.0022312991895137 0.05002316619638562
784293 -1.0028939542716913 0.05048748614608702
784452 -1.00190288780236 0.051258058539877166
784452 -1.0024263691652704 0.05014898940292428
784614 -1.0030848783628474 0.049102500145453386
784776 -1.0023062602302606 0.049515789348209965
784938 -1.001638688912282 0.04992251353207857
785101 -1.0017497208658617 0.050190549620391316
785263 -1.001894149937017 0.04987396594335327
785425 -1.0018822675776689 0.05015627661688791
785587 -1.0034829498414921 0.04880122638751671
785750 -1.0015281530235596 0.050121580116754945
785912 -1.0026172642058713 0.0505456624026266
786074 -1.001570772952965 0.05056056712195952
786236 -1.00150424473331 0.05062300338304494
786399 -1.0016609416328592 0.05033551182018191
786561 -1.0016778244996853 0.049723250570786755
786723 -1.0018836356523635 0.049243621344810425
786885 -1.0015895574783606 0.050373399369228924
787048 -1.001610966774299 0.05121638757869661
787210 -1.0023433372824277 0.05031760286874447
787372 -1.0030033459505032 0.05025143966689598
787534 -1.0001290570720023 0.04918091589017358
787697 -1.002322219609174 0.05034287700998683
787859 -1.0015515275704754 0.05035677126829361
788021 -1.0020103166745646 0.050843258448784456
788183 -1.0017491129918796 0.050300084437966984
788346 -1.002216221518476 0.04950891307454366
788508 -1.0026193561095702 0.0503112881840022
788670 -1.0023548701972613 0.05092655721810004
788832 -1.0009231755614492 0.050122896590890406
788995 -1.0016686876157859 0.050687910451044635
789157 -1.002353729755708 0.05044235039648418
789319 -1.0016966312949396 0.049348422546507724
789481 -1.0000412581988716 0.049900916737982665
789644 -1.002197466360278 0.04962499446547651
789806 -1.0006893152066878 0.050331858145430924
789968 -1.0018824734142409 0.0506994546052497
790130 -1.0016423148966527 0.05042590891375678
790293 -1.0020384613390967 0.05056180321963311
790455 -1.001572900128873 0.050306184891313076
790617 -1.0011493951669745 0.051568721892937076
790779 -1.001651097589179 0.05114462787086856
790942 -1.002078338913441 0.0512507921671527
791104 -1.0024744996959334 0.05042529023135314
791266 -1.0024407379766995 0.050075356942744766
791428 -1.0019560659341475 0.050341094234171394
791591 -1.0015974562119458 0.05058163204997602
791753 -1.0029859286339835 0.05030093089099654
791915 -1.0023332683596957 0.04941597825095214
792077 -1.0017239183770206 0.049187399030475594
792240 -1.0010990796457906 0.05041693361340298
792402 -1.0015538152623606 0.051331642300839864
792564 -1.0027953179943394 0.05125422030084893
792726 -1.0028667443746884 0.05043391206305229
792889 -1.0020030736283814 0.05057017432198852
793051 -1.0020548431474852 0.051308989556642516
793213 -1.0018642821277335 0.050926057370992456
793375 -1.002344828133666 0.05107226572801778
793538 -1.0026193590300423 0.049766013779124596
793700 -1.001314732662183 0.050924115820224714
793862 -1.0021807899369313 0.051500093463996886
794024 -1.0018222638463252 0.051019607456140384
794187 -1.0019049379087588 0.051127088433314434
794349 -1.0027087893518998 0.05032454871933195
794511 -1.0021556264699911 0.050181280749872964
794673 -1.001964317755653 0.049929644295039606
794836 -1.0011963946741338 0.05037016792175109
794998 -1.0020774772890626 0.05144517619145748
795160 -1.0022869230457399 0.050860015910522374
795322 -1.002350673821397 0.05010763248407312
795485 -1.0018918834579291 0.050333831964252555
795647 -1.0016585564493217 0.05081885483350622
795809 -1.0010262705563342 0.051241691984819045
795971 -1.0014987277280611 0.05119160717594759
796134 -1.001726155502924 0.05047645154993043
796296 -1.0022641449733447 0.0502529265964614
796458 -1.0015440857957876 0.050097892420705545
796620 -1.001188658757195 0.05152268327582221
796783 -1.0016110916245102 0.05127476692625023
796945 -1.0020049369051944 0.05137719221499136
797107 -1.00200964776839 0.051315799961942965
797269 -1.0020922174546076 0.05037454342566831
797432 -1.0015118137846561 0.05096362611245582
797594 -1.0017730020234636 0.05112221545784909
797756 -1.0018448833378413 0.05112190305307014
797918 -1.0014785614500705 0.0517201475231179
798081 -1.0022163593797768 0.05144354891643557
798243 -1.0022241682009485 0.05010915838767045
798405 -1.0020111453145761 0.05056276839024479
798567 -1.0015154571042972 0.05110076125631955
798730 -1.0019649272653643 0.05180619605392609
798892 -1.0026932896926577 0.05136406487369525
799054 -1.0027617846833576 0.050375909296633554
799216 -1.0024095852748314 0.05021930077719685
799379 -1.0032431073120873 0.05081479272066554
799541 -1.0018785375996426 0.05145922852508056
799703 -1.0051101041067605 0.05189960172624215
799865 -1.0010105913464218 0.05069292976371813
800028 -1.002777625761969 0.051167092196596396
800190 -1.00124314630224 0.05121428146889965
800352 -0.9997484169007911 0.050759001520978814
800514 -1.003002977766338 0.050460839229965825
800677 -1.0016446589048043 0.051052741633574324
800677 -1.0041725377758588 0.05137692139465953
800842 -1.0020214175932767 0.05170241242896634
801008 -1.0017465822026794 0.051688611210444234
801173 -1.0016669783461782 0.0513731370315361
801339 -1.0023256865966097 0.05130919253381491
801505 -1.0023135461629273 0.05086260570860538
801670 -1.001514775360952 0.050337533695796605
801836 -1.0015204847823533 0.05190174816996539
802001 -1.00200734678163 0.05165367897805186
802167 -1.002292689821028 0.05085147874632943
802333 -1.0022243380028224 0.050655318818884784
802498 -1.0021589311037156 0.05077206824605816
802664 -1.0011251796903042 0.05115964834848902
802829 -1.0016213615593723 0.051373088162861014
802995 -1.001675561711467 0.051800334742836435
803161 -1.0018295572048683 0.050795195621074866
803326 -1.0028630999305281 0.05035533475887847
803492 -1.0013575094289355 0.050659778323151286
803657 -1.0013742781691735 0.051240832112119966
803823 -1.001618074878435 0.051687732949418204
803989 -1.0021843216946515 0.05139653837618903
804154 -1.0021281029528335 0.05071382246385901
804320 -1.001954526449971 0.05071568867110849
804485 -1.0016681838432744 0.05071634672071218
804651 -1.0004161320766438 0.05205267484169022
804817 -1.0014537834295099 0.05183161934023733
804982 -1.0014818663220895 0.051791499647617006
805148 -1.0023913287543018 0.051288286194648244
805313 -1.0024415018955875 0.05135043674774794
805479 -1.0012808613745527 0.05153908857148412
805645 -1.0016815437047155 0.051865342290901464
805810 -1.0022139967132009 0.0521795958034498
805976 -1.0028156420891716 0.051875817711285806
806141 -1.002465575972296 0.05083233968264195
806307 -1.0020397503751375 0.051331430501987636
806473 -1.0021362251491372 0.05155428971593269
806638 -1.001659606523319 0.05158639183680714
806804 -1.002195414615199 0.051654939835014756
806969 -1.0025316042066996 0.050778449371951084
807135 -1.0030351970095033 0.05093356038154455
807301 -1.0019468757201964 0.05071447992152434
807466 -1.0008587233533024 0.0516629444218673
807632 -1.0018427240785692 0.051930934229721344
807797 -1.0014512601305252 0.05158544646162511
807963 -1.002855531215947 0.050715630292955845
808129 -1.0017467457578784 0.05016120261680881
808294 -1.0011032977511252 0.05100765227190433
808460 -1.0012465288673098 0.05179437183345809
808625 -1.0015216087138061 0.05270104807617343
808791 -1.0013277601560022 0.052451738936066764
808957 -1.0024659376436655 0.05135670149616074
809122 -1.002507815135166 0.0513993348361256
809288 -1.001528156511758 0.05106997373892349
809453 -1.0016669801708484 0.05210025057864592
809619 -1.0026057975046472 0.052555744422121894
809785 -1.002520510764695 0.052363433810544785
809950 -1.0021050331519525 0.05123647885665875
810116 -1.0017693574318876 0.05136755529340714
810281 -1.0021194637724269 0.05200731073834003
810447 -1.0018181163362285 0.05243198342009166
810613 -1.0013394080740146 0.052100455305484954
810778 -1.0026755598519435 0.051601998429175226
810944 -1.0022777953430022 0.051133754390463824
811109 -1.0015950349561364 0.05121052592740079
811275 -1.0012151613424514 0.05207833413692151
811441 -1.0014980073143682 0.051475357221046854
811606 -1.0015337985269213 0.05206820362182377
811772 -1.0025361451807464 0.05138741164302133
811937 -1.002427691994848 0.05114573961956212
812103 -1.0013202082025907 0.05201549281251871
812269 -1.0014330042317412 0.05184735647413425
812434 -1.0014808231494974 0.053017381703652736
812600 -1.0022953189479935 0.05214298753626756
812765 -1.0030444262948224 0.05127385790538662
812931 -1.0018225152628633 0.051505328053674006
813097 -1.0016640696415393 0.05223759341138696
813262 -1.001618197785733 0.05257210316774082
813428 -1.0019468229229147 0.05268063298898974
813593 -1.0024748656042242 0.05156761548010282
813759 -1.0020462710081324 0.051446410043191254
813925 -1.0017119985008522 0.051664387188087316
814090 -1.001588218564677 0.05233260056959393
814256 -1.002025303842257 0.052360497104739764
814421 -1.002363209529754 0.052376066446544904
814587 -1.0022407790298162 0.05128257090594154
814753 -1.0019210478636473 0.05132745674595465
814918 -1.0014414179704272 0.05152388161116245
815084 -1.0018115006270556 0.05210517023690161
815249 -1.0017351295783012 0.05230515374738055
815415 -1.0023120693623941 0.051784753189691744
815581 -1.002654459199713 0.051663613633937296
815746 -1.0020781792886457 0.05207425193364155
815912 -1.001181027586124 0.05206208530672704
816077 -1.0015708789182973 0.05212430848327682
816243 -1.0014742451274357 0.052621386076365725
816409 -1.0026199878415538 0.051867730613077055
816574 -1.0023572023437068 0.051009803834777746
816740 -1.0015600937799107 0.0521020991295581
816905 -1.001350700813496 0.05259402173482451
817071 -1.0019759638051093 0.05313584528254855
817237 -1.0018308467674462 0.05273593840351066
817237 -1.0013615407269847 0.05176990024756328
817406 -1.002276215571676 0.05217142229124283
817575 -1.0017968302022398 0.05158466831262551
817744 -1.0028680601018998 0.05290171755875536
817913 -1.0014309722826067 0.052018615872363026
818082 -1.0017543410891838 0.05270274072423055
818251 -1.0017714099371104 0.0518800314104828
818420 -1.0025188738627169 0.051951331109587814
818589 -1.0022587687666353 0.05194143997173133
818758 -1.0013199180420014 0.05178468531704264
818927 -1.0015109613429105 0.051983225986452386
819096 -1.0012270595313073 0.05220029380068447
819265 -1.0014392752526609 0.05185476331679501
819434 -1.001590169447785 0.05234437899073032
819603 -1.0017465204660856 0.05250178298239406
819772 -1.0009254807695986 0.05208915551370122
819941 -1.0008655991994715 0.05236923036879285
820110 -1.0012119568552198 0.05242588557518754
820279 -1.0022001335346011 0.05239387735661179
820448 -1.0022453847652433 0.05313333969442347
820617 -1.0018303771095913 0.05282565441868764
820786 -1.0021392797833786 0.052280147424411484
820955 -1.0012188637607051 0.05203893118008903
821124 -1.0018697470704008 0.05249964270584237
821293 -1.0025762011103567 0.05296719818280799
821462 -1.0027202258143826 0.052442010938374195
821631 -1.001531233778292 0.05213981561610114
821800 -1.0007399975543148 0.05200458460192553
821969 -1.0017498439679835 0.0522093811417099
822138 -1.0022931120320326 0.05274707155212203
822307 -1.0022225759426344 0.05294869720157082
822476 -1.0023045531984502 0.05262672429288915
822645 -1.0015491566576815 0.052154262445999
822814 -1.0022005661535829 0.051866495471936794
822984 -1.001947327386798 0.05254733724244075
823153 -1.0026255677826228 0.05269660106165261
823322 -1.0023729389156315 0.05302590337495753
823491 -1.000622017026779 0.052530229047800754
823660 -1.001243701638979 0.051890341002928796
823829 -1.000919179947394 0.05293946019513042
823998 -1.002084802303855 0.05238868550684444
824167 -1.001758126149974 0.05307574500967987
824336 -1.0021102566650026 0.05332564939594029
824505 -1.0048315720692669 0.05375040057002642
824674 -1.0002707529982178 0.052401168305273665
824843 -1.0031588049332072 0.053519435720489957
825012 -1.0098513742370578 0.05356614132133513
825181 -1.0012392337230824 0.05252511764675338
825350 -1.0024030329330111 0.053016240911575196
825519 -1.0044547620565365 0.052717710917615644
825688 -1.0028556968453164 0.05249210440789422
825857 -1.0006073550498429 0.05181903650851287
826026 -0.993894974611311 0.05022687937934445
826195 -1.0014886945658599 0.05302570767358011
826364 -1.0021163149183254 0.05341207131380069
826533 -1.0053746172253075 0.05284985073713894
826702 -1.002145910832754 0.052199846174746115
826871 -1.0009754469381136 0.05205962989808496
827040 -0.999941602610615 0.05260919230588788
827209 -1.0005172884413636 0.05425473728282989
827378 -1.0019367047292 0.053762221775590174
827547 -1.0013460021806133 0.05282138056642645
827716 -1.0006928677928657 0.052084257609290745
827885 -1.0008091770538463 0.05225815759187913
828054 -1.0022958081215954 0.05400913477529676
828223 -1.0014484950583322 0.05342334383135895
828392 -1.0022476520069916 0.053421840211273254
828562 -1.0027998992363794 0.051898728940021316
828731 -1.001235413398798 0.052195770535507544
828900 -1.001131421858879 0.05311124955708709
829069 -1.001313766217421 0.05361921367927244
829238 -1.0015371688309782 0.054048037308167665
829407 -1.002951746113344 0.052468615923842436
829576 -1.0026862607686655 0.051933807313137
829745 -1.0009489862293013 0.05193622407906585
829914 -1.001255802534468 0.053548981834139676
830083 -1.001235293244404 0.053668196230216514
830252 -1.0034055573287632 0.05311378279673011
830421 -1.002233874505744 0.05257243551403024
830590 -1.001682896999986 0.05252047827517091
830759 -1.0011021174479426 0.05287038035328063
830928 -1.0012749784479322 0.05388753533771224
831097 -1.0016371363713594 0.05334936419147529
831266 -1.002828847869897 0.053350742858287316
831435 -1.001913218922056 0.052222005847830114
831604 -1.0014577771783324 0.05293470561042237
831773 -1.0012549300776015 0.05356573605911261
831942 -1.0013539502286697 0.05428927498130816
832111 -1.0023505933191013 0.053124227048121156
832280 -1.0030241212549627 0.052742161524371146
832449 -1.0023244208765858 0.05253575876465955
832618 -1.001657292099111 0.05324530634744305
832787 -1.001640382902027 0.0539164592567408
832956 -1.001633846032287 0.05376118317087444
833125 -1.0021925612587606 0.052620760248497704
833294 -1.0021472457664349 0.05234328917208212
833463 -1.001509382026653 0.052551315628210526
833632 -1.0007152372794683 0.05338660212326238
833801 -1.001522457591514 0.0537482551014164
833970 -1.0024729662758893 0.0537902429052192
834140 -1.0012938435911662 0.052942608943450854
834140 -1.0012575959820682 0.05341937916956411
834312 -1.002059444301224 0.05414752420265655
834485 -1.002219144511381 0.05339410784944557
834657 -1.001535898680419 0.052500225538481084
834830 -1.000730838196054 0.05249621132099418
835002 -1.0010503140668272 0.0534854907799773
835175 -1.0018106958770507 0.05476534782700324
835347 -1.0019235842352923 0.05316513823693439
835520 -1.0018454848476253 0.052838812021299114
835692 -1.0011979586611146 0.05218887551942753
835865 -1.0018359163790596 0.05359052335358837
836037 -1.001584194065787 0.05406604069469159
836210 -1.0034834261689156 0.05425158019281562
836382 -1.00270623376327 0.05315178263356955
836555 -1.0015510011694941 0.0527199932099045
836727 -1.0012005731798006 0.05277782023590736
836900 -1.0015957949256267 0.05372789703567557
837072 -1.0023505038473424 0.054523977895102674
837245 -1.0029021707198102 0.05375266789437342
837417 -1.001709618004863 0.05279598833201634
837590 -1.0012812704135547 0.052509421921582776
837762 -1.001332267413711 0.05354416695483077
837935 -1.0017494264914204 0.054520758750725894
838107 -1.0025654622537368 0.054645385751693906
838280 -1.0022010471843827 0.053188832646405976
838453 -1.001615362373071 0.05264738289264622
838625 -1.0010066914005908 0.05349625499131902
838798 -1.000569774328009 0.05373798052670777
838970 -1.0025315989764105 0.05434496322751933
839143 -1.0025053590140465 0.05352911575607954
839315 -1.0017374222993598 0.05316888754079596
839488 -1.001459022641387 0.05270203873483816
839660 -1.00080165291753 0.053341419486859866
839833 -1.0018709919082476 0.0542469793663806
840005 -1.0019206272540915 0.05433157456889922
840178 -1.0025262676852287 0.05326805041536054
840350 -1.001379152559148 0.0527635663888659
840523 -1.0008640863882583 0.053080625492297986
840695 -1.0009353185672094 0.053804542099687436
840868 -1.002151086921761 0.054393628777946484
841040 -1.0021387615949817 0.053500302265267904
841213 -1.001810731787649 0.05248725884470403
841385 -1.0012270822664766 0.052762122895781846
841558 -1.0010546484372433 0.05393527356674823
841730 -1.0015746067360753 0.054295779406512666
841903 -1.002708952016314 0.054452809246798725
842075 -1.0024486114408786 0.05332619843812682
842248 -1.0012734521721527 0.052059913706561434
842420 -1.000803852181962 0.053402517278057476
842593 -1.0006285278908076 0.05405724756454288
842766 -1.0019427636926543 0.05448128784264788
842938 -1.0025921171354553 0.053954120816289385
843111 -1.0023440947428897 0.0534435300653631
843283 -1.0015445042833497 0.053034109077175526
843456 -1.0011007124946847 0.05344846939701997
843628 -1.0017757056126404 0.05498280584963298
843801 -1.002657872994185 0.05465585946227761
843973 -1.0022275221943129 0.05373253510482663
844146 -1.0013458797247743 0.0531114647930166
844318 -1.0013874462319756 0.05319039370604248
844491 -1.001481443738372 0.05425787536602329
844663 -1.0029017972401288 0.05498499805155419
844836 -1.0025201192509194 0.05383642682213023
845008 -1.0013578878113396 0.0534537374030033
845181 -1.0016270211686702 0.052957020909568636
845353 -1.00080092687856 0.054148701700516985
845526 -1.001848293138131 0.05487286257650244
845698 -1.0023989728798661 0.05428256977988069
845871 -1.001872545987736 0.05369756639694968
846043 -1.0012358120927112 0.05289991841009145
846216 -1.0008772809041495 0.05387191240131612
846388 -1.0009713457089988 0.05442956601873998
846561 -1.0026265694607255 0.05489864849366874
846733 -1.0025669492671938 0.05434415826366381
846906 -1.0011841534025494 0.05280406539011251
847079 -1.001055087345028 0.053463081437762995
847251 -1.0008354803733364 0.05401929003607469
847424 -1.0018733295031126 0.05477987889759244
847596 -1.0026732946645038 0.05442864572803043
847769 -1.0026313179655233 0.05374052279794246
847941 -1.000829329671127 0.05247942569384996
848114 -1.0008552780449589 0.053747015111986124
848286 -1.0007237861957403 0.054696425391799405
848459 -1.002015627583339 0.05488948267544048
848631 -1.001612909772251 0.05380335098187242
848804 -1.0011217863217183 0.053127126213587686
848976 -1.001529552126673 0.05323364931481251
849149 -1.0007157505288515 0.05438963858410478
849321 -1.0028062541419336 0.05545654994991676
849494 -1.0023710321793224 0.05461784875468
849666 -1.0033233939604533 0.05427026136696127
849839 -1.0008724136891354 0.05327461386694299
850011 -0.9968896463814019 0.05355669239732663
850184 -1.002257663766903 0.055330717465923475
850356 -1.0052951082966586 0.055219465988155796
850529 -1.0024205426270094 0.054716571209691034
850701 -1.0026331927296266 0.05398514666139621
850874 -1.001076123854052 0.054244291720716424
851046 -1.0014913927137183 0.05460413455997274
851219 -1.0022429292992234 0.05565258851162528
851392 -1.0024943072922046 0.05471415943745164
851392 -1.00211699419292 0.05488815755972488
851568 -1.0014987341178538 0.05352155835126103
851744 -1.0014061678662813 0.05432982263560284
851920 -1.0004463406726258 0.05401995191485872
852096 -1.0043632707103338 0.05408479976736657
852272 -1.0028780456804511 0.05472791779426613
852448 -1.0023091286044505 0.053664900255322535
852624 -1.0007813638402325 0.053577458886921926
852800 -1.0010045127246725 0.05423864631967625
852976 -1.0014471829833251 0.05483594556852257
853152 -1.0030672088940018 0.054852962977433944
853328 -1.001664234231635 0.05448763627526144
853505 -1.0008789575206847 0.053974810952188944
853681 -1.0008817412836177 0.053916669046057734
853857 -1.0020956511202497 0.05475843594135312
854033 -1.0025123521718662 0.0550676885505448
854209 -1.0020776927163828 0.05457222954572712
854385 -1.0015204680438925 0.05388920719207473
854561 -1.0009363427945952 0.05418005478661571
854737 -1.0013822504841083 0.05497838548781088
854913 -1.002462960035836 0.054680352148935456
855089 -1.001258309509779 0.05470227281543403
855265 -1.0031811014408343 0.05463962445449627
855442 -1.0008837271351934 0.05410932641361913
855618 -1.000796525871521 0.05424497499060033
855794 -1.0018367611295587 0.055187768593873955
855970 -1.002333342953871 0.05472625691341427
856146 -1.000544387322152 0.05410508880354914
856322 -1.000806923924829 0.05434369935148778
856498 -1.0008549735952719 0.053947218787810766
856674 -1.0013196696495898 0.054766487520434455
856850 -1.001286953219426 0.05521125509049812
857026 -1.0017405222465157 0.05513652771492556
857202 -1.0015636562713082 0.05352067755816293
857379 -1.000946934759156 0.05509029155117187
857555 -1.0013346212211565 0.05508230072334198
857731 -1.0025329406956045 0.055596582803787056
857907 -1.001868685724833 0.05506131816353331
858083 -1.0020005432606298 0.05485459052247161
858259 -1.0014896999382228 0.05405765296035396
858435 -1.0012255675334594 0.054612980549569326
858611 -1.0020489879417611 0.05506464622097254
858787 -1.00224648287903 0.05484667348453613
858963 -1.0021284625611175 0.05482311396136382
859139 -1.0013258274454742 0.0540311677538316
859316 -1.000304958226364 0.054047615127781064
859492 -1.0018499664185472 0.055444061964927585
859668 -1.0026815556923352 0.05569188463513584
859844 -1.0019491954441282 0.05511260481300753
860020 -1.0018585566283777 0.05402280642578098
860196 -1.0016010270645954 0.05455605638507544
860372 -1.0014852045599734 0.05545570284376166
860548 -1.0026796775947788 0.05510832524764408
860724 -1.0019962085911693 0.05384258887730735
860900 -1.0012486186593383 0.05292840034001332
861076 -1.000857137609048 0.055450511748544824
861253 -1.001045824344562 0.05600370985412864
861429 -1.0028038677780655 0.056671438658731435
861605 -1.0023881217040815 0.05490365433819928
861781 -1.001260746418882 0.054264838568433206
861957 -1.0011962274413975 0.05490257301437226
862133 -1.0013808292850956 0.05560760235779307
862309 -1.0017981514006071 0.056113001016567216
862485 -1.0022181091276883 0.055114321484953
862661 -1.0017881149068468 0.05399917478160302
862837 -1.0012511577116652 0.05398006068107641
863013 -1.0016900730746767 0.05596167490418786
863190 -1.001694556469042 0.05613650067316861
863366 -1.002509452209069 0.0556406889815517
863542 -1.0023879759854408 0.054734934941725
863718 -1.0010786303796115 0.05440365037817743
863894 -1.000788849723787 0.05513636091674429
864070 -1.0003308817185714 0.056431912451447616
864246 -1.002462245624584 0.05554746625848901
864422 -1.0032563296267458 0.05438454762083615
864598 -1.0001641759474746 0.055314031625986984
864774 -0.9999776495563153 0.05429988369186009
864950 -1.001146789379797 0.05589683792736071
865127 -1.0024999187390362 0.0559154965596007
865303 -1.0024089364194373 0.05528286767876216
865479 -1.0019625269682255 0.053791615861244015
865655 -1.0014805290069129 0.055474646699593004
865831 -1.0007120956126845 0.05651857350624461
866007 -1.0020081848001854 0.05684950782420935
866183 -1.0032732539778302 0.055683784083105696
866359 -1.0015866997374003 0.05413801808173674
866535 -1.0008012113251914 0.054265229091233054
866711 -1.0007658851877945 0.054671434158526565
866887 -1.001733999240786 0.05634434151399674
867064 -1.0027177318926679 0.055550819730388695
867240 -1.0019194190178302 0.053834306399205514
867416 -1.0011674022454464 0.054137900035821286
867592 -1.0001587232038873 0.05573856807096147
867768 -1.002523970709017 0.056901638309548364
867944 -1.0014264621459954 0.05596473959381328
868120 -1.002170168564944 0.05553853434385204
868296 -1.0012197045752425 0.05441507909750433
868472 -1.00076441333462 0.05422848013990649
868648 -0.9999182592442849 0.0555221237293371
868824 -1.002667698875852 0.05673434056672961
869001 -1.002718890172954 0.054717225944729574
869001 -1.002136202421344 0.05449987607566474
869180 -1.0011465157153405 0.05534007874092752
869360 -1.0019515826563468 0.05561065613343126
869540 -1.0012456808783385 0.05574281026711632
869719 -1.001756991204066 0.055177596368842244
869899 -1.00173928665445 0.055034300837556956
870079 -1.0016387190969265 0.055942091734809664
870259 -1.0014802714361752 0.05580198517032817
870438 -1.0018714012639798 0.05559874551195422
870618 -1.001405251624795 0.055507335645814115
870798 -1.0018488294180745 0.05516222423347539
870978 -1.001783534623877 0.055829164989018194
871157 -1.000770859736789 0.05570330469941824
871337 -1.0016441946417094 0.05551411095294598
871517 -1.0012465757909665 0.05530822956370432
871697 -1.001230519356597 0.055172621318688504
871876 -1.0001665236934318 0.05529636682636298
872056 -1.000868700523807 0.05542176420993258
872236 -1.0011164281656812 0.056137716939778703
872416 -1.0016699770972732 0.055816288066803825
872595 -1.0016719463838626 0.05583979049232194
872775 -1.0022112367605935 0.0563249058118582
872955 -1.0007658523348157 0.05570262120649507
873135 -1.0019083524699781 0.05582971687651917
873314 -1.0010074766444814 0.056030879119322814
873494 -1.0016193258636157 0.05510693266042691
873674 -1.0020413332353681 0.055693360439687936
873853 -1.0004821417739043 0.05554759598930017
874033 -1.00355488012818 0.056675501302132385
874213 -1.0009566195912651 0.05551514687583231
874393 -1.0019935149238506 0.05529535880562477
874572 -1.0018503429821388 0.05541104698356373
874752 -1.0019088464708361 0.055928068378931925
874932 -1.0016644298709676 0.056026370514437415
875112 -1.0015004310669509 0.05646011194355256
875291 -1.0022220953145804 0.055524348660653915
875471 -1.0022285830323705 0.055472025404979856
875651 -1.001323498216451 0.055990445111789196
875831 -1.0015745864996715 0.05588935666523284
876010 -1.0019302700455166 0.056433954441847345
876190 -1.0015530020101093 0.055456654890155624
876370 -1.0024364696249983 0.0559907774438289
876550 -1.0018468960219742 0.05542622541727283
876729 -1.001436474896574 0.056093902104964614
876909 -1.0017881347873052 0.05678174447977521
877089 -1.002348799305966 0.056716771262693255
877269 -1.0017309855672936 0.056112541094747025
877448 -1.0022290969221195 0.056488648687961815
877628 -1.0017261639318367 0.05658780519856461
877808 -1.001687551286824 0.05566248170538394
877988 -1.0018578568443215 0.05539153412975942
878167 -1.0015757332043833 0.05597921012495005
878347 -1.001765341084113 0.05616385443469699
878527 -1.0023865145084292 0.056094583501900004
878706 -1.001527926601277 0.0559193383503682
878886 -1.000997688330983 0.05561078546041403
879066 -1.0009064181412037 0.05577678761090181
879246 -1.0021896819389404 0.05637860748149225
879425 -1.0019240888205942 0.056944087844867174
879605 -1.00171197622345 0.05581865874721725
879785 -1.000756883700745 0.055842790404242636
879965 -1.00107157730144 0.055871551653224404
880144 -1.0018875222155597 0.05638473897998843
880324 -1.001626924632117 0.05715148563776811
880504 -1.0015882624483814 0.056272982858294504
880684 -1.001334231956199 0.05581220768298473
880863 -1.0010092829213917 0.05590274079684539
881043 -1.0022006424853698 0.056627529150572675
881223 -1.0022836985869976 0.057263559038911616
881403 -1.0024038440676668 0.0571868567023648
881582 -1.002036625765641 0.05602324964257747
881762 -1.0013801558333209 0.055739480786651245
881942 -1.0013011608653295 0.05617675654636848
882122 -1.0026593949671918 0.057083224844326604
882301 -1.0023884363925304 0.056632683342797745
882481 -1.0021387362608576 0.05582248856244886
882661 -1.0015296818967905 0.05573042698434884
882840 -1.000750036526387 0.056307117462471724
883020 -1.0021905612979851 0.056589168869377565
883200 -1.0020023644074392 0.056301599779528914
883380 -1.0014587600781641 0.05598888852047065
883559 -1.001055033720621 0.05573721459644382
883739 -1.0009177925114108 0.05616694521785931
883919 -1.0017102620797738 0.056821070372948465
884099 -1.0020079492863712 0.056939660024268396
884278 -1.0011612087020518 0.05618669845298298
884458 -1.001624245091391 0.055638289377496514
884638 -1.0013045503705085 0.05654707411460378
884818 -1.00214095755059 0.05675161120615413
884997 -1.002300414201976 0.056960563274874865
885177 -1.0017594693050353 0.056922199093865776
885357 -1.0020845314206326 0.056333706136438864
885537 -1.000082188367897 0.05594226929658954
885716 -1.0020269536859499 0.056794935786411226
885896 -1.001865563550612 0.056963136040921465
886076 -1.0016730493288164 0.05669599835354635
886256 -1.0009995540846275 0.05582053424349917
886435 -1.0006383772187266 0.05601945370510141
886615 -1.0018205849609854 0.056440717715064315
886795 -1.0020265888630702 0.056968938496126255
886975 -1.0015817670631786 0.05669045003592991
886975 -1.0017450653828825 0.05689072438659632
887158 -1.0009310643159586 0.05703766516349177
887341 -1.0012026870796547 0.05651575715836569
887525 -1.0018897139514475 0.056358211442821896
887708 -1.001388309827851 0.056134743703566775
887892 -1.0005389917081413 0.05693947380235616
888075 -1.0006663500121593 0.057436286436901185
888259 -1.00236585944639 0.0578833845810634
888442 -1.0021593434094351 0.05599531474382816
888626 -1.001743368626733 0.05594287591488888
888809 -1.0008675928835755 0.0564333463265815
888992 -1.000548658754442 0.0572333139844294
889176 -1.0021488043964988 0.05722925048949742
889359 -1.0007495903840222 0.0557555062294797
889543 -0.9960520968303893 0.054995412399946854
889726 -0.9965607625212125 0.05650011233093373
889910 -1.0014117632762438 0.05771161510598957
890093 -0.999490092966634 0.05685277468427802
890277 -1.002340084245093 0.056197647959273345
890460 -1.004819282507917 0.056268240435388965
890644 -0.9989831530707932 0.05664176553418441
890827 -0.999165995946286 0.057982642006053346
891010 -1.001213008553216 0.057557538488485584
891194 -1.0026842056834164 0.05683608216879527
891377 -1.0018200177522902 0.056376093880733356
891561 -1.000825963073305 0.05682649651905578
891744 -1.0007811129734965 0.057646341985846304
891928 -1.0013009440856027 0.057457049412711035
892111 -1.0026837643870639 0.05676891027138118
892295 -1.0016417765193542 0.0559564505033559
892478 -1.0024663866996513 0.05632070683843202
892661 -1.0060545711126399 0.05793651747922528
892845 -1.0029062301091594 0.056571248365270985
893028 -1.0012156630418416 0.05657927435134773
893212 -1.0013981732333865 0.055227371897464114
893395 -1.0009100957645796 0.05614592461538825
893579 -1.0052840983533913 0.05810438195747268
893762 -0.9961205862472102 0.05793090015474874
893946 -0.9969759565712394 0.05646738747238531
894129 -1.002351173513066 0.05669738506389837
894313 -1.0027626539475658 0.056151058717589145
894496 -1.0006826843428833 0.057857735433965655
894679 -1.001286361898212 0.05776559722572845
894863 -1.0026656961430431 0.05811861254458953
895046 -1.0013794939433005 0.056784194580288286
895230 -1.0015964379643285 0.05615045635593142
895413 -1.0017315190289526 0.05804672122082504
895597 -1.001629493707238 0.05823827457971708
895780 -1.0015946293719948 0.05665901225260226
895964 -1.002515280316771 0.056851750825674396
896147 -1.0017253168567306 0.05623348435159094
896330 -0.9999626675060003 0.0567191657075138
896514 -1.0019247011942833 0.05845321731815749
896697 -1.0049924301189648 0.05708888424426466
896881 -1.0109240392790364 0.058044203629507886
897064 -1.007453618993929 0.05857608868743423
897248 -1.0013436230754156 0.05764181757600448
897431 -0.9976409672193276 0.057837478296812454
897615 -1.0014919580168684 0.056784167941615914
897798 -1.0042663093010107 0.057124601478689495
897982 -0.9994163626296031 0.05651771960529415
898165 -0.9977243955090722 0.056098970943292144
898348 -1.0020615039215182 0.059193425859024026
898532 -1.0001196056534545 0.05852302099785114
898715 -1.0044190001368967 0.05642525199883436
898899 -0.994235540275047 0.052041761978114685
899082 -0.9720427605264375 0.05396962250853608
899266 -1.0103187924068708 0.06118792403754991
899449 -1.0127390040802458 0.06028541316736359
899633 -0.9975061566205011 0.05737294270643519
899816 -1.0130139474115323 0.06041342852779081
899999 -0.9889377152239719 0.06004495732109721
900183 -0.9993410542149281 0.06039509582813324
900366 -1.0009529556396168 0.058329784275925015
900550 -1.0044362621538079 0.05771735782566581
900733 -1.002235299578047 0.05694265567988431
900917 -1.005268408205579 0.05856471696812865
901100 -1.000482720961065 0.05813872426992127
901284 -0.9970629446100618 0.05718369453678757
901467 -1.0023454390955788 0.0574383682412892
901651 -1.0024949747547378 0.056871418635921066
901834 -0.9985630630287669 0.057023267540441354
902017 -1.0064224999822937 0.06149062830012354
902201 -1.0116258003345164 0.05859288007480892
902384 -0.9972262013785521 0.057216470003378976
902568 -0.9995382910631407 0.05708443955959766
902751 -0.9992781885477202 0.05709874600224666
902935 -0.9990544042991217 0.05801577884816945
903118 -0.9954783678017172 0.0575868862405051
903302 -1.0015702492913277 0.058287240005553846
903485 -1.0017312943129397 0.05685395157898373
903668 -1.0014831293292958 0.05717807356392589
903852 -1.0009863416251938 0.058208134231918486
904035 -1.0013174203861759 0.058518429432089715
904219 -1.0023686185033354 0.057817753609980246
904402 -1.0010896017418733 0.05686763159331324
904586 -1.0013253919532277 0.057036541297062184
904769 -1.000799847026378 0.0584687327917556
904953 -1.0012740856211266 0.05823809999939761
905136 -1.0044547606414498 0.0576068983509251
905320 -0.9995090066460957 0.05671790787429614
905320 -1.0038768056653296 0.05673888309455255
905507 -1.000781360744244 0.057700656540244824
905694 -1.0007621910923103 0.058071273458944896
905881 -1.001540394578202 0.05863303326230072
906068 -1.0030484780999798 0.05749973082457211
906256 -0.9992305698534616 0.05769881687055202
906443 -0.9994839436928159 0.057332129931216454
906630 -1.0015092755375636 0.058663542417667615
906817 -1.0030527137024443 0.0590200037040777
907005 -1.002220565258183 0.05720580391261767
907192 -1.0025138893394796 0.05764386631634656
907379 -1.0012096976048546 0.058110947140677355
907566 -1.0008914554942254 0.05845651146539223
907754 -1.0021635711363333 0.05818472158671131
907941 -1.0020583897445228 0.05769064090265948
908128 -1.0011089520156302 0.05693442302596358
908315 -1.0003317890459489 0.057704482677816936
908503 -1.000963604009611 0.0591234711942784
908690 -1.0023633760723947 0.058578394207405717
908877 -1.0015472880178793 0.05736019963632394
909064 -1.001027744453901 0.05698506145684466
909252 -1.0008582308374117 0.057828681895774676
909439 -1.0010712370543529 0.0589651892704852
909626 -1.0018261106045054 0.0583938805300784
909813 -1.0013315239224387 0.05751208644625806
910001 -1.00119519040842 0.057813349486239264
910188 -1.000416223441644 0.058261021298900664
910375 -1.0003096373199742 0.05918012650439343
910562 -1.0017936862285663 0.05869405123089226
910749 -1.00209390781616 0.057294241051615735
910937 -1.0015416461488318 0.05743180994092498
911124 -1.0010390128032687 0.058281512162475346
911311 -0.9997146724485529 0.05858867590346825
911498 -1.003717428487777 0.05860557645969307
911686 -1.0023839457624975 0.057583495089161864
911873 -1.0014952852957018 0.05782227091715455
912060 -1.0011419840689575 0.058385319823380646
912247 -1.001151066123339 0.059196774303419124
912435 -1.0020489231551735 0.05867709783751929
912622 -1.0025297641548594 0.05751816607104205
912809 -1.0004071073948706 0.05790323227489233
912996 -1.0003411168569019 0.05846289733914215
913184 -1.0013398194180838 0.058900537119468556
913371 -1.0027850029694287 0.05901254462667823
913558 -1.0015297463473283 0.05922725547101792
913745 -1.0009318546048267 0.05799643181379129
913933 -1.000947695122553 0.058057504359272864
914120 -1.001111467231893 0.059125699631797965
914307 -1.0010197166939483 0.05947590894688818
914494 -1.0044159076417702 0.05948867694453794
914682 -1.0021072003935914 0.057932447753380384
914869 -1.0010603454871927 0.057316798895449356
915056 -1.0011930569475984 0.05858873840472919
915243 -1.0009939014954445 0.05934956063102024
915430 -1.0012703655303865 0.058163064455226
915618 -1.0000492142756707 0.05698390116547822
915805 -1.000884645898892 0.056780333660871145
915992 -1.0004700166527127 0.05842732832311883
916179 -1.0010788317700656 0.05892005500615827
916367 -1.0025468430742537 0.05859761991873814
916554 -1.002027831138146 0.057495443072421944
916741 -1.0013981115833863 0.05750056666093368
916928 -1.0005106575844651 0.05827583665977661
917116 -1.0010107832959958 0.05901429398452874
917303 -1.0022941515579826 0.05884353646690696
917490 -1.0016509045937094 0.05779337557272693
917677 -1.000689049761285 0.05804086651012777
917865 -1.000238312193156 0.05902716841187003
918052 -1.0008872624879448 0.05909221423998614
918239 -1.0023939200854337 0.05951135283984116
918426 -1.0025747990573575 0.05731970534509955
918614 -0.9989962775143801 0.057262258559287064
918801 -1.0030273539477006 0.059011050882669266
918988 -1.0019550418883065 0.05939468320608123
919175 -1.003007839254802 0.05871232095745479
919363 -1.0026755695768343 0.057379273150554196
919550 -1.0005542481770726 0.05773263838416334
919737 -1.0004814718925612 0.05875270334990891
919924 -1.0005753057221929 0.05909205714991619
920111 -1.0022056527202812 0.05922091943371425
920299 -1.0014618256428023 0.057555598458423465
920486 -1.0008599949960708 0.05779631814824571
920673 -1.00089032692494 0.059450090910109936
920860 -1.0006651173052645 0.05990538808119551
921048 -1.0023003182331514 0.05907227225491116
921235 -1.0015795267233552 0.05838380792606841
921422 -1.0010961473779472 0.0584559307475501
921609 -1.0013035125028136 0.05971751535563517
921797 -1.0022749176519536 0.0600463036199279
921984 -1.0006601342810655 0.05850433447099515
922171 -1.0023025499815919 0.058184723756780264
922358 -1.0014875933208942 0.05790145273634808
922546 -1.0008855612918601 0.058843806914261616
922733 -1.001514660128272 0.059280045554305105
922920 -1.0018503153415623 0.05959795003075421
923107 -1.001831932056928 0.057959193093652404
923295 -1.000675456075348 0.05804070769401751
923482 -1.0004100253822503 0.058699072200690795
923669 -1.0008647179079118 0.05913892631116493
923856 -1.002577484441835 0.05909417401915417
924044 -1.0007638348771621 0.05742141198484752
924044 -0.9993181908120924 0.05882910644961494
924235 -1.001575199572146 0.059576862492506884
924426 -1.0009800242229525 0.05924791358939021
924617 -1.0021712404845893 0.0582642001033694
924808 -1.0009476170110079 0.05862250997120675
924999 -1.0008147979249495 0.059367441150437995
925190 -1.0011109298955403 0.05998123482355284
925381 -1.001952566700833 0.059681882059583975
925572 -1.0022797055509995 0.058255483214758964
925764 -1.0017066770638448 0.0587358023966294
925955 -1.0015752315249689 0.059146191491484305
926146 -1.001604578789236 0.059826601393880484
926337 -1.0019840205658568 0.059101179275214646
926528 -1.0027854065619064 0.05831942466298649
926719 -1.0009853378074103 0.0590933919410114
926910 -1.0004436488641657 0.05903326509155803
927101 -1.0005263618410913 0.059589377148374985
927293 -1.0021842350926788 0.05885133519881622
927484 -1.0020122480864342 0.05875875195025929
927675 -1.0007772370700048 0.058887493472258495
927866 -1.0006297225768161 0.05940102228629577
928057 -1.0006296786671351 0.05941235720497688
928248 -1.0024036086644879 0.05885655593499551
928439 -1.001904172144408 0.059062430915038266
928630 -1.0013681958136613 0.05913525369488431
928822 -1.0013019901581248 0.05965323024951248
929013 -1.0010664282589403 0.0596540674839971
929204 -1.002031748311043 0.059167078401275365
929395 -1.0020224480721924 0.05887165092403158
929586 -1.0004193380589435 0.05902993954255094
929777 -1.0014142499111747 0.05986873971262136
929968 -1.000815776410581 0.05932372039329784
930159 -1.002326266787346 0.05920124777825013
930350 -1.0012273427277978 0.05915888597779866
930542 -1.0002559292867892 0.05897754276046694
930733 -1.0014194130115706 0.060161501443769416
930924 -1.0016699866187775 0.058994411068703234
931115 -1.0008633744238773 0.059149308523430526
931306 -1.0015587008464804 0.058963714085135066
931497 -1.0002606898335802 0.059392351628776575
931688 -1.0010590299038038 0.060124481416579646
931879 -1.0012687572422425 0.06008156172309453
932071 -1.0020039103434493 0.058979826451109364
932262 -1.0016007979345964 0.05929443942597742
932453 -1.0005227636179352 0.05916082500046914
932644 -1.0017488985604361 0.06048668857365683
932835 -1.001473560677506 0.059340195734860594
933026 -1.0013999025456375 0.05875831867637455
933217 -1.001720765196642 0.058884198489429704
933408 -1.0014506634944214 0.05959683220375832
933600 -1.0013882041519813 0.06024378893524262
933791 -1.0012861230904195 0.05940406776060649
933982 -1.0020289992077591 0.05910868518325266
934173 -1.0014534172406435 0.05844628149796175
934364 -1.0011011043650513 0.0590351557692878
934555 -1.0011838568761282 0.06109545628788444
934746 -1.0017014102622803 0.059744172391266684
934937 -1.001835726836123 0.059769099016571195
935128 -1.001189109532909 0.05927814908765005
935320 -1.0005277371892825 0.05946652985327427
935511 -1.0011193641656289 0.0601520894756063
935702 -1.0010708652105174 0.059350904436012604
935893 -1.0014920019405116 0.05961863172856395
936084 -1.000737868677999 0.05922455472001205
936275 -1.0007241935365019 0.059058714248430795
936466 -1.0006029793883058 0.06008182622134939
936657 -1.001944883324136 0.06022906033623305
936849 -1.0021816742457075 0.05905286749784438
937040 -1.0009034298822708 0.05881926148048279
937231 -1.0002971053727248 0.059570570980498276
937422 -1.0003815660005417 0.06061404416950296
937613 -1.0014492825596772 0.06039845456833434
937804 -1.001054374840108 0.059284655823903645
937995 -1.0008834726952567 0.05927672027834378
938186 -1.0012018460010088 0.06018163194080086
938378 -1.001244458976457 0.06046698904544089
938569 -1.0015755915154132 0.05964737342688046
938760 -1.0019027703602565 0.0593505284741221
938951 -1.0008574052647399 0.05935217976610283
939142 -1.0009611372417766 0.06024750431473246
939333 -1.0007772445935612 0.06036039079296237
939524 -1.000621408947555 0.059414606887887474
939715 -1.001434992862126 0.05927394035903792
939906 -1.0011820431702732 0.06020434044221923
940098 -1.0011545032825326 0.06088837434223943
940289 -1.0012032595284874 0.06032960074890394
940480 -1.0019052246952636 0.059954141837203
940671 -1.0017930489340754 0.059444190015553545
940862 -1.0009847140073793 0.05965594285246192
941053 -1.0014571833465227 0.060347995151919125
941244 -1.0011450312831411 0.06038756515077195
941435 -1.0022812283368472 0.059396498726313994
941627 -1.002127957687896 0.05892237262445893
941818 -1.0012959748145511 0.05985371260951165
942009 -1.0010072753910633 0.06009566657607737
942200 -1.001171991606666 0.060194268437384596
942391 -1.0018692500230284 0.059508369898853115
942582 -1.0016543414887762 0.059446471706932916
942773 -0.9997321131049947 0.059549125996147804
942964 -1.0010267577776932 0.06068745940200252
943156 -1.0025351787156225 0.060680026120294585
943156 -1.002212221383116 0.06048822369512334
943351 -1.0017907947653235 0.059690741333714555
943546 -1.0014073018933338 0.05989308817377935
943741 -1.0019387378851865 0.06096747815366195
943936 -1.001231732039875 0.061154112371636565
944131 -1.0018342275842922 0.06043809543466043
944326 -1.0020310817545404 0.05954519869951105
944521 -1.0008528398823506 0.06021043858172361
944716 -1.0013885502241386 0.06119743062276351
944911 -1.0014033090656365 0.06081188346741955
945106 -1.001825856148667 0.059861441989929966
945301 -1.0012384932681815 0.05941993879896228
945496 -1.0003816179305876 0.059517042980904274
945691 -1.000726454483904 0.06067704304692024
945886 -1.0013938619745155 0.06088014746047094
946082 -1.0023807466087222 0.060254385623364465
946277 -1.001290419386473 0.05971667310092447
946472 -1.0001343915939362 0.060136485701905454
946667 -1.0006863399839745 0.0608835163356481
946862 -1.001292977310399 0.060619008810327016
947057 -1.001056010277397 0.060316415837137705
947252 -1.0008926909327083 0.05980572507351504
947447 -1.0005967418373534 0.06057052859931254
947642 -1.001514349197946 0.06135258522715845
947837 -1.0011428364332402 0.060593535787203084
948032 -1.0016180078715027 0.0605776843123047
948227 -1.0016822385940194 0.059666398136102534
948422 -1.0008732039056714 0.06070487528973796
948617 -1.001161435924911 0.06151279730474396
948813 -1.0019221187285419 0.060071338911689844
949008 -1.0006092689433614 0.05990097906524275
949203 -1.0014492265036368 0.06043448039848571
949398 -1.0012182439127264 0.0610991992233189
949593 -1.002673436010837 0.06096690226031032
949788 -1.0022776641168232 0.05990460249923903
949983 -1.003462384362247 0.059704997055291094
950178 -0.999505322204482 0.05991128993073349
950373 -1.0011079765247477 0.06189143814398292
950568 -1.0016509333047268 0.06148210683964502
950763 -1.0026018233438854 0.06064225972961574
950958 -1.0012295685470158 0.06018201455570484
951153 -1.0010536369091427 0.060559791598966815
951348 -1.0017234348930983 0.061712651844495245
951544 -1.0014686229562348 0.06096984049026269
951739 -1.0023164550263222 0.05996716162838836
951934 -1.0012926240091622 0.060999863442952856
952129 -1.0020960024692276 0.06105464810365154
952324 -1.0007599501458322 0.06043729821110293
952519 -1.0017597616972862 0.060760119088325154
952714 -1.001785003782036 0.06017114236677812
952909 -1.0010719859950052 0.06069038146437905
953104 -1.0010536413434985 0.06103042835100778
953299 -1.0009810702984705 0.0605002296823499
953494 -1.0013489384071035 0.060628845112974616
953689 -1.0010509434149903 0.06101024544642823
953884 -1.0005370803369622 0.06054773425668651
954079 -1.0011191887852784 0.061472252778846666
954274 -1.0008981425562558 0.06112493933728075
954470 -1.0021169742836793 0.06104406286797232
954665 -1.001120759247334 0.0615841473975862
954860 -1.0012280680144547 0.061451245531438124
955055 -1.0009879628927167 0.061889379417985294
955250 -1.0015262484744225 0.06080772193468689
955445 -1.0022395644486195 0.06070958355842495
955640 -1.0016418820737134 0.060679062223573735
955835 -1.0013402722791316 0.06140421117891406
956030 -1.000730959581622 0.06112456839321551
956225 -1.0014394185374238 0.06121026182442631
956420 -1.0022146701825625 0.06101869719751657
956615 -1.0008856141500988 0.061274693365842216
956810 -1.0012212082639185 0.06096422164050051
957005 -1.0007130520098693 0.06133011844347479
957201 -1.0016064416755437 0.06064021362544201
957396 -1.001498261021337 0.06095486223702567
957591 -1.001569883924812 0.06104903219440398
957786 -1.0010941453697377 0.061355230044917095
957981 -1.0008493092979065 0.06114415936258191
958176 -1.0018043809264978 0.06103533517953687
958371 -1.0015671672032829 0.06103331563697815
958566 -1.001327986770161 0.060946132227037784
958761 -1.000856736423395 0.0607695852066311
958956 -1.000692754110941 0.060881378960811805
959151 -1.0021615943643762 0.06123906207043802
959346 -1.001792727077428 0.06144156258763071
959541 -1.0010060273825345 0.06123417133932829
959736 -1.0005486367754257 0.061366472645226246
959932 -1.0018313579454354 0.06134351965585089
960127 -1.0015386550125949 0.06076547170990024
960322 -1.0009581746583531 0.060718490365878015
960517 -1.0009610225025007 0.06152321818231067
960712 -1.000620656536306 0.06119234788932115
960907 -1.0015280386183114 0.06123656353038558
961102 -1.0014247448225717 0.06139020641077736
961297 -1.0001980892234825 0.061207230194533335
961492 -1.0015878472424202 0.06204331711439803
961687 -1.0008536568612223 0.06101338931269297
961882 -1.001599995753296 0.061817275778111754
962077 -1.001330275032014 0.06168376372245402
962272 -1.0008082835200243 0.061585717475642836
962467 -1.0007525317537762 0.06138590861150689
962663 -1.00041469298785 0.06105172603884861
962663 -1.0005818454317519 0.06240336710956739
962862 -1.0010587035149754 0.062299280149315586
963061 -1.0023794315227803 0.06197766114491696
963260 -1.001498580263815 0.06082553586178675
963459 -1.0011779341655316 0.06239396683133642
963658 -1.001375950717808 0.06157511750200351
963857 -1.0017217350398235 0.061318405710471445
964056 -1.0020677399324562 0.060376030821023115
964255 -1.0010879631103247 0.061065157169148614
964454 -1.0013913904920968 0.06202431345882378
964654 -1.0010662345077241 0.061777122103439455
964853 -1.0020112872483913 0.0614426702794802
965052 -1.0013205470748403 0.06085333047934377
965251 -1.000625010109314 0.061476876547598834
965450 -1.0015019740944833 0.06186325252842584
965649 -1.0017532660555861 0.06256866522598334
965848 -1.0018015932560802 0.0614513797762243
966047 -1.0010413982904025 0.061115900706882775
966246 -1.0004777385173989 0.06176684658490963
966445 -1.000943925852284 0.0619284728846222
966645 -1.0016453422406553 0.0615386274287961
966844 -1.001542334680135 0.06123975549864871
967043 -1.0008743133600992 0.0613567202896111
967242 -1.0010877656709662 0.0621477457417981
967441 -1.0013294066471037 0.061952507499563804
967640 -1.0013812488196925 0.06102635641672959
967839 -1.0007852035156855 0.06089846444865244
968038 -1.0007839522550783 0.061319090875447874
968237 -1.0006524872228226 0.06195183687226257
968436 -1.0015394679204521 0.06200143579166524
968636 -1.0022082714499219 0.06059943790598858
968835 -1.000490614953725 0.06114459364700143
969034 -1.0007810289548502 0.062062562333223034
969233 -1.0005379897070978 0.06260228600829848
969432 -1.0014337810141627 0.062457081526585766
969631 -1.001565584521859 0.061928155477882135
969830 -1.0014405358198328 0.061136334552684725
970029 -1.001019422533519 0.062402288346965165
970228 -1.0015325806289714 0.06255443049554407
970427 -1.0020774116871942 0.062173766338939666
970627 -1.0015269308676837 0.0606680800036908
970826 -1.000597508157514 0.061690171101934754
971025 -1.0010307459210328 0.06285760064974905
971224 -1.0015713856284083 0.06202569566878125
971423 -1.0014548719571168 0.061778051829403116
971622 -1.001788557045668 0.061616660308814436
971821 -1.000181372911986 0.06194378394913409
972020 -1.0003323724602204 0.06260841054293516
972219 -1.0017967500253346 0.06247467859223415
972418 -1.0017973420503055 0.06130325106839524
972618 -1.0006036205578983 0.06108717082016817
972817 -1.0008041537052956 0.06280284552857368
973016 -1.001255927454549 0.062464346132915474
973215 -1.001676978265458 0.061849736170496945
973414 -1.0015919814838983 0.06146705449335683
973613 -1.0007043434784406 0.06238816250107779
973812 -1.0015174960271445 0.06346158691368704
974011 -0.9977413072901594 0.06165108840110305
974210 -1.0020415737682355 0.061442899102611824
974409 -1.0036547160588447 0.062100537132580756
974609 -0.9990608467065987 0.062084903634239186
974808 -1.000966949793682 0.06299651061758807
975007 -1.0024419115563437 0.06220501130387244
975206 -1.0030415607616656 0.0617586227748503
975405 -1.0005615867168027 0.06151431966854646
975604 -1.0004461902461446 0.06202070635028849
975803 -1.001304241854145 0.06240186749127669
976002 -0.9988590056064713 0.06113276332177025
976201 -1.0006783805221653 0.061778999026951595
976400 -1.0005214174105603 0.06210560186330896
976600 -1.0005988374345858 0.06274483289121671
976799 -1.001041073806321 0.06250704032003164
976998 -1.0021933661374145 0.06278316106707378
977197 -1.0012170994954632 0.06147280480528383
977396 -1.0003226415686253 0.062226780365933466
977595 -1.0010586669341988 0.06319846452703187
977794 -1.0014704383907063 0.06250235325839865
977993 -1.0018387770605133 0.06220018800659124
978192 -1.0018395977542056 0.06196922721295906
978391 -1.000781449885918 0.06263856371035322
978591 -1.0006289701083921 0.06283959265542202
978790 -1.001537808504061 0.062020989006453524
978989 -1.0019724309395583 0.0623048901387645
979188 -1.000728710874259 0.061577209475729186
979387 -1.0012329220055478 0.06324512103148525
979586 -1.0009791624606117 0.0630316220145975
979785 -1.0013622191981246 0.06222164063267556
979984 -1.0008838366534585 0.06183027939516461
980183 -1.0005478946985504 0.0625591773496029
980382 -1.001350506098461 0.06290977542634348
980582 -1.0013516518145338 0.0626125419121636
980781 -1.002073897092128 0.06232423094738523
980980 -1.0011788523477985 0.061730789769595965
981179 -1.0010895795961103 0.06356389774026308
981378 -1.0007676785717952 0.0630470647624864
981577 -1.0017583010357665 0.06255166886421443
981776 -1.0017679636715384 0.06204311752711189
981975 -1.000617815259733 0.06237388563163594
982174 -1.0012966198842563 0.06282801870769249
982373 -1.0014683163884943 0.06283737414261464
982573 -1.0019791550792099 0.061810574359775765
982573 -1.001682641808361 0.06243593530736038
982776 -1.000039906555475 0.06182617505545102
982979 -1.0005667955642004 0.062420376420834325
983182 -1.0005334984526668 0.06323428665230821
983385 -1.002476163518713 0.06341541640613553
983589 -1.0009175458770516 0.06222569047629603
983792 -1.0004223002038253 0.0624610252419462
983995 -1.0002350810272356 0.06370833522931327
984198 -1.001028066262781 0.06362386407659193
984402 -1.00167645502108 0.06344831079835864
984605 -1.000873356602904 0.0620321949533979
984808 -1.0009879220670441 0.06259746656445173
985011 -1.0007211532515239 0.06325024885389999
985214 -1.0020907166920758 0.06440429273487196
985418 -1.0012764241413594 0.06284564678150496
985621 -1.0002991064327087 0.06164006954854568
985824 -1.0011936821988006 0.06321484579873643
986027 -1.0010595694756526 0.06373679122935554
986231 -1.0026667777985079 0.06330332765257034
986434 -1.0009266722697436 0.06174901349129965
986637 -1.0008737914078616 0.06192235418188299
986840 -1.0005865316276337 0.06345435791343734
987044 -1.0019921104194958 0.06364642495632576
987247 -1.001392118891571 0.06261374548807427
987450 -1.0007301816351746 0.06169336171688633
987653 -1.0003069178326576 0.06292795382886203
987856 -1.0006666290938586 0.06353090168950916
988060 -1.0014170676171497 0.06390508622819213
988263 -1.0010776968815998 0.06217331456382761
988466 -1.000360526094306 0.06256848207314508
988669 -1.0003891586526876 0.06407784456197353
988873 -1.001325299015548 0.06388937131390195
989076 -1.0021594043913633 0.06336134654924643
989279 -1.0008004814813685 0.06250860645222413
989482 -1.0006744295958392 0.062496217293396925
989686 -1.000852001183773 0.06360063544700234
989889 -1.0015141246584442 0.06393875781945837
990092 -1.0015855687834965 0.06292497396353788
990295 -1.0004627812117586 0.06196665880989217
990498 -1.0003370156833853 0.06331074559320066
990702 -1.0009378854028228 0.06342580377705072
990905 -1.0018535636325554 0.06389973301400577
991108 -1.0006618967938679 0.0622673595639339
991311 -1.0002768482027726 0.06316585215958363
991515 -1.0004789142095343 0.06368780527866426
991718 -1.0016657100037905 0.06379062746520667
991921 -1.00153455847721 0.06371402464674189
992124 -1.0008236456466042 0.06279068036342894
992328 -1.0008532187596713 0.06321148042949432
992531 -1.0007721483633252 0.06445198396487842
992734 -1.0022917951113313 0.0639868333147928
992937 -1.001060974498064 0.06263897080526987
993140 -1.0005703710997853 0.0628730360002818
993344 -1.000961168845158 0.06388048263017639
993547 -1.0015785328740925 0.06344209977205698
993750 -1.001882397656974 0.06262159237111978
993953 -1.0008386221188559 0.06232736122555152
994157 -1.0005991220675525 0.06313305590161984
994360 -1.000595117359194 0.06371148682624679
994563 -1.0021040084542157 0.06386986097906587
994766 -1.0017437417843897 0.06268004598032856
994970 -1.0008605052976627 0.06305476685056964
995173 -1.0004026307340848 0.06375367196595218
995376 -1.0013941230433885 0.06503106742024516
995579 -1.0019967317241978 0.06370518840349251
995782 -1.0008149983711816 0.06291994541688503
995986 -1.0008601157323551 0.06364490745249689
996189 -1.0009519240838873 0.06399708646736647
996392 -1.0021017154655307 0.06461616063184636
996595 -1.0011654485613672 0.06309995982407045
996799 -1.0011371185612035 0.06309842355716178
997002 -1.000792109247426 0.06318373173106502
997205 -1.0008952194699758 0.06438607326444407
997408 -1.0015019627579185 0.06380818898908938
997612 -1.001194539879116 0.0624272194241767
997815 -1.0008937574460695 0.06319823245367256
998018 -1.0004729999067137 0.06354954164928253
998221 -1.0015981871890514 0.06429782486796727
998424 -1.0012218743278505 0.0636266625376225
998628 -1.0006016200852972 0.06310186847894757
998831 -1.0002642932534362 0.06350528908784214
999034 -1.000550254125382 0.06395319824877196
999237 -1.0017417059975604 0.06447657986695586
999441 -1.0014470563008364 0.06356741515214417
999644 -1.0017441482035054 0.0631269987142681
999847 -1.000147317961237 0.06392829385703606
1000050 -1.001520669635994 0.06451407743737655
1000254 -1.0025872188661629 0.06428469489839518
1000457 -1.0018764718761544 0.06299871850715452
1000660 -1.0010179044439846 0.06309230264385189
1000863 -1.0012163080071739 0.06391972953257229
1001066 -1.0023364315732102 0.06517365236236801
1001270 -1.0016118014236504 0.06389975253575789
1001473 -1.0011305450931622 0.06315397463289421
1001676 -1.000489035483064 0.0635220403543767
1001879 -1.0010027373753259 0.06445657490021003
1002083 -1.001446165353403 0.06418976375173129
1002286 -1.0011023651070443 0.06348529235574395
1002489 -1.000448790973227 0.06386955663478305
1002692 -1.0001647152239985 0.06431948810711376
1002896 -1.0009431918772624 0.06395054664799282
1002896 -1.0003454819639903 0.0637043181929731
1003103 -1.0009053466871356 0.06400369507288034
1003310 -1.0018067341361854 0.06344103387414807
1003518 -1.000659569482591 0.0636145989483854
1003725 -1.000566707494587 0.06391219402222605
1003933 -1.0008373424325874 0.06523602774946939
1004140 -1.001863572849376 0.06422013632199543
1004347 -1.0013646417140434 0.06318726809811329
1004555 -1.0004992983055445 0.06252147382933274
1004762 -1.0003644503779083 0.0640180307677057
1004970 -1.0009051558962094 0.0647781722522399
1005177 -1.0017721257501275 0.06429266245150304
1005385 -1.0010685046659706 0.06323993616028818
1005592 -1.0002138973249313 0.06378865036571778
1005799 -1.0007708903002062 0.06356954152224296
1006007 -1.0011610952671337 0.06419011533241732
1006214 -1.0006416242690002 0.0636250817636791
1006422 -0.9998340850609679 0.06325576057335638
1006629 -1.0007012874817867 0.06473944631816875
1006836 -1.000882934478377 0.06479650614055558
1007044 -1.0016070709806786 0.06474792081739028
1007251 -1.001520028821248 0.06376104149069683
1007459 -1.0012194446272522 0.06428040619633314
1007666 -1.000978879893555 0.06532141539953008
1007874 -1.0017040840564935 0.0646249296324905
1008081 -1.0019801935278565 0.06423931135458506
1008288 -1.0012307107007508 0.06342480328535224
1008496 -1.0006454223954624 0.0641501205134674
1008703 -1.0011431614034758 0.0644719414529347
1008911 -1.0013974027535055 0.06450349704593183
1009118 -1.001280309821982 0.06336756326328465
1009326 -1.0010884273412353 0.06432474184779616
1009533 -0.9999889780501482 0.06441470499173586
1009740 -1.0017865745490595 0.06429495197651734
1009948 -1.0011492497958796 0.0640702167899475
1010155 -1.0008934658489905 0.06313689481520675
1010363 -1.0011223370036029 0.06418114594439468
1010570 -1.0006054739349894 0.06466073476702537
1010777 -1.0020076746337574 0.06465444979199393
1010985 -1.0009165846228332 0.06398672501984377
1011192 -1.0008942634934097 0.06424263593305406
1011400 -1.0012270331932815 0.06547481821059914
1011607 -1.0018730043684902 0.06572361570227965
1011815 -1.001443315218212 0.06440704868813736
1012022 -1.0004023108402285 0.06414289723313857
1012229 -1.000786912207398 0.065301719938441
1012437 -1.0008932872692253 0.06496125205142368
1012644 -1.0002857066002893 0.0639871086641764
1012852 -1.0001886677059475 0.06424515230850807
1013059 -1.000981199039488 0.06434140163243664
1013267 -1.0020790675695836 0.06485891931099708
1013474 -0.9998242663629386 0.06402923468003144
1013681 -1.0009930393462947 0.06437076302354743
1013889 -1.0001807005608099 0.06491050257055558
1014096 -1.0015973102407754 0.06551921255384366
1014304 -1.0007525726700848 0.06469466302781815
1014511 -1.0005794587126502 0.06370243338152881
1014718 -1.0004603718397531 0.06456186710488473
1014926 -1.0012027003396156 0.06522548424722807
1015133 -1.0019673639803264 0.06569798441179818
1015341 -1.0007326879059784 0.06409155025831939
1015548 -1.0000431329850634 0.06406873652450314
1015756 -1.0003261698797463 0.06535401665245498
1015963 -1.0018884732811388 0.06565281657149763
1016170 -1.0011249405964577 0.06461932948352857
1016378 -1.000748601115302 0.06413551251481404
1016585 -1.0001502112961411 0.06475832186128634
1016793 -1.0012328226396068 0.06511216651422182
1017000 -1.0016064816197818 0.06528341864523556
1017207 -1.00002994528649 0.0641370208692789
1017415 -1.0006625252978996 0.06495424864190445
1017622 -1.0001037112034867 0.06532205634958012
1017830 -1.0017187348857757 0.06583726717928247
1018037 -1.0010590578559924 0.06548516895346179
1018245 -1.000640274477296 0.06489315347417894
1018452 -1.0006501352984294 0.06497722015242101
1018659 -1.0004027268875275 0.06491150759047573
1018867 -1.0023882145089578 0.06573304851164044
1019074 -1.0003393194152643 0.0649270761207184
1019282 -1.0008406188977654 0.0643092147878559
1019489 -1.0008866418316382 0.0650463359055393
1019697 -1.0025639735861709 0.0664357715042349
1019904 -1.0007218877064559 0.06439526123370376
1020111 -1.00020335222514 0.06448695386107435
1020319 -1.0004009458540848 0.06435513848597631
1020526 -1.0007460685134937 0.06550399724216241
1020734 -1.0015880984600323 0.06514018064526934
1020941 -1.000321363264358 0.0648758596894636
1021148 -1.0000596997058007 0.06459976956111779
1021356 -1.0003967941901455 0.065187594411229
1021563 -1.0013147907138988 0.06587982735748567
1021771 -1.0020978057157082 0.0656872814660808
1021978 -0.9995125170760639 0.06493080213539337
1022186 -1.0006469659150692 0.06536339190978764
1022393 -1.0009229982116241 0.06560472777243415
1022600 -1.0022635207237292 0.0653795661162223
1022808 -1.0015560443223026 0.06569729433280974
1023015 -0.9993321465884044 0.06462195197477208
1023223 -1.0013514557019894 0.06528475941379318
1023430 -1.001934841851693 0.06546664512273166
1023638 -1.001151351219459 0.06564635713885968
1023638 -1.00140893309442 0.0658013144187847
1023849 -1.0018367799012227 0.06547737880252756
1024061 -1.000854559784014 0.06469623754467355
1024273 -1.0008526938426827 0.0651037001333576
1024484 -1.00047946242765 0.06565012338687895
1024696 -1.0015883321045882 0.0659551594672987
1024908 -1.001271433622193 0.06480592874412758
1025120 -1.00038283249389 0.06452175586447721
1025331 -1.000143210608913 0.06569435215244011
1025543 -1.0010628897735134 0.0663291082693246
1025755 -1.0015578374572285 0.06626542673215043
1025966 -1.0021766260967049 0.0652865524217067
1026178 -1.0006153509605558 0.06562227980956249
1026390 -1.001012935653082 0.06647971972742014
1026602 -1.0019313602879922 0.06591584459754597
1026813 -1.001049940042015 0.06466163204619879
1027025 -1.0013000231738995 0.06442498952940084
1027237 -1.0013233565471367 0.06569222807808685
1027448 -1.0011622475765745 0.06590148308010516
1027660 -1.0019392408823324 0.06510058567867338
1027872 -1.0002799088512215 0.06489179132650004
1028084 -0.9988210781851133 0.06580385683995199
1028295 -1.0003339112998788 0.06638386848308302
1028507 -1.0012911601294852 0.06608463949432329
1028719 -1.000240553291649 0.06461068120560091
1028931 -1.0002318798755925 0.06495931248208013
1029142 -1.0001179511394387 0.06635621244381451
1029354 -1.0012839984036548 0.0662548172403374
1029566 -1.0014461323829043 0.0652897100260687
1029777 -1.0010407831919939 0.06490084434773158
1029989 -1.000728368008232 0.06635877390278486
1030201 -1.0009601045730798 0.06667381772295378
1030413 -1.0020227829961381 0.06610292820021317
1030624 -1.00079651622354 0.06535192929846703
1030836 -1.0007898913348747 0.06551428846116178
1031048 -1.0013878836371377 0.06597227137564701
1031259 -1.0022018279014366 0.06546043831868967
1031471 -1.0016527450613275 0.06543293325439076
1031683 -1.0007782237968346 0.06523578090877762
1031895 -1.0002148206618569 0.06650769537661323
1032106 -1.0012658895711923 0.06637671678647895
1032318 -1.0021979882241645 0.06628836254684083
1032530 -1.0013381467357427 0.06517854199641664
1032741 -1.0002467878338703 0.0655288762285156
1032953 -1.00051125709146 0.06625584433970927
1033165 -1.001444244859029 0.06572526389794378
1033377 -1.0006031503679247 0.06551292731222486
1033588 -1.0006209508894728 0.06598513726115547
1033800 -1.0011942163983605 0.06633458918426566
1034012 -1.0014832083157417 0.06636098558427692
1034224 -1.0019262885922033 0.06559700691114824
1034435 -1.0014117907342435 0.06498655822862943
1034647 -1.0003131032715877 0.06603364019884232
1034859 -1.0009007484082997 0.06679340243901086
1035070 -1.0013194346829168 0.06591163341538071
1035282 -1.0002489749134817 0.0659592551513908
1035494 -0.9987726428529239 0.06480835152157287
1035706 -1.001792299018294 0.06593464806556434
1035917 -1.0013065399210488 0.06620428876265008
1036129 -1.0013763528281923 0.06610095961009237
1036341 -1.0010023661901606 0.06554219281926242
1036552 -0.9996184429794868 0.06623581528521784
1036764 -1.0008338866365616 0.06662553802883432
1036976 -1.0019819332766293 0.06599857242064604
1037188 -1.0003542237057659 0.06602269387261807
1037399 -1.000707865706783 0.06647481633339142
1037611 -1.0002123185242484 0.06713222874129897
1037823 -1.001500268152813 0.06649597451493545
1038034 -1.0015696892727932 0.06521263586450582
1038246 -1.0005784950488559 0.0655787694341441
1038458 -1.0012989243412356 0.06722470411531999
1038670 -1.0000773839488788 0.06583722817472504
1038881 -1.0015971012864464 0.06625961623221129
1039093 -1.001049454821041 0.06572728241795174
1039305 -1.0009277669690488 0.06601349648684966
1039517 -1.0016615691693287 0.06651385927897306
1039728 -1.0004764915869437 0.06621958536421758
1039940 -1.0006004682774432 0.06583602570346996
1040152 -1.0005801024681626 0.065529301848262
1040363 -0.9996974410393289 0.0664473241601152
1040575 -1.0021811018962836 0.06795664041816711
1040787 -1.000868779121591 0.06491453230204308
1040999 -1.000258670873198 0.06599801583409061
1041210 -1.0004697893415184 0.06640919141430728
1041422 -1.0011530993039988 0.06706938400289243
1041634 -1.0014929145938847 0.06670702617611933
1041845 -1.0006170025581271 0.0654422723505104
1042057 -1.0002756870178886 0.06589345638534896
1042269 -1.0007431210968074 0.06658716918757177
1042481 -1.0016272696122537 0.06647475264830333
1042692 -1.0007856048339907 0.06580828521821516
1042904 -0.9992729150115285 0.06553294434552778
1043116 -0.9999597119563234 0.06693190554703236
1043327 -1.0007966247005204 0.06727892173033546
1043539 -1.0021335510064133 0.06682812186763103
1043751 -1.0022543455784565 0.06503920892774495
1043963 -0.9992305691424626 0.06555912555149623
1044174 -1.000637503801808 0.06720067900000402
1044386 -1.0027069011901653 0.06696384645770918
1044598 -1.0014605299370005 0.06686206154418638
1044810 -0.9975786649357034 0.06650179721844621
1044810 -0.9942410015902794 0.06553376836785475
1045026 -1.0009518510393338 0.06620137626186723
1045242 -1.0000048112492281 0.06662308561661862
1045458 -1.0012395910201994 0.06664130127501677
1045674 -1.000383034121559 0.06657938952070754
1045890 -1.0004100054086158 0.06662287431158104
1046106 -1.0007091099820888 0.06728992599300013
1046322 -1.0009322849733922 0.06629614574595517
1046538 -1.0005494107056987 0.06616505106956946
1046754 -1.004464107440883 0.06631925128560943
1046970 -0.9926644322754532 0.06631949189904109
1047186 -1.0042584658186768 0.06759840645439896
1047403 -1.002431072841393 0.06815500938720281
1047619 -0.9980122171866083 0.0675262549822105
1047835 -1.0197881234717372 0.07255730042095021
1048051 -1.0071143831241496 0.06355080178615523
1048267 -1.000767261528061 0.0662209000553698
1048483 -1.0061514382202625 0.06772612429521636
1048699 -0.9990656647086341 0.06816369191411711
1048915 -1.0036449704096768 0.07112019999499927
1049131 -1.0025512994765315 0.06865181603296734
1049347 -1.0010392837722126 0.06596581098389051
1049563 -1.0034182706243238 0.06730189849904193
1049780 -0.9926743495740636 0.06534657138481896
1049996 -0.9852245595160208 0.06110759894641951
1050212 -1.0019398978509335 0.06359825188605958
1050428 -0.9936247842261475 0.06611416702052289
1050644 -0.9964584688643736 0.06559523533089553
1050860 -0.9894017810257763 0.06810747216025591
1051076 -0.9767430533839206 0.05848290355454722
1051292 -1.0087574344794823 0.06712440529378826
1051508 -1.0001681135716358 0.06615279433895375
1051724 -1.0016774985565216 0.06761906559614672
1051940 -1.0077361841552832 0.0693219734997671
1052157 -0.9966754358644968 0.06498870872022132
1052373 -1.0002247247247007 0.06744811377947665
1052589 -0.9988273916132762 0.06742539258422081
1052805 -1.0013031448931382 0.06794756289971296
1053021 -1.0065507218973755 0.06760988279619173
1053237 -0.999581542637753 0.0669306943452035
1053453 -1.0004065165667695 0.0674258696358918
1053669 -0.9998714442593534 0.06632297080843733
1053885 -1.001306185325568 0.06689208275308421
1054101 -1.0003592117559652 0.06683560299001667
1054317 -1.0009176579093484 0.06759642075031964
1054534 -1.0007883299546627 0.06747433609308622
1054750 -1.0014651579564708 0.06683835647488381
1054966 -0.9998685501750018 0.0665933497557559
1055182 -0.998930476043444 0.06800027948042325
1055398 -0.999714074028161 0.06773531134014789
1055614 -1.0015591140886175 0.06708589706785541
1055830 -1.0012219998919578 0.0669462984645363
1056046 -1.000875013379417 0.06783852515340044
1056262 -1.004151438281769 0.06742478025831389
1056478 -1.0042901732198497 0.06794454126110813
1056694 -1.0007818177106946 0.06659834004751256
1056911 -1.001306832441153 0.06776757159499686
1057127 -1.0014091563970722 0.06683359182627656
1057343 -1.0043850546542124 0.06828541944306374
1057559 -1.0005035675635388 0.06673969825866333
1057775 -0.9999020677027122 0.06682821650544753
1057991 -1.0000510031776164 0.0678940163407002
1058207 -1.000575697406023 0.06737262907799507
1058423 -1.0015116147332328 0.06694895124557776
1058639 -1.00033349881652 0.06763647803472068
1058855 -1.0010328417629373 0.06764075180716723
1059071 -1.0003756704921059 0.06806575888768182
1059288 -1.000249139693027 0.06788169300326162
1059504 -0.9987262571684835 0.06586016186789474
1059720 -1.0009471454741437 0.06821033138221388
1059936 -0.999576008342807 0.06782852371014675
1060152 -1.0008617634727386 0.06747823890057479
1060368 -0.9969122973245365 0.06585133522220436
1060584 -0.9980671513543277 0.06683943894961537
1060800 -1.0008223794972133 0.06767263095445208
1061016 -1.0005981148110557 0.06759961644683105
1061232 -1.001696119925538 0.06675437892762821
1061448 -1.0005004738310606 0.06709162861136059
1061665 -1.000428522026956 0.06804591661354763
1061881 -1.000611414952938 0.06774865761525176
1062097 -1.0013078481481232 0.06799526827120991
1062313 -1.000821973093079 0.06733372789912923
1062529 -1.0002003713003444 0.06833996778568048
1062745 -1.0006701374220752 0.06834812394388415
1062961 -1.000838931576962 0.0679461254590042
1063177 -1.0011606329106821 0.06708167287669393
1063393 -1.0014576859878006 0.06808879971683376
1063609 -0.9980327488958164 0.06751974742121175
1063825 -1.0012823207455475 0.06864476764649408
1064042 -1.0020790138649935 0.06743557604556215
1064258 -1.000168451683591 0.06748378674439608
1064474 -0.9998194912493557 0.06784157235258466
1064690 -1.000960906844463 0.06801890290524103
1064906 -1.001751522310929 0.06780452129604093
1065122 -1.0006807472143724 0.06660607225542513
1065338 -1.0003615912159682 0.06853213999481146
1065554 -1.0008065252391798 0.06793926824683619
1065770 -1.0019220769648145 0.06800093676623414
1065986 -1.0011943838866866 0.06734338677465049
1066202 -1.0003969796818835 0.06750660852794815
1066419 -1.00026921155362 0.06850534600899298
1066419 -1.0002956409833788 0.06844981385815191
1066639 -1.0007788838567009 0.06811494257946056
1066860 -1.0013504466130714 0.06794948310522014
1067080 -1.0008323087355238 0.06793978389143776
1067301 -1.0005922589653218 0.0690015146237932
1067521 -1.0008215635819564 0.06804082109244566
1067742 -1.001940962850581 0.06792021107524134
1067962 -1.0004928799148372 0.0674278843780343
1068183 -1.0009280787198906 0.06849505345295805
1068404 -1.0007762252441113 0.06811155776237035
1068624 -1.0015305836790036 0.06801602951205708
1068845 -1.001104277507555 0.06783329135097659
1069065 -1.0006634580285483 0.06823145707725915
1069286 -1.0009970537757853 0.06810719172673822
1069506 -1.0011943101995553 0.06839522632768348
1069727 -1.0008292750021077 0.06800965579171626
1069948 -1.0000982765967412 0.06855781294838569
1070168 -0.9999202333975314 0.06884377083212519
1070389 -1.0010005280225165 0.06804556657482584
1070609 -1.001375304646151 0.06765831120555647
1070830 -1.0004218254614983 0.06862190853142712
1071050 -1.0006484677874106 0.06854150571835298
1071271 -1.0006208978948121 0.06871704280455658
1071492 -1.0011754638274357 0.06824192250802047
1071712 -1.0002256769336866 0.06783362942069068
1071933 -1.0004035222694991 0.06888437468486813
1072153 -1.0005433275544846 0.06804989631591285
1072374 -1.0013530528908527 0.06828400872121171
1072594 -1.000181660131927 0.06777967288585637
1072815 -1.0000225240536242 0.06839437886755446
1073036 -1.000432017310195 0.06925228999245574
1073256 -1.0013828604002453 0.06819675580989042
1073477 -1.000611256134683 0.06817835632543703
1073697 -1.0004952667614975 0.06891590627839776
1073918 -1.0010678986801786 0.0687016672014361
1074138 -1.0009692605258653 0.06859150886353646
1074359 -1.0009700531759482 0.06795913793751208
1074580 -1.0009246951513724 0.06878208458214088
1074800 -1.0006429178905871 0.0689643322451342
1075021 -1.0012701082049678 0.06926317388895409
1075241 -1.0012670926274057 0.0682168463843379
1075462 -1.0002925550134947 0.06844177628362702
1075682 -1.0005087854977404 0.06868320084439626
1075903 -1.0014189729064193 0.06885906545769664
1076124 -1.001077588208977 0.06864717440583049
1076344 -1.0006790617025343 0.06740759911691072
1076565 -1.000766451302436 0.06934763213373804
1076785 -1.0006298430072342 0.06827192136732758
1077006 -1.0011601930543526 0.06830709611804965
1077226 -1.0015285958812472 0.06890648658299701
1077447 -1.0010074568534675 0.0690940581698453
1077668 -1.000517505105392 0.06901905176574054
1077888 -1.0000313097283204 0.06859137512690239
1078109 -1.001087347112411 0.0688468334784287
1078329 -1.0005271648016336 0.06874214038608752
1078550 -1.0005460876385581 0.06897120515531838
1078770 -1.0004317147043942 0.06831411426893996
1078991 -1.0010961216318903 0.06864265306175463
1079212 -1.0009237257102048 0.06930548317146909
1079432 -1.0009509856575862 0.06864090775743774
1079653 -1.0007667773461888 0.06919101859546867
1079873 -1.0003379778336665 0.06830039344636726
1080094 -1.0017266586675653 0.06910314108751336
1080314 -0.9997891549756645 0.06885686183325558
1080535 -1.000574380161767 0.06893334522082896
1080756 -0.9999440511360858 0.06856429558525175
1080976 -1.000871847114775 0.06935276996936068
1081197 -1.000892490234747 0.06879489728209208
1081417 -1.000898073451994 0.06913076457779001
1081638 -1.000005895891374 0.06948506476889744
1081858 -1.0020998117264384 0.06878321275450779
1082079 -1.0010803010031484 0.06898833193824756
1082300 -0.9998079424902893 0.06840618196960191
1082520 -1.0002870854123025 0.06921688274932813
1082741 -1.0010395534036958 0.06911205321550878
1082961 -1.001469025947361 0.06977613030286954
1083182 -1.0006866539619197 0.0686234633318562
1083402 -1.0004348104596397 0.06872941079299004
1083623 -1.0011821182025484 0.06926093975237038
1083844 -1.0023413046912963 0.06931525809737203
1084064 -1.0005681429281612 0.06868689272977868
1084285 -1.0004314777752368 0.06904609770228236
1084505 -1.0003957213254433 0.06836225284711775
1084726 -1.0009895206005954 0.06990237306662986
1084946 -1.000875275740631 0.06975424793531106
1085167 -1.0001887737854862 0.0690504273275061
1085388 -0.9999706323485226 0.06972733509662417
1085608 -1.0002345607409011 0.06925725626186323
1085829 -1.0009760394383656 0.06929102884866195
1086049 -1.0006048083484895 0.06896993028477076
1086270 -1.0004391330073685 0.06958568538097974
1086490 -1.0013202930900953 0.0697626637785978
1086711 -1.001388830600083 0.06955725824475502
1086932 -1.000496142272454 0.06899712908909235
1087152 -1.0002845108090228 0.06915452784840843
1087373 -1.000458711907755 0.06930314873514806
1087593 -1.0010970000733423 0.06995364333776471
1087814 -0.9990970755103784 0.0686518648900294
1088034 -1.0003247281635703 0.06914301785237335
1088255 -1.0002534127144949 0.06949181518918719
1088476 -1.0000360939540884 0.0695042660072061
1088476 -1.0001719848813366 0.06903570280079552
1088701 -0.9997062784724601 0.0697299593386293
1088926 -1.0011331485419916 0.07006311568278262
1089151 -1.0017262995328948 0.06981284361947097
1089376 -1.0002861310311792 0.06895150057926668
1089601 -1.0006926007716517 0.07015486681038653
1089826 -1.0008935564668662 0.06995628193314814
1090051 -1.001877085846278 0.06992205306653079
1090276 -1.0000998574289934 0.06929563534373459
1090502 -1.0006598499678603 0.06922973654893738
1090727 -1.0009635176412963 0.07000708746880303
1090952 -1.0016210288708502 0.06992003415713922
1091177 -1.000836433767604 0.06890608918991693
1091402 -1.0007869551850892 0.06939682800180189
1091627 -1.0007603653237784 0.0698992385709429
1091852 -1.0012428755148202 0.07016607396829418
1092077 -1.000712228113746 0.06942581368909395
1092303 -1.0003506093051775 0.0691131356608431
1092528 -1.0003370048674554 0.07030589174575236
1092753 -1.0003274669398918 0.06976624696196425
1092978 -1.0011601704722402 0.06895958450293618
1093203 -1.0002936995084464 0.06934809356326414
1093428 -1.0006878926970335 0.07050069785066856
1093653 -1.000655301457366 0.07077922036827732
1093878 -1.0005622722385716 0.0699257879131255
1094104 -1.0007980622850412 0.06909713887088595
1094329 -0.9999989455758644 0.06956035990499956
1094554 -1.000648999631068 0.0700252766862111
1094779 -1.0017466404111377 0.07005775275377008
1095004 -1.000281564386147 0.06902899020054902
1095229 -1.0000476784918626 0.06978342496060788
1095454 -1.0005411722552355 0.06999283774030568
1095679 -1.001651492566171 0.06994811420718954
1095904 -0.9995335785325615 0.06970640760163423
1096130 -1.0004677734826743 0.06981077108362983
1096355 -1.0002780923374892 0.07059712108570289
1096580 -1.0006665186680093 0.07094603476192672
1096805 -1.0008080806247954 0.06946775443544476
1097030 -1.0004344112777623 0.06917007130935783
1097255 -1.0007199749507552 0.07067084531359519
1097480 -1.0008144479079735 0.07042095118693383
1097705 -1.0008164254446827 0.06992092468103729
1097931 -1.0013383033010035 0.06983765825107408
1098156 -1.0001042950575736 0.07032374029178669
1098381 -1.0009961552776756 0.07026690487349056
1098606 -1.001202975176264 0.06974890604769692
1098831 -1.0007299261795812 0.0692870163696798
1099056 -1.0001617315601004 0.07057145737276511
1099281 -1.0016473976626998 0.07035920311285873
1099506 -1.000582225582843 0.0699857115012339
1099732 -0.999597223907397 0.06928640245235149
1099957 -1.0014550041454884 0.07074813813449178
1100182 -1.0011808300611322 0.0705932003772525
1100407 -1.0006381426926294 0.07025383569410293
1100632 -1.0007083454234433 0.06989229951787046
1100857 -1.0006854825156601 0.07051186258440378
1101082 -0.9993652636307404 0.07030725404269787
1101307 -1.0007693543479828 0.0701882914681919
1101532 -1.0007886921131608 0.06974367090617074
1101758 -1.0000337892106355 0.07039669339291833
1101983 -1.0003553546686645 0.07049383042611963
1102208 -1.0012471469551754 0.07037169112282012
1102433 -1.001069052922566 0.07000205553077953
1102658 -1.0000383421469592 0.06973226921423252
1102883 -1.0004909588932422 0.07018260400848363
1103108 -1.0008066684791013 0.07086544140706556
1103333 -1.000978113678062 0.07002726956539411
1103559 -0.9997268800026091 0.07019240799496786
1103784 -1.000692876969066 0.0709740420741498
1104009 -0.9999165158504945 0.07028938797531348
1104234 -1.0011712851764774 0.07036918790022505
1104459 -1.000365675054107 0.07039203589143209
1104684 -1.00106524769428 0.07099661181174984
1104909 -1.0005729217749013 0.07091314299990806
1105134 -1.0016652358345202 0.07005406718393273
1105360 -1.0006998080354312 0.0697939601929334
1105585 -1.0004973419479333 0.07062788587269309
1105810 -1.0009297121673821 0.07047621707549831
1106035 -1.001460424585264 0.07062344121073759
1106260 -1.0005816309540265 0.06989634662045528
1106485 -1.0005437530733254 0.07080513314797122
1106710 -0.9999715952735588 0.07068313167285459
1106935 -1.0010516156643132 0.07082787255646791
1107160 -1.0000485265114234 0.07008599884636499
1107386 -1.0006278935098247 0.07023770900447034
1107611 -0.9999266857512176 0.07091957505268437
1107836 -1.000644290053734 0.0704003749234815
1108061 -1.0008057873362524 0.07032092637251766
1108286 -1.0004309322028895 0.0708573724609
1108511 -1.0004663401359637 0.0716661879831009
1108736 -1.0008846684899166 0.0717546815762647
1108961 -1.0005675317954918 0.07057369623113662
1109187 -1.0002823485426338 0.07054108812297438
1109412 -1.0006391130496624 0.07147505921722494
1109637 -1.000694034876817 0.070546743404113
1109862 -1.001480254166427 0.07059727230406468
1110087 -0.9999799504589675 0.07033359576799186
1110312 -1.0003005833695728 0.07050123234644423
1110537 -1.0007600105795706 0.07071163782802675
1110762 -1.001151570963865 0.07099684448176843
1110988 -1.0017288047197157 0.07120740077716778
1110988 -1.0011895127288977 0.07108910905817042
1111217 -0.9997154520717557 0.0701010845143678
1111447 -1.000404124196069 0.07096234956184712
1111677 -1.000218706607323 0.07108496523053832
1111907 -1.0008826300047977 0.07153768761158998
1112136 -1.0003968299977493 0.07069551420743768
1112366 -1.0002716548849044 0.07109364772554737
1112596 -1.0006100135743563 0.0708960695037963
1112826 -1.0015060194422092 0.07120662982165256
1113056 -1.0000308554893016 0.0704474729521284
1113285 -1.0003939226361303 0.07051650253508453
1113515 -1.0009128076453584 0.07143456716820838
1113745 -1.001679592770586 0.07161468978262946
1113975 -1.0007732736398034 0.07035186124735766
1114205 -1.0004447201024755 0.07025716163277486
1114434 -0.9998839962944002 0.07033474958966338
1114664 -1.0014923501910609 0.07197839762321544
1114894 -1.0000792043914968 0.07112578370614132
1115124 -0.9995929583007971 0.07129239116191492
1115354 -0.9999983463751574 0.07135636012807708
1115583 -1.0006463044221845 0.07178979382755471
1115813 -1.0006800971120406 0.07057178377137367
1116043 -1.0003849009137784 0.07108415067439015
1116273 -1.0003649923661335 0.07124920731986804
1116502 -1.000922729248885 0.07209414619737711
1116732 -1.0012445947149893 0.07107192740116171
1116962 -1.000032473676956 0.07078763552456889
1117192 -1.0003793211993575 0.07127256707918539
1117422 -1.0010583153545418 0.0719015105931697
1117651 -1.0009177080688536 0.07112442298371152
1117881 -0.9999219243984584 0.07046613472182289
1118111 -1.0002265085408204 0.07079879422391683
1118341 -1.0007693529937642 0.07149717296018739
1118571 -1.0005902638976762 0.07148836616487055
1118800 -0.9995326485635746 0.0702888502587828
1119030 -1.0000496829423928 0.07158893119447737
1119260 -1.0004770427573004 0.07195420463904519
1119490 -1.0004719162773237 0.07133990133923593
1119720 -1.0001082513743966 0.07152572130601285
1119949 -1.000492225443756 0.07158580914999343
1120179 -1.0010383857915226 0.07191174901736541
1120409 -1.0013826501764398 0.07189309482558714
1120639 -0.9999869069381508 0.07091187386602998
1120868 -1.0010334306966069 0.07146396019015164
1121098 -1.0006773562158973 0.07179664747931615
1121328 -1.000296066097067 0.07187699225259407
1121558 -1.0000876564591146 0.07163781825301606
1121788 -1.0016947516990682 0.07110065542848845
1122017 -1.000872825242395 0.07151040952235128
1122247 -0.9995677616096048 0.07113029910037026
1122477 -0.9999896804328587 0.07177556897062287
1122707 -1.0010354485713355 0.07205796744370578
1122937 -0.9997645004391507 0.07113965867972047
1123166 -1.0005367947580985 0.07165365890565548
1123396 -1.0007769783790537 0.07245366827878137
1123626 -1.000658173112602 0.07249475676619745
1123856 -0.99980946952662 0.07160173236730331
1124086 -0.9999244899040707 0.07058843472755365
1124315 -1.0004848308777479 0.07158469665745183
1124545 -1.002133873943132 0.07225339634842173
1124775 -1.000688266959938 0.07173445573262421
1125005 -1.0023234988134313 0.07099025227923463
1125234 -1.0002191649938967 0.07147922956879921
1125464 -1.0002974284127495 0.07125040920474476
1125694 -1.0005474781714447 0.07137006174380284
1125924 -0.9997540801927781 0.0713139631878321
1126154 -0.9987314177405676 0.07205397155669885
1126383 -1.0007992362558524 0.07235337470316142
1126613 -1.0008581359947213 0.07175775998803277
1126843 -1.0004143285433635 0.07188180899713045
1127073 -1.0002467223203138 0.07191158865604792
1127303 -1.000611852973878 0.07272002047428629
1127532 -1.0006991797912608 0.0720170075061665
1127762 -1.000668341552441 0.07182275603065297
1127992 -1.000362953251645 0.07202811705105712
1128222 -1.001147979354925 0.07242706743244862
1128452 -1.0010623868959474 0.07196888302954392
1128681 -1.0003552518625343 0.07156469057203206
1128911 -1.0002424931230498 0.07195808140613773
1129141 -1.0008237615965319 0.07186918226194752
1129371 -1.0003498726610192 0.07207428165576332
1129600 -1.000002362524283 0.07157358049195921
1129830 -1.0007101036415726 0.07213330792408108
1130060 -1.0005229751027453 0.07250792765362751
1130290 -1.000820137751081 0.07201579731053313
1130520 -1.0001219078523251 0.07204230530318576
1130749 -1.0002281872827021 0.07200515428450933
1130979 -1.0009509274397568 0.07218275578989591
1131209 -1.0014953609678767 0.07273148165355968
1131439 -1.000209749054371 0.07146023368324222
1131669 -1.0008507581441668 0.0720555550938877
1131898 -1.0006853752708156 0.07213926906769778
1132128 -1.0015389498804312 0.07223155538208366
1132358 -0.9998928072757025 0.07149021901622657
1132588 -1.0001103160357792 0.07240927368092831
1132818 -0.9999350820688171 0.07196753903932022
1133047 -1.0009717695793885 0.07260246477275302
1133277 -0.9999422602375428 0.07153379447948591
1133507 -1.000667691288012 0.07219981877431329
1133737 -0.9998987639661863 0.07243086302265418
1133967 -0.9994919697509275 0.07269303963731281
1133967 -0.9996284777608957 0.07250988139027992
1134201 -1.0008317754615161 0.07272389646040917
1134436 -0.9998334109667516 0.07254191167652524
1134670 -0.9998607386492153 0.07252491354698413
1134905 -0.9999570946624641 0.07247626669452005
1135139 -1.0007966900433916 0.07288929417135717
1135374 -1.000611050366141 0.07237041758426781
1135608 -1.0001341431124215 0.07189468415750788
1135843 -1.0004695831707044 0.07242723036957027
1136077 -1.0012759264749165 0.07289828142710995
1136312 -1.0009602762740584 0.0724675159396001
1136546 -1.0001000355153509 0.07156708507944773
1136781 -1.0000932138592726 0.07270218270479134
1137015 -1.0009205350927672 0.07318853590190433
1137250 -0.9998490204964262 0.07225646123673393
1137484 -1.0001587400884289 0.07187751731183395
1137719 -1.0002579335590798 0.07298821356650656
1137954 -1.0008244060647318 0.07362454798943073
1138188 -1.0002290504736722 0.07279464909626984
1138423 -1.0001656012733324 0.0726845673518414
1138657 -1.0000725908481836 0.07236537681334562
1138892 -1.0010639275495719 0.0738870576571438
1139126 -0.9999399230870132 0.07214243857572435
1139361 -1.00037975418065 0.07181789836278112
1139595 -1.0000152450314446 0.07307039450913731
1139830 -1.001046451054876 0.07297227262003296
1140064 -0.9998409424057182 0.07221237281684398
1140299 -1.000334065634578 0.07219101905878436
1140533 -1.0002787017724628 0.0722642814020226
1140768 -1.0000723353143552 0.0730147293126247
1141002 -0.9997360613377139 0.07236069224848535
1141237 -0.9998908338416302 0.07216157623499168
1141471 -0.9997597122062443 0.07285925466574805
1141706 -1.0006605110927311 0.0732212917348798
1141941 -1.000395709853886 0.07250070746478421
1142175 -1.0004604652355749 0.0727278855444667
1142410 -1.0001387923308012 0.073219932340237
1142644 -1.0005181696028866 0.07386997322322555
1142879 -1.0003768033974558 0.0724197953193896
1143113 -1.0004089374853393 0.07202964414264208
1143348 -1.000279979434104 0.07324662727766248
1143582 -1.0012626474930306 0.07334214271089967
1143817 -1.0010754211123827 0.07239547003359362
1144051 -1.0004576490938526 0.07278474786325317
1144286 -0.9999438472421397 0.07329230539591176
1144520 -1.001056976306476 0.07348782205948443
1144755 -1.000667582191474 0.07244546855164907
1144989 -1.0000493952667844 0.07302985186653554
1145224 -0.9998382653620999 0.07330093732732744
1145458 -1.0002963670714542 0.07373513311910111
1145693 -1.0007643603701557 0.07269505595882222
1145928 -1.0002195247327341 0.07337754324142476
1146162 -0.999983558305267 0.07357112958125392
1146397 -1.0009914763799885 0.0735420663248539
1146631 -1.00041699853422 0.072586797652718
1146866 -1.0007228785401 0.07298631069725284
1147100 -0.9999227160538883 0.07275842208705965
1147335 -1.001192861047242 0.07341848696194642
1147569 -1.000946099554051 0.07236604418888982
1147804 -0.9998963418885984 0.07254156889094694
1148038 -1.000143163212825 0.07339098694842101
1148273 -1.0000739959342442 0.07379129672471767
1148507 -1.0000391491276501 0.07313143792775434
1148742 -0.9997254176190818 0.07318765528195544
1148976 -0.9997483530556397 0.07367854200993525
1149211 -1.0012131113747262 0.07384832210023094
1149445 -0.9999491912599213 0.07323321060371896
1149680 -0.9992896362356208 0.07368702182101451
1149915 -0.9999172573756221 0.07338033939301182
1150149 -1.0009943809562465 0.07400342045751676
1150384 -0.999800773088386 0.07333454868329291
1150618 -1.0005157716740125 0.07374539319374693
1150853 -1.0003048561997283 0.07326273887703613
1151087 -1.0011602716879022 0.0737548703003081
1151322 -1.0007803405193565 0.07281925615613523
1151556 -1.0003122854281672 0.07347416797294826
1151791 -1.0000944551035924 0.07309607884454258
1152025 -1.0008272927182804 0.07392603262935685
1152260 -1.0000039630635988 0.07292321831829174
1152494 -1.0001097804735657 0.07385170695403913
1152729 -1.000260970519891 0.07313968874301324
1152963 -1.0008122373765331 0.07395056119532638
1153198 -1.0007683177033406 0.07332986425259097
1153432 -1.0000411451040887 0.07422031531439813
1153667 -1.0003765537982643 0.07341359933980167
1153902 -1.0010896391680424 0.07447875521233138
1154136 -1.000876081180692 0.07327485001097855
1154371 -1.0003070103484837 0.07350942999726572
1154605 -1.0002220611935093 0.07314774162359275
1154840 -1.0007674474878696 0.07408376559187482
1155074 -1.0001459525199439 0.07283994133830461
1155309 -0.999534210787614 0.07285132467222755
1155543 -0.9996193182486323 0.07344372993393336
1155778 -1.0003453674217861 0.07396829381525616
1156012 -1.0001625010260577 0.07348913869136928
1156247 -0.9994810804676765 0.07313882570099482
1156481 -0.9994094740121512 0.07358318132242272
1156716 -1.0007568722039035 0.07490113108401349
1156950 -1.0000731054268261 0.07344498312345757
1157185 -0.9997674273175715 0.073836470659267
1157420 -0.9998838204209456 0.07372676329432327
1157420 -1.0001049655624414 0.07382508833368073
1157659 -1.000404543623458 0.07398274943407282
1157898 -1.0010721035040904 0.07399683451040262
1158138 -1.0003625696992846 0.07390499314908834
1158377 -0.9996942797100021 0.0738830489961006
1158616 -1.0004625032554597 0.07371726258653746
1158856 -1.0007948311155874 0.07316585291169707
1159095 -0.999962370182291 0.07388178432020653
1159335 -0.9994846667554795 0.07383156805675965
1159574 -0.9998912256178686 0.07361912020655365
1159813 -1.000507382458372 0.07365004611859809
1160053 -0.9996585926608382 0.07432338642867095
1160292 -0.9997474990838922 0.07396345069741725
1160532 -1.0001503025176104 0.07333635443073595
1160771 -1.0004598030746712 0.0741503191661813
1161010 -0.9999967596423573 0.07402565283959837
1161250 -0.9993535663726245 0.07439066559754946
1161489 -1.000811843746338 0.07440553190112269
1161729 -1.001346723189747 0.0737102136212204
1161968 -0.999664301189327 0.07450854610798487
1162207 -1.0002113284166523 0.07398209726096336
1162447 -1.001119927860829 0.07413382904311384
1162686 -1.000228712622072 0.07356988788749674
1162925 -1.0000796115954917 0.07404324432819949
1163165 -0.9991993204698271 0.07440240532276853
1163404 -1.0006097746766465 0.07430226017642091
1163644 -1.0006005160752152 0.07362586718983649
1163883 -0.9996849306456099 0.07431129975540483
1164122 -0.9997673258241646 0.07462248302145279
1164362 -1.001036613075068 0.07442670695666355
1164601 -1.000932909362508 0.07377754340761825
1164841 -0.9998891516772553 0.07411513808543832
1165080 -0.9998768740661989 0.07413616006680009
1165319 -1.0011782517315555 0.07467534975756428
1165559 -1.0005242241172982 0.07422905852769954
1165798 -0.9998963263343541 0.07449530876488338
1166038 -1.000216897062131 0.0741417707021002
1166277 -1.001753473660115 0.07378075724391858
1166516 -0.9999888299829166 0.07434956601860193
1166756 -0.9995731484841207 0.07390745353823028
1166995 -1.0001894163109268 0.07439742324367903
1167234 -1.0010849476046213 0.0740088360878376
1167474 -1.0002892703313275 0.07480382040892317
1167713 -1.0001013725266799 0.07426323496536723
1167953 -1.0002769014038262 0.07433267424112788
1168192 -1.0002025202526126 0.07405127375993219
1168431 -1.0000026211748174 0.07502635357172865
1168671 -1.0001619570336941 0.0740249502536
1168910 -1.0007552390965966 0.07485951012928622
1169150 -1.0003991890836978 0.0740259803662032
1169389 -1.0008139081131364 0.07501435630687965
1169628 -1.0000325456646493 0.07447135743559509
1169868 -1.0017399315170954 0.07501132870931007
1170107 -1.0000945098880714 0.07414200053078548
1170347 -1.0003211501449725 0.07472193914731094
1170586 -0.9994276526477536 0.07423224345490578
1170825 -1.0012429537157876 0.07508375908715693
1171065 -0.9999862450018241 0.07423490167585949
1171304 -0.9995705737766563 0.07454127328181098
1171544 -0.9998047993632809 0.07427230339272413
1171783 -1.0009125145577145 0.07465311009781102
1172022 -1.0000366946896957 0.07470174601214834
1172262 -1.0000424509850832 0.074310516243306
1172501 -1.0000693197583461 0.07495241689920194
1172740 -1.0011835342483075 0.07438432098643451
1172980 -1.0004598592516192 0.07466656509655013
1173219 -0.9991219709032786 0.07536545742716973
1173459 -1.0001573683491014 0.07507061214851558
1173698 -1.0009965597640251 0.0745495504827665
1173937 -1.0007215980131385 0.07492862490320927
1174177 -1.0003983038622284 0.07471025131368483
1174416 -1.000576756357823 0.07549456879663037
1174656 -1.001105564179517 0.07438143039631956
1174895 -0.9997620786228965 0.0754589550634151
1175134 -0.999359942272002 0.07497430575200228
1175374 -1.0006186098761225 0.07575691924610982
1175613 -1.000790944625676 0.0749251755333452
1175853 -0.9996523094516643 0.07487800103268505
1176092 -0.9997296179062555 0.07578384826639817
1176331 -1.0006968012367192 0.07526705461201019
1176571 -1.0006286150997712 0.07442692085072587
1176810 -1.0002433528691403 0.07477836520869824
1177049 -1.0002415412019496 0.07513993287743549
1177289 -0.9995134047489781 0.07454459558722547
1177528 -1.0000179122118495 0.07465095519737577
1177768 -1.0001212174485192 0.07503172575862625
1178007 -0.9995327709823683 0.07486327382301897
1178246 -1.0003942729089117 0.07541020887369856
1178486 -1.0004379822248792 0.07465887648222753
1178725 -1.000531006965491 0.0751786393820648
1178965 -0.9998110159298768 0.07565471816680375
1179204 -1.0006934447841154 0.0749345418291752
1179443 -1.0001497379192894 0.07497691652493658
1179683 -1.000473642341938 0.07566542236595453
1179922 -0.9997219885822282 0.07599082449477282
1180162 -1.0000758321885994 0.07531853941855034
1180401 -1.0009748922135735 0.07546849707478258
1180640 -0.9998909597533422 0.07500740600115058
1180880 -0.9995230266314914 0.07535065068674839
1181119 -1.0015636340679626 0.07491032289988837
1181359 -1.0001110634913766 0.07479161489955445
1181359 -1.001093032688218 0.07512674554378956
1181603 -0.9998877736553884 0.07505983446158947
1181847 -0.9996899584652343 0.07517413325823502
1182091 -1.0009584997646201 0.07504766255744594
1182336 -1.0013552985195893 0.07550742018183557
1182580 -0.9997038185026725 0.07591486171817523
1182824 -0.9999253880685637 0.07579101220627216
1183069 -1.0009032350031057 0.07621314624262336
1183313 -1.0004232664678856 0.07536552804154092
1183557 -0.9995382347779271 0.07506897928276297
1183802 -0.9999183571992385 0.07566937500138117
1184046 -1.0007134567193585 0.07535737014866233
1184290 -1.0001716919651964 0.07481010852577157
1184535 -0.9991995678101616 0.07540164575622421
1184779 -0.9999647887438066 0.07533469365876667
1185023 -1.0007363703481809 0.07562380981331963
1185268 -0.9996717523098574 0.07561659054648513
1185512 -1.000552591629454 0.07585715236937957
1185756 -0.9998536066359107 0.07512669458521594
1186001 -1.0012684029359529 0.07549518440433856
1186245 -0.9997047061391592 0.07602898140175053
1186489 -0.9991933263578765 0.0761461900076315
1186734 -0.9996122626603726 0.07579565498299272
1186978 -1.0004980326169568 0.07589100728706012
1187222 -0.9999408938186863 0.0759543627194153
1187467 -0.9998382461767574 0.07565877027229598
1187711 -1.000880515209297 0.07638003247780212
1187955 -1.0008045564285053 0.07571245348753008
1188200 -1.0003720759349366 0.07535389868333661
1188444 -0.999341674055054 0.0761912317808248
1188688 -1.0012563338536822 0.07593245156018422
1188933 -1.0004955962336621 0.0749280393178016
1189177 -0.9991972478545099 0.07558942348979629
1189421 -1.0006653197809903 0.0763848739074936
1189666 -1.0004249253167259 0.07593112418557303
1189910 -1.0001835537178851 0.07537145268184181
1190154 -0.9998015246322105 0.07563109823196934
1190399 -1.0000418497815586 0.07584529312393659
1190643 -1.0011455574495625 0.07620592354921527
1190887 -0.9992503055176322 0.07600088294252386
1191132 -0.9996157607264712 0.07570449690663487
1191376 -1.0001679698804513 0.07590589325162483
1191620 -1.0006654943966762 0.07558806900333044
1191865 -1.000108691033474 0.07654451085072433
1192109 -1.0001397073677154 0.0759317734014677
1192353 -0.9999694546163309 0.07687527428615289
1192598 -1.0000295111099686 0.0753485694876638
1192842 -0.9995239751258108 0.07539505977793406
1193086 -0.9993974844008255 0.07603185740710501
1193331 -1.0004318826487504 0.07638579881242928
1193575 -1.001927709724696 0.07614876800817248
1193819 -1.002836008996198 0.07679700187145923
1194064 -0.9996967727466711 0.07627403973662426
1194308 -0.9998391522928497 0.07688574116827568
1194552 -1.000181047451692 0.07634146177820504
1194797 -1.0006724631412618 0.07601313238544341
1195041 -1.0008350975669227 0.0762122328377898
1195285 -1.000276935226149 0.0762296729395607
1195530 -0.9994064161803787 0.07591354867934114
1195774 -1.0005106306399747 0.07619990524637964
1196018 -0.9999074775920974 0.07648082979790535
1196263 -1.000141748782374 0.076136588681732
1196507 -0.9995220102288362 0.0755698588879024
1196751 -0.997656036897429 0.07573239202085097
1196996 -1.0004157442606372 0.07538305519046189
1197240 -1.001182180838716 0.07672236351196225
1197484 -0.9994071092338968 0.07652281517986965
1197729 -0.9995039769510343 0.07507369991982504
1197973 -0.9959180445846102 0.07430116726443238
1198217 -1.00227772773039 0.07722235655041476
1198462 -1.0017057988367524 0.07596673295971154
1198706 -1.0007698649879506 0.07625572006605078
1198950 -0.9861259420992482 0.07178609238803463
1199195 -0.9913207170671844 0.07429536202642426
1199439 -1.0021187731076675 0.07705048827188767
1199683 -0.9996435744743015 0.07628271300364826
1199928 -0.9989071439481245 0.07638910265296378
1200172 -1.005590157296507 0.07721518450534023
1200416 -0.9990348932401375 0.07679493629747397
1200661 -1.0015202382233557 0.0769943991285778
1200905 -0.9963796480892324 0.07592037658074167
1201149 -1.0064807012109878 0.0785632765515296
1201394 -0.9993517809448977 0.07647762394038046
1201638 -0.9990115559359506 0.07654694359931327
1201882 -1.0013009421507657 0.07704578257905147
1202127 -1.0026675152316253 0.07767993253355959
1202371 -1.0003924920472318 0.0768808620597398
1202615 -1.0008745478454066 0.07675512794936322
1202860 -1.0009426960426648 0.07690008203657071
1203104 -1.0013986291977994 0.07706767156193786
1203348 -0.9999200829148309 0.0769889222509494
1203593 -1.000312616152514 0.0766657299694772
1203837 -1.0002339273992784 0.07701313237886108
1204081 -1.0003141663148127 0.07687968961297724
1204326 -0.9995420420737066 0.07604228563535256
1204570 -1.0000666783860084 0.07694736277619404
1204814 -0.9999211983778974 0.07771428201866035
1205059 -0.9993839410419267 0.07626842116169019
1205303 -0.9963795797450002 0.07579648015438341
1205547 -1.0006506873448306 0.07739422134412348
1205792 -1.0002572641411713 0.07651182027508283
1205792 -1.0001495403381073 0.0766722907158332
1206041 -0.9988106567573793 0.07691179143688874
1206290 -0.9996640598760682 0.0765296185742
1206540 -1.0003083697141764 0.07651281011544558
1206789 -1.0003796811932935 0.07705858587901884
1207038 -0.9999398065678368 0.07733061216404331
1207288 -1.0011661483616454 0.07636876961205248
1207537 -1.000401470157277 0.07638127160411688
1207787 -0.9999566626891415 0.07677797458446207
1208036 -1.0003476587136888 0.07737240405393177
1208285 -1.0001247882766477 0.07643981902765436
1208535 -0.9997061261232257 0.07679850306744794
1208784 -0.9994515247898001 0.07735307435097799
1209034 -1.0003935097039438 0.07783708428749515
1209283 -1.0007128761372635 0.07728035252263954
1209532 -0.9997574498347748 0.07712125731988645
1209782 -0.9996425625644454 0.07766410421185657
1210031 -1.0002028267225505 0.07736605712309359
1210281 -1.0000296298294509 0.07669317189991891
1210530 -1.0009329170479055 0.07786585144557784
1210779 -1.000220273424096 0.07761096820812702
1211029 -1.0003760516468987 0.0767010572897817
1211278 -0.9999061285807364 0.07685453727431264
1211527 -0.9999640513848247 0.07762548691794637
1211777 -1.0004073311672828 0.07699826144084417
1212026 -0.9998598304925975 0.07683461036436973
1212276 -0.9998692467559641 0.07684156215122617
1212525 -1.000185072304721 0.0771341529178206
1212774 -1.000571515455626 0.07775594262931652
1213024 -0.9999873026348088 0.07746447132795584
1213273 -0.9999834685409397 0.07718593940560876
1213523 -0.9995110296658144 0.07765998035699888
1213772 -1.0005570468609417 0.07725942750630807
1214021 -1.0004594868774972 0.0769256746672473
1214271 -0.9999574318408956 0.07694073376046545
1214520 -0.9998281359198836 0.07765993117160808
1214770 -1.0006392686637036 0.07666912791218625
1215019 -0.9995856921161382 0.0763580689271841
1215268 -0.9990763434961488 0.07733640865117494
1215518 -1.0005112338025395 0.07784483558958995
1215767 -0.999310178419267 0.07712303015779144
1216016 -0.9997922761255904 0.0773531651210084
1216266 -0.9993126007775889 0.07804956800027035
1216515 -1.0002985528609052 0.07889056253060293
1216765 -0.9995365209339446 0.07738310148229172
1217014 -1.0000936643586478 0.07820100841011479
1217263 -0.9991252347850864 0.07772274913986173
1217513 -1.00090066626879 0.07824724112378256
1217762 -1.0006974506006618 0.07736317859852597
1218012 -1.0003910662046127 0.07751765732972184
1218261 -0.9997637595549278 0.07808284431657342
1218510 -1.0008209368889265 0.07753970751150058
1218760 -1.0000544387265204 0.07741455267406182
1219009 -1.0001683086525013 0.0774108947830467
1219259 -0.9999514391329403 0.0784096212112938
1219508 -0.9995698055539594 0.07695394530070124
1219757 -1.0000230591862556 0.07793909884743683
1220007 -1.0000229944607324 0.07798069460642203
1220256 -1.0003442449158237 0.07774440635176393
1220506 -0.9999188455809676 0.07732039960451417
1220755 -0.9995285356205639 0.07763766187799662
1221004 -0.999821954229454 0.07803009039358581
1221254 -1.0003610363484747 0.07812586268035615
1221503 -0.9999663295086494 0.07763520907185707
1221752 -1.000351422653091 0.07723097229648183
1222002 -0.9993618646068723 0.07811298849731718
1222251 -1.000445400565636 0.07753482890499565
1222501 -0.9996215922781209 0.07684354218957035
1222750 -0.9999552625649645 0.07825751590293403
1222999 -1.0001455815410671 0.07794249432383063
1223249 -0.999922540590404 0.07791304533011748
1223498 -0.9991734207712428 0.07777954831385182
1223748 -0.9994402245386053 0.07841012929169203
1223997 -0.9997153825856381 0.07889691243993185
1224246 -1.0002394984749954 0.0786031565318507
1224496 -0.9999325560197818 0.07826700837054347
1224745 -0.999612554451357 0.07831534527677282
1224995 -1.0005521114008407 0.0789000416039276
1225244 -1.0002443180764453 0.07792976544430716
1225493 -0.999844488703923 0.07826315598034987
1225743 -0.9994745196737549 0.07857578700242479
1225992 -1.000484552472501 0.0781090621083659
1226241 -1.0001463858495612 0.0781883092007885
1226491 -0.9999707886127451 0.07763398292856247
1226740 -0.9999971818899512 0.07829430328586742
1226990 -0.9998050974824205 0.0774460320022473
1227239 -0.9996336614821153 0.07773293891249482
1227488 -0.9996161120868019 0.07780550065450416
1227738 -0.999864261812129 0.07896868806448072
1227987 -1.0001269174161336 0.07783335548847652
1228237 -0.9999461429540035 0.07823100296469666
1228486 -0.9998244139315547 0.07867355953598225
1228735 -1.0005353429945143 0.07849741599689104
1228985 -1.0001051213204764 0.07845778719831872
1229234 -0.9997296412117187 0.07785373993486412
1229484 -0.9998238738799515 0.07871135881088136
1229733 -1.0005931424537402 0.07875541423530846
1229982 -0.9999843295853312 0.07749185832688837
1230232 -1.000357337303851 0.0784486663225508
1230481 -0.9991816985879258 0.07865222220613902
1230731 -0.9993141971182784 0.07845065669256578
1230731 -0.9999160843978847 0.07850583470491014
1230985 -0.9996257234891737 0.07865355577742339
1231240 -1.0003035008947416 0.07789882164806229
1231494 -0.9997418365458706 0.07885486650744604
1231749 -1.0001436989968726 0.07837574179504923
1232003 -1.0002222256086846 0.0790507819492452
1232258 -1.0001068918759433 0.07837963407838755
1232512 -1.000114216943123 0.07834750238499853
1232767 -1.0005375464284412 0.07852457666735024
1233021 -1.0000946114597618 0.07855271124077899
1233276 -0.9995112301965902 0.07826673736202998
1233531 -1.000226165771975 0.07773316878945027
1233785 -0.9997194487175475 0.07842410431206448
1234040 -0.9996828710251532 0.07901240368105955
1234294 -0.9998078373584447 0.0786555729542531
1234549 -1.0000035594243473 0.07916297225034391
1234803 -0.9999929529880615 0.07952726776856224
1235058 -0.9996820220506684 0.0793132124892422
1235312 -1.0001821743729415 0.07888836270959222
1235567 -0.9998901152999186 0.07870657187707353
1235822 -0.9998434102677871 0.07881556401146142
1236076 -0.9994164577715889 0.07850454829033861
1236331 -0.999852241513368 0.07807394621916972
1236585 -1.000008331205007 0.07935969168853314
1236840 -1.0000974055619034 0.0787965873066375
1237094 -0.9999066485891283 0.07854387810529218
1237349 -0.9999629423528305 0.07852903071829685
1237603 -0.9995292662415425 0.07921220838697925
1237858 -0.9998595156699284 0.07899153850881598
1238112 -0.9992044301658308 0.07838910283290186
1238367 -0.9994196647018138 0.07876182119775309
1238622 -1.0001195959603912 0.07993517140928266
1238876 -0.9995803233585557 0.07905129984911717
1239131 -0.9997851618730779 0.0786310250392491
1239385 -0.9996925323964235 0.07941144586415383
1239640 -1.0004056434238222 0.07971868162063196
1239894 -0.9998616577534347 0.07873399762191381
1240149 -1.0002818148933037 0.07813663626959977
1240403 -1.0005216214207735 0.07900101728191236
1240658 -0.9995756992947608 0.0790083034685888
1240913 -1.0000691057798208 0.07855487070572535
1241167 -0.9997651606697633 0.07868475841372344
1241422 -0.9994750858007119 0.07909672402752607
1241676 -0.9996343528929166 0.07883864335134093
1241931 -0.9998428165462581 0.07881861694047382
1242185 -0.9992673652990124 0.07933412012033822
1242440 -1.000049988127687 0.0794663406759347
1242694 -1.0002100608842217 0.080218396755292
1242949 -1.0001820635727132 0.07915325075177523
1243203 -0.999499542439593 0.07905707787394764
1243458 -0.9993923708714206 0.07962196071515336
1243713 -1.000704608869084 0.08011310353173058
1243967 -0.9997888115972385 0.07887833120868977
1244222 -1.0003036529951204 0.07905347865649953
1244476 -0.9991759964679966 0.07933065466247807
1244731 -0.9999269296360246 0.07871724462807897
1244985 -0.9992089704778964 0.07871152971932611
1245240 -0.9997651292297068 0.0790286541692685
1245494 -0.9996498272791738 0.07968054341573334
1245749 -1.0002979308107576 0.07911591521520353
1246004 -0.9996824708817609 0.07885191376894202
1246258 -0.9993805976176391 0.07976212612019076
1246513 -1.0003573173002844 0.07983708725913084
1246767 -0.999820014400541 0.07905583172290147
1247022 -1.0000650921174712 0.07968369074164014
1247276 -0.9994920661576642 0.08032969361498223
1247531 -1.0003125859277389 0.07934353523168847
1247785 -0.9998299459407451 0.07931548901935306
1248040 -1.0003563409701632 0.07922162210302792
1248294 -1.0003787076288682 0.07943038034822071
1248549 -1.0001011052134985 0.07901982246076547
1248804 -0.9996698106986652 0.07885971813080317
1249058 -0.998971970619615 0.07952283193506533
1249313 -0.9993022148046731 0.07904499429545211
1249567 -0.9995473831619596 0.0792905474741764
1249822 -0.9996174855377133 0.0792187479333888
1250076 -0.9994113558900151 0.08003629957801592
1250331 -0.9997607999983278 0.07936682780387828
1250585 -0.9990356176168399 0.07981577780949102
1250840 -1.000052350206446 0.0793515603179736
1251095 -0.9996788409626097 0.08043164931038009
1251349 -0.9999472468157182 0.0797100510246383
1251604 -0.9998147541279696 0.07910336050966163
1251858 -0.9996106709788519 0.07987129574159788
1252113 -1.0005726809744309 0.07971482521195847
1252367 -0.9998824223911951 0.07986940645852647
1252622 -1.000027506613791 0.0790876946847252
1252876 -0.999190603724352 0.07947469113788612
1253131 -0.9993582561718163 0.07948008027340478
1253385 -0.9996390055135626 0.07952125809259042
1253640 -0.9992917557400546 0.0797971272851058
1253895 -0.9998603758688045 0.0804733540777919
1254149 -0.9994094538091003 0.07965880002273759
1254404 -0.9997071723916039 0.07944593188883899
1254658 -0.9997170503672056 0.08009004312172249
1254913 -1.0007364794411746 0.0803833305700052
1255167 -1.0002078974776434 0.0799809487599022
1255422 -1.0000751318764398 0.07946169044124811
1255676 -1.0002178151651726 0.08023447368177643
1255931 -1.0001490492759666 0.08082315698813938
1256186 -0.9999417531502257 0.07996272694832157
1256186 -1.0004338753926352 0.0801050980123395
1256445 -0.9995419443205074 0.08039522482422116
1256705 -0.9993471956720823 0.08009989535063046
1256965 -0.9994772892324173 0.0799380576860393
1257225 -0.9990279078074275 0.0808441023727852
1257485 -0.9997111041926823 0.07987620020441268
1257744 -0.9995676481421333 0.08004972785685026
1258004 -0.9997038186207357 0.08052678343968683
1258264 -1.0002031359852424 0.0803363220888708
1258524 -1.0000110467367611 0.08048554293813343
1258784 -0.9998357428094954 0.07995624091926858
1259044 -0.9995639695966685 0.08059784923191424
1259303 -0.9999424254108483 0.07999872776981135
1259563 -1.0003151571521687 0.0797980311046341
1259823 -1.000036244910502 0.0796949776224993
1260083 -0.9990573319917861 0.08095674265237733
1260343 -0.9994822856344161 0.08014333287915791
1260602 -0.99946262952853 0.08023003929254398
1260862 -0.9990822535229233 0.08056028088772325
1261122 -0.9999075690973539 0.08111131600610713
1261382 -0.9996128596684908 0.08084035278843472
1261642 -1.0000626924819827 0.07955904776508203
1261902 -0.999516634650998 0.0804546140147735
1262161 -1.000264458958744 0.08154124013962992
1262421 -1.0001163803226072 0.08055118948645083
1262681 -1.0000042095219888 0.08004457800412504
1262941 -1.0000509467001855 0.08095940911412465
1263201 -0.9999861601877388 0.07992450240390839
1263460 -0.9998960835810162 0.08020428047844794
1263720 -0.9990817858740465 0.0803528254709389
1263980 -0.9999628355011544 0.08028650107186465
1264240 -0.9993147410689456 0.08073926996311652
1264500 -0.9993113244359261 0.08017228575355691
1264760 -0.9991675244236169 0.08080366485857668
1265019 -1.000227326002153 0.08018005334940426
1265279 -0.999943519929232 0.08041175583600965
1265539 -0.9992183855389697 0.0806413105377333
1265799 -0.999878377721219 0.08138864403415726
1266059 -1.0009344958893749 0.08019693757552215
1266318 -0.9997829476484057 0.08089207580553698
1266578 -0.9995062734067087 0.08084720424403523
1266838 -1.0002109542585218 0.08089070037272456
1267098 -0.9995373610261775 0.08044100916056071
1267358 -0.9996933870659889 0.08052464429673839
1267618 -0.9988056157830575 0.08107372430897386
1267877 -0.9999315402776964 0.08056861626080362
1268137 -0.9993703631256682 0.08044195806490295
1268397 -0.9990190308844775 0.08149849313865298
1268657 -0.9995633537461002 0.08144386450733142
1268917 -1.0000851316818502 0.08146277340939227
1269177 -0.9998636086947149 0.08068652584370867
1269436 -0.9997791935150412 0.08159417731849782
1269696 -0.9997653183215335 0.08109828115218184
1269956 -0.9997819243154781 0.08071089219121734
1270216 -0.9997330200271304 0.08071585041346833
1270476 -0.999526005057195 0.08087846271059816
1270735 -0.9993227915131279 0.08067523335135855
1270995 -0.9993594887402107 0.08071816802303683
1271255 -0.9990932866923523 0.08090263281144473
1271515 -0.9994281866451042 0.08065362026957355
1271775 -0.9994953489212408 0.08050888641296011
1272035 -0.9989652626522653 0.08146000423527162
1272294 -1.0003159942022726 0.08170099575075371
1272554 -0.9996298709476172 0.08127491739100585
1272814 -0.9995919967018205 0.08072234399990692
1273074 -0.9994589212353829 0.08093614500580039
1273334 -1.000282435676648 0.0815709565290576
1273593 -1.0003757960899498 0.0812666263340431
1273853 -0.9998465720890632 0.08075323833027966
1274113 -0.9998242236270527 0.0813954927217494
1274373 -0.9998651677474163 0.08123940682948717
1274633 -0.9981862913755782 0.08076624046623429
1274893 -0.999406330028051 0.08071470030155878
1275152 -0.9987091823233295 0.08207324580409718
1275412 -0.999221619497096 0.08103197138174185
1275672 -1.0011869114180767 0.0817831329043709
1275932 -0.9991274358807455 0.08120436253677543
1276192 -0.9998399149145989 0.08144951454074577
1276451 -0.9996098760680112 0.0816390280271489
1276711 -0.9991444291561499 0.08101096899247724
1276971 -1.0003615963031778 0.08154525218692962
1277231 -1.0005061371450996 0.08132649917037303
1277491 -0.9998614752578185 0.08093681157782427
1277751 -1.0001747267319496 0.08121327436116317
1278010 -0.9999007492314922 0.08157075122185695
1278270 -0.9990535199846345 0.08133117122460486
1278530 -0.9996071206457879 0.08051852410929894
1278790 -0.9993971383636735 0.08169095990163129
1279050 -0.999243950353477 0.08127266626352661
1279309 -0.9993801329650113 0.08126951766959917
1279569 -0.9993194748902188 0.08122398642579375
1279829 -0.999529338273678 0.08249288786963256
1280089 -0.9995802269413611 0.08210052787727003
1280349 -0.99971000931064 0.0811102744434234
1280609 -0.9996661545211181 0.08151675747522721
1280868 -0.999847158953927 0.08203239056512664
1281128 -1.000043142769599 0.0813675346136237
1281388 -1.000037835856734 0.08085226200051265
1281648 -0.9995104019718551 0.08125528426467474
1281908 -0.9998637025246039 0.08230051895106599
1282168 -0.9997449441338707 0.08095426939124942
1282168 -0.9990883666647169 0.08113978218412281
1282433 -0.9990283165627389 0.08223661097605604
1282698 -0.9997211942374125 0.08152933281514517
1282963 -0.9992803471853082 0.08188735497965297
1283228 -0.9989032531418583 0.08202597811203473
1283493 -0.9995180388218946 0.08237875393678866
1283759 -0.9996379083132745 0.08186806623789018
1284024 -0.9990766938846793 0.08197094406002162
1284289 -0.9994975702520936 0.0820953224859358
1284554 -1.0002850878006757 0.08177031171973052
1284819 -0.9995615246110564 0.08163265178565941
1285084 -0.9997511918801453 0.08197331982621615
1285350 -1.0000008181868265 0.08141174809733032
1285615 -0.9999455677984385 0.08163137888291058
1285880 -0.9992112857859025 0.08116042016992492
1286145 -0.9992499488009814 0.08174863507639714
1286410 -1.000710925211383 0.08166564961053731
1286676 -0.9995205099980604 0.08222680247605677
1286941 -0.9986845984065309 0.08196520867391768
1287206 -0.9995451261033559 0.08238564321556742
1287471 -1.0001769995530938 0.08168423419476568
1287736 -0.9996267291941605 0.08198291815814462
1288001 -0.9995968845883417 0.0823973061610606
1288267 -1.0005246706020237 0.08162925789156147
1288532 -1.0001565747809655 0.0824270992801198
1288797 -0.9988953670289882 0.08216710214599715
1289062 -0.9998156562000644 0.08189734619172796
1289327 -1.0007346861494366 0.0817584850447515
1289593 -0.9993485089423982 0.08127881243148356
1289858 -0.9989915611427 0.08203573095169621
1290123 -0.9999043331916493 0.08215098980470577
1290388 -0.9996264335544924 0.08214695698567888
1290653 -0.9991055582676195 0.08191995489442368
1290918 -0.9991992697980415 0.0823806222775649
1291184 -1.0008600985120462 0.0826157116548612
1291449 -0.9993911643541836 0.08262971318048619
1291714 -0.9997484099775856 0.08293447988290438
1291979 -1.0008466952948303 0.0825316233493481
1292244 -1.0004493486806414 0.08187023659395595
1292510 -0.9989756297156964 0.08214089931442868
1292775 -0.9995476050539095 0.08255976396716176
1293040 -1.0005098464809865 0.08236191399427849
1293305 -1.0001955170084615 0.0822374216628989
1293570 -0.9991625369432221 0.08253834950774253
1293835 -0.99977823389965 0.08327051628385387
1294101 -1.0002180987281453 0.08109565754648303
1294366 -0.9984519056951177 0.08274913820583076
1294631 -0.9998655983060514 0.08267659298781575
1294896 -1.000532470125836 0.08254642618814008
1295161 -0.9992101388489201 0.08265863261434271
1295427 -0.9991042029198111 0.08269288440432104
1295692 -1.0004414591948636 0.08294691867274506
1295957 -1.0001799856394187 0.08173324065585877
1296222 -0.99873850390203 0.0823575220585853
1296487 -0.9990845921092985 0.08277298886852627
1296752 -1.0001322396766243 0.0827310559439709
1297018 -0.9987595052744475 0.0823077527784514
1297283 -0.9994298930100869 0.08188886318946396
1297548 -0.9994034415064948 0.08266912458369982
1297813 -0.9995858717591819 0.08270059217005411
1298078 -0.99869511723361 0.08272241704422639
1298343 -0.9988138247825508 0.08354762231196121
1298609 -0.999779994734627 0.08242281467229384
1298874 -0.9992456586989384 0.08322403469613754
1299139 -0.998898875839544 0.08273925503100621
1299404 -0.9994430972654359 0.08290865693176373
1299669 -0.9988254944294741 0.08246636336015106
1299935 -0.9990678844618528 0.08292564558499657
1300200 -0.9997954227633641 0.08280134473669105
1300465 -1.0000751964701051 0.08274751080213985
1300730 -0.9997508103324824 0.08262985646578003
1300995 -0.9991566815167231 0.08241757954200385
1301260 -0.9994551249250611 0.08265651651118908
1301526 -0.9997707040235936 0.08267096915986716
1301791 -0.9987927636184097 0.08277295473131963
1302056 -0.9990770563241869 0.08291742676602853
1302321 -0.9998435940369614 0.08251998209722652
1302586 -0.9994431453545677 0.08308277952065377
1302852 -0.9990002598452409 0.0831840638886352
1303117 -1.0002391031172315 0.08312017337960659
1303382 -1.0001436413410534 0.08317231697940168
1303647 -0.9995166589980908 0.083186813841139
1303912 -0.9992952236350694 0.08325126769089122
1304177 -1.0002513024858763 0.0830007333793615
1304443 -0.9993395726765346 0.08290881045671739
1304708 -0.9987158889767879 0.08313558806786354
1304973 -0.9990894640480111 0.08323924827097699
1305238 -1.0001134360974144 0.08303124075564086
1305503 -0.9992884944293536 0.08328844709270705
1305769 -0.9993712330967303 0.08389622609630917
1306034 -1.0003564576589852 0.08342735979540984
1306299 -0.9996985605694706 0.08323641583795262
1306564 -0.999034893894515 0.0835991957747441
1306829 -0.99973316951013 0.0838502549959925
1307094 -1.0004015166477143 0.0826545857137981
1307360 -0.9994624631628204 0.08304341644301108
1307625 -0.999526665776116 0.08332526455123494
1307890 -1.000696182303454 0.08376707282181803
1308155 -0.9997220362068442 0.08277692143933099
1308420 -0.998368714223312 0.08335958995464753
1308686 -0.9993095282791977 0.08326500674239891
1308686 -0.9989301351925985 0.08344967366323458
1308956 -1.0002214011050918 0.08346601587428353
1309227 -0.9994498709360953 0.0833506168603196
1309498 -0.9994445037447887 0.08306134966280264
1309768 -0.999567877849361 0.08398383574036405
1310039 -1.0002004651929046 0.08310330990227245
1310310 -0.9987506525040317 0.08348164190618708
1310580 -0.9990075562947917 0.08341958443565038
1310851 -0.9998689197880136 0.08390607898686787
1311122 -1.0001822314531488 0.0825909040509587
1311392 -0.9990148182461498 0.08314597962412398
1311663 -0.9996442058046102 0.08392765089036533
1311934 -1.0000718778242275 0.08300393881882914
1312204 -0.998470244723848 0.08286204865356371
1312475 -0.9976550299498884 0.08366197452398268
1312746 -1.0003646860070081 0.08353475786112438
1313016 -0.9987562283229077 0.08323788905242542
1313287 -0.998987264331749 0.08345056670020747
1313558 -1.000186064697716 0.08428602706844292
1313828 -0.9996155707442972 0.08428785601352892
1314099 -0.9994392341101 0.08362114161631942
1314370 -0.9991359844345786 0.0843467059540001
1314640 -1.000646241462282 0.0842392551671391
1314911 -0.999083802770537 0.08345832622846866
1315182 -0.9992739044690003 0.08393461109850658
1315452 -0.9999222500038824 0.08426697512676251
1315723 -1.0002400896909003 0.0833104987727659
1315994 -0.9994718412561593 0.08358071373565343
1316264 -0.9990931278215263 0.08433847693116547
1316535 -0.999883537917603 0.08376763315587889
1316806 -0.9993288720361017 0.08352158174157456
1317076 -0.9986747313870603 0.0844126334599322
1317347 -0.9999518330979172 0.08374088165528791
1317618 -0.9995949395734304 0.08428198335709895
1317888 -0.9988365306419135 0.08383589031846496
1318159 -0.9996284171141291 0.08435441079354146
1318430 -0.9999801759363919 0.08356044224743149
1318700 -0.9995589165935365 0.08347769986825078
1318971 -0.9987812646914034 0.08418526913740557
1319242 -1.000006358434927 0.08400142718056272
1319512 -0.9995104024791068 0.0832946594289104
1319783 -0.9990470301149514 0.08427055189613349
1320054 -1.000157284916112 0.08479887860014008
1320324 -0.9993783379735918 0.08390891396457155
1320595 -0.9990776931101714 0.08395968643537574
1320866 -0.998856718813681 0.08422070988514772
1321136 -0.9998480008109697 0.0843033054618409
1321407 -0.9989118680664174 0.08403819766964715
1321678 -0.999717803741757 0.08365217690346609
1321948 -0.9998412027407523 0.08438977058077805
1322219 -0.998967939036315 0.08379666673760101
1322490 -0.9991431494327495 0.08401593088909048
1322760 -0.9999982647037168 0.08395526850853689
1323031 -1.0003511807498389 0.08419260443375862
1323302 -0.9992555747567117 0.08452842687862556
1323572 -0.999514465185322 0.08403352568433699
1323843 -0.9996817914425548 0.08439218297404315
1324114 -0.9990011058155785 0.08480097362023425
1324384 -0.9995566782335126 0.08439710691272444
1324655 -0.9996283038963137 0.0844422507473889
1324926 -0.9993672928643055 0.0843715241741715
1325196 -0.9991298012064295 0.08477283454321484
1325467 -0.9992114190031993 0.08417753252458199
1325738 -0.9999145911371703 0.08495033412835379
1326008 -0.9992769722148543 0.08358097501370905
1326279 -0.9990751481122255 0.08445821802274361
1326550 -0.9992396020388868 0.08399460897447811
1326820 -0.9994812542050107 0.08428194917977985
1327091 -0.9990932267535214 0.08450922282840105
1327362 -0.9992435550027063 0.08414255429127464
1327632 -0.9996244734289403 0.08523138315089476
1327903 -0.9989682786250483 0.08496831726330774
1328174 -1.0001891157365204 0.08444615183793007
1328444 -0.9993280775944462 0.08407829591491754
1328715 -0.999562470207938 0.08469096078150683
1328986 -0.9994155572951386 0.08471255292815186
1329256 -0.999849928753789 0.08405742924595945
1329527 -0.9998165203350243 0.08548777805160944
1329798 -0.9990079374714499 0.0851566441077314
1330068 -0.9992260269300394 0.08441157829082974
1330339 -0.9984881359109424 0.08447425643338495
1330610 -0.9990363006903366 0.08478795457261956
1330880 -0.999613020119279 0.08450415264625118
1331151 -0.9992393283303443 0.0839018835144592
1331422 -0.9994823852079133 0.08470061396047988
1331692 -0.9988663542685053 0.08526851031649604
1331963 -0.9995960505174853 0.08381718833640081
1332234 -0.9989277329984999 0.08516521451592969
1332504 -0.9993877707980869 0.08539637031288497
1332775 -0.9990720922900643 0.08480098515948394
1333046 -0.9992551560751017 0.08416314352883761
1333316 -0.9990097312880591 0.08507638042817649
1333587 -0.9995182365249791 0.08487708095649342
1333858 -0.9992077300879932 0.08407234293470227
1334128 -0.9987868475722337 0.08423857879641215
1334399 -0.9995884853523878 0.0851351047678685
1334670 -0.9986484103216284 0.08490091803642569
1334940 -0.9988470882181509 0.08514030628476195
1335211 -0.9994094130950592 0.08477149058975178
1335482 -1.0006260910954605 0.08451664944996888
1335753 -0.99994574631531 0.08483122794644252
1335753 -0.9991309493939006 0.08529349504438102
1336029 -0.9996695688936984 0.08568635058243596
1336305 -0.9994659056354301 0.08452921156037804
1336581 -0.9996274639355758 0.08491082143806358
1336858 -0.9996486612953129 0.085652883224413
1337134 -0.9993781120482959 0.08444368160422853
1337410 -0.9989714311493006 0.08483259791413617
1337686 -0.9997370290035096 0.08526367236173633
1337963 -0.9988225670725821 0.08450203455810402
1338239 -0.9994712714529691 0.08445148553802273
1338515 -0.9995365896705982 0.08488233437002661
1338791 -0.9987885037915056 0.08514667811236239
1339068 -0.9990058937027042 0.0847658342485225
1339344 -0.9984863162783932 0.0856693868941834
1339620 -0.997863455119842 0.08554056370774106
1339897 -0.9990516592648773 0.08581793060121337
1340173 -0.999596220366444 0.0853947189554054
1340449 -0.9990781410857624 0.0861950014393306
1340725 -0.9983404153974328 0.08562346382406122
1341002 -0.9997066279751975 0.0847527980213255
1341278 -0.9995713162102965 0.08520673002163431
1341554 -0.9996943209186432 0.08536770913793669
1341830 -0.9994143714993435 0.08473495635834025
1342107 -0.9986469663213241 0.08493667470867268
1342383 -0.9994946189501293 0.08541219221102804
1342659 -0.9983069457979517 0.0852216505271329
1342936 -0.9987229263372644 0.08541449056477868
1343212 -0.999498590344269 0.08594313780671915
1343488 -0.9996705531549637 0.08591209653553077
1343764 -1.0010912723742686 0.08526152648114747
1344041 -0.9990008207518979 0.08536018965853115
1344317 -0.9998821255867356 0.0857501658313011
1344593 -1.000826938727794 0.08619846934266293
1344869 -1.0009750232256462 0.08621069899772563
1345146 -0.9990257055518946 0.08587207198782836
1345422 -0.999173429900878 0.08554027110682448
1345698 -0.9991541188782577 0.08485415552424766
1345974 -0.9997947590288907 0.08586529862804655
1346251 -0.9994053040217818 0.08569041892434773
1346527 -0.999519955335322 0.08533313867546087
1346803 -0.9963016609859537 0.08567604791924079
1347080 -1.0003763154591712 0.0869281138126677
1347356 -0.9984363935680767 0.08536465488540836
1347632 -0.9976952486097983 0.08530049351195713
1347908 -1.0072401040366314 0.08855675274097102
1348185 -1.0005086958247753 0.08641218012837572
1348461 -1.0007426243398014 0.08552596058874738
1348737 -1.001952370969012 0.08589590820876768
1349013 -1.00646396754611 0.08639092727936451
1349290 -1.0001351165948202 0.08584113623757227
1349566 -1.000149983981463 0.08593857357138822
1349842 -0.9976914787923616 0.08479728715747234
1350119 -1.009470386580194 0.0874063415599977
1350395 -1.0009493651720376 0.08577888276463781
1350671 -1.0017008626889685 0.08652342881563604
1350947 -0.9926872919167156 0.0841467357069036
1351224 -1.0017593423858129 0.08783941780730604
1351500 -0.9957074215050188 0.08535794394220368
1351776 -0.9993213655470108 0.08657788818515609
1352052 -1.0001059524538551 0.08516761450138782
1352329 -0.9987012945622895 0.08522090499252016
1352605 -0.998338206114952 0.08617571784240119
1352881 -0.9988339064246954 0.08635259832325186
1353158 -0.9993911287444941 0.08616249792911759
1353434 -0.9984703624132594 0.08547125533182173
1353710 -0.9985329329661444 0.08643289716804331
1353986 -0.9989446768551987 0.08593273518939808
1354263 -0.9994355741383791 0.0857034831933793
1354539 -0.999393760079099 0.08650831961539919
1354815 -0.9990283381916449 0.08655854054133089
1355091 -0.9984612788686789 0.08537584965254875
1355368 -0.9999515644487638 0.08639599593808521
1355644 -0.9992826011984056 0.08673332158133264
1355920 -0.9993222716856797 0.08625839351887678
1356196 -0.9978055908309388 0.08636727618612408
1356473 -1.000320032822131 0.0862790838967998
1356749 -0.9983435386010588 0.08630420113181739
1357025 -0.9991489190132798 0.08552518968636412
1357302 -0.9999471045331332 0.08682886341274888
1357578 -0.9990072831570334 0.08663758388381845
1357854 -0.9992314656035097 0.08628589360116369
1358130 -0.9989872726077462 0.0858508333261141
1358407 -0.9993727935855741 0.0868134769901441
1358683 -0.9993966037672791 0.08651481883506476
1358959 -0.9990763267051145 0.08575398005767741
1359235 -0.9991753514632319 0.08677801175975661
1359512 -1.0000536097877386 0.08703446830917144
1359788 -1.0000937935493022 0.08575941358978274
1360064 -0.9995638377990409 0.08625005980675807
1360341 -0.9998643061420267 0.0870624057483094
1360617 -0.9983982548127586 0.08593740448160446
1360893 -0.9986641539429272 0.08592839413084964
1361169 -0.9985345190171534 0.08669097350491536
1361446 -0.9994092328706379 0.08667716343186206
1361722 -0.9991384209224198 0.0867665205524664
1361998 -0.99909849489557 0.08702124103000178
1362274 -0.999044346744073 0.087514737895779
1362551 -0.9996389194398717 0.086856548015347
1362827 -0.9983080520507421 0.08717199080340121
1363103 -0.9993337721825475 0.0873836909274725
1363380 -0.9997196810280592 0.08663039700933685
1363380 -0.9993121671533726 0.08673470072915725
1363661 -1.0008836411055888 0.08707592268949585
1363943 -0.9997430129561614 0.0870572291483457
1364225 -0.9989872635817392 0.08694749000054894
1364507 -0.9997341369429654 0.08681342040037018
1364789 -0.9986228341616112 0.08725772622597369
1365071 -0.9991305692448941 0.08650401436727907
1365353 -0.9987093228339874 0.08639883253210079
1365635 -0.9997227448850768 0.08747819795654867
1365917 -0.9989110122684312 0.08778596314806911
1366199 -0.9989224836537861 0.08707402399306927
1366481 -0.9994263539659203 0.08728220975792489
1366763 -0.998906041451307 0.08708527810370997
1367045 -0.9990886872223191 0.08675943018045448
1367327 -0.9997857677312734 0.08690558374479546
1367609 -0.9986392035975318 0.08708647398299924
1367891 -0.999110719205636 0.08679773225788885
1368173 -0.9987417082802611 0.08639633708149158
1368455 -0.9985280323960514 0.08723520781866341
1368737 -0.9986413727096486 0.0874519013611887
1369019 -0.9984124143416736 0.08721195883167339
1369301 -0.9989244837103153 0.08710485272217705
1369583 -0.9981849197107239 0.08780466273443897
1369865 -0.9988049745841519 0.08670066305448641
1370147 -0.9992186120912951 0.0878239033592428
1370429 -0.9988142234960593 0.08780033307906054
1370711 -0.9992195998747887 0.08720178590572082
1370993 -0.998729486537408 0.08631789896532652
1371275 -0.9993593520325135 0.08672059512712643
1371557 -0.9989748362744325 0.08702619887744806
1371839 -0.9991227926474541 0.08707708257112351
1372121 -0.99884540251143 0.08704777377735724
1372403 -0.9986646153458353 0.0875980757023591
1372685 -0.9989557949658017 0.08739557285618191
1372967 -0.9992895917763804 0.08819855377104152
1373249 -0.9991462693053356 0.0879213602558905
1373531 -0.9996108895902392 0.08733720090201344
1373813 -0.9994939413495825 0.0871326062556534
1374095 -0.9992743370781725 0.08736638001604076
1374377 -0.9991253711485303 0.08749888745194481
1374659 -0.9990503908495739 0.08685385191895949
1374941 -0.999389527987642 0.08700049320379596
1375223 -0.998853239615325 0.08765149862018701
1375505 -0.9995234249063556 0.08688188703293043
1375787 -0.9988355945894554 0.08739267848133435
1376069 -0.998530786911556 0.08771712305290452
1376351 -0.9988910305922302 0.08744247876777804
1376633 -0.9985756342743987 0.08710380192497424
1376915 -0.9987309837586348 0.08815776392527097
1377197 -0.9996968816107045 0.08776125923353423
1377479 -0.9995775218869868 0.08775614814572312
1377761 -0.999033998941313 0.08819495225981946
1378043 -0.9989422608034667 0.08882757250220634
1378325 -0.9997409876930744 0.08764486488738957
1378607 -0.9987022416121782 0.08747974816589837
1378889 -0.9992420308654573 0.08847344020785564
1379171 -0.9994437100359657 0.08758211803778317
1379453 -0.9988456032006244 0.08763476069760984
1379735 -0.9988683368798749 0.0883322742329152
1380017 -0.9990436510417042 0.08829307817083863
1380299 -0.9991962613538661 0.08755825291310157
1380581 -0.9991189461745641 0.08832297801249549
1380863 -0.9986202981391534 0.08839777769157849
1381145 -0.9985770682200574 0.0875268068566431
1381427 -0.9986676718687891 0.08787142190704851
1381709 -0.9993312033910237 0.08803859313646711
1381991 -0.9991522606190888 0.08772835916338348
1382273 -0.9989925170391607 0.08776897163385042
1382555 -0.9994823304958227 0.08812023186934187
1382837 -0.9987782090615756 0.08763785205871351
1383119 -0.9990880686692429 0.08731013645915453
1383401 -0.9985318142100298 0.0878269890917163
1383683 -0.9983563022768359 0.08779192520343945
1383965 -0.9990138220758394 0.08727466584677344
1384247 -0.9993638007488523 0.08883707541876498
1384529 -0.9989157944513154 0.08867239457241903
1384811 -0.9993514793970589 0.0878380434371106
1385093 -0.9988351317866858 0.08784139291646284
1385375 -0.9987713110470601 0.08778547488678783
1385657 -0.9989332876573668 0.08801579491216495
1385939 -0.9992101306335104 0.0875596191872784
1386221 -0.9991843809427043 0.08826168716933261
1386503 -0.9990101932140673 0.08858042144687528
1386785 -0.998756471532422 0.08780951601588102
1387067 -0.9987034558781187 0.08810618939109151
1387349 -0.9985548937181832 0.08899662990577353
1387631 -0.9988697807552761 0.08831067115655056
1387913 -0.9992777574480858 0.0882373052487806
1388195 -0.9989613215100113 0.08897034571624067
1388477 -0.9986380223333495 0.08771189677981626
1388759 -0.9989444050724536 0.08832983995747645
1389041 -0.9996548973417921 0.08906062429021587
1389323 -0.9991704044092135 0.08851504834333787
1389605 -0.9995799011044736 0.08784048510786814
1389887 -0.9990050886212339 0.08851265598646596
1390169 -0.9988933984197211 0.08860002226035452
1390451 -0.9994319784749588 0.08833768849393532
1390733 -0.9990096385258607 0.08759056971538218
1391015 -0.9988288969650156 0.08840892303907415
1391297 -0.9983338575636714 0.08798822054743069
1391579 -0.9996205866795338 0.08867993749670046
1391579 -0.9999268973955918 0.0890766448073476
1391866 -0.9981529897325655 0.0887097674040077
1392154 -0.9989194799966045 0.08879406679742584
1392442 -0.9994918421554588 0.08871929433501646
1392730 -0.9991733905199538 0.08848144460268169
1393018 -0.9985662902607172 0.08873532878657063
1393305 -0.9990322138675423 0.08850694811251053
1393593 -0.9998864776500098 0.08823133192726622
1393881 -0.9983712071011792 0.08888939529437453
1394169 -0.9989263011752302 0.08857123926523526
1394457 -0.9994086210510339 0.08845495739830102
1394744 -0.998575721920746 0.08892910069664275
1395032 -0.9989889257247125 0.08874448562204075
1395320 -0.9989818021221211 0.0886718413074711
1395608 -0.9988012140310134 0.0894124927955485
1395896 -0.9989221715216897 0.08928886955044155
1396183 -0.999682408742716 0.08919825508285399
1396471 -0.9988775188583686 0.08935416906642477
1396759 -0.9990329322345081 0.08915585823614218
1397047 -0.9991448743931549 0.08855259873637175
1397335 -0.9998871647164974 0.08862552491559333
1397623 -0.9984927788411787 0.08870852904927322
1397910 -0.9995206120956189 0.08889751564286938
1398198 -0.998746853700526 0.08864715500558133
1398486 -0.9984852724455413 0.08869844870101228
1398774 -0.9992646845106811 0.08873243565052405
1399062 -0.9993686046008312 0.08892529301705647
1399349 -0.9995548987166523 0.08959815056261028
1399637 -0.9991217084075846 0.08972931712391974
1399925 -0.9992521709593482 0.08896801940541993
1400213 -0.9991244961889078 0.08912656223506006
1400501 -0.9987277322329289 0.08894905782434323
1400788 -0.9993844656123504 0.08893829090602777
1401076 -0.9999807121860474 0.08909111618359408
1401364 -0.9988378568190747 0.08956347944364712
1401652 -0.9988240448105424 0.08879136228387206
1401940 -0.9987710587918761 0.0886927542725593
1402227 -0.9980954605629127 0.08908632275420933
1402515 -0.998253147856856 0.08923414025633004
1402803 -0.9989863303518419 0.08910777076040756
1403091 -0.9989735474741361 0.08949846622801193
1403379 -0.9988453674986746 0.08937641985960396
1403667 -0.9985241849873676 0.08948715219182657
1403954 -0.9990784796095883 0.08971591910318696
1404242 -0.9988188455313259 0.08957142438199124
1404530 -0.9996837035519822 0.08936991045598393
1404818 -0.9989797149883114 0.08942454229312331
1405106 -0.9993344058853919 0.08972945808872972
1405393 -0.9987204294726046 0.08919365817904551
1405681 -0.9989709067485812 0.0890530958690705
1405969 -0.9986369420352307 0.08949957409730894
1406257 -0.9979912893598327 0.08974848552439756
1406545 -0.9988146026757019 0.08915610633401476
1406832 -0.9983299341374144 0.08956889984278606
1407120 -0.9983052622623911 0.09033866445063425
1407408 -0.9988251729775094 0.08915198853810266
1407696 -0.9991584754508629 0.08938680711000986
1407984 -0.9984613267885313 0.08992505376719984
1408271 -0.9995954182993316 0.08934047897419693
1408559 -0.9987089308336087 0.08924941257359709
1408847 -0.9984368357255639 0.08930543576514675
1409135 -0.9985507354193526 0.089686799244654
1409423 -0.9986122864024726 0.08922555365154872
1409711 -0.9992275884344572 0.08965172029883217
1409998 -0.9987158171080489 0.09017022358214212
1410286 -0.9988377888198358 0.08948216907018125
1410574 -0.9986519089299256 0.0899013153994018
1410862 -0.9989125614932671 0.09057323932825909
1411150 -0.9993671267775909 0.08950633696138906
1411437 -0.9995083202043223 0.08981510168055314
1411725 -0.9993939897497416 0.09053068881607701
1412013 -0.9989866798723203 0.08965356072562836
1412301 -0.9994547895120733 0.08933070210126094
1412589 -0.9989513874220138 0.08990495501702402
1412876 -0.9986189414505627 0.0898246827686857
1413164 -0.9987004653380154 0.08845201457978595
1413452 -0.9986361804185353 0.0902664136309187
1413740 -0.9984352156108034 0.09018357683939793
1414028 -0.9990495210497586 0.08967618975802374
1414315 -0.998630474691318 0.08953656745885202
1414603 -0.9986355995123687 0.0904060635569246
1414891 -0.9992551491344134 0.08995491191821117
1415179 -0.999053121604685 0.09039964679251612
1415467 -0.9985646363363906 0.09060627865616089
1415755 -0.9986205221722361 0.0900084998198637
1416042 -0.9987766057775623 0.08953844437458398
1416330 -0.9985226575384907 0.09002918207001338
1416618 -0.9987475174974757 0.09006974944264765
1416906 -0.9982004167903605 0.08977527358390476
1417194 -0.9988974476717384 0.09025020585377012
1417481 -0.9984873845838655 0.09048927716033758
1417769 -0.9983859022115086 0.09022082544265396
1418057 -0.9988091139928291 0.09028606096876761
1418345 -0.9987602552089907 0.09138474242887748
1418633 -0.999375816405943 0.09004186117474733
1418920 -0.99899010113563 0.0905741053399921
1419208 -0.9991857666157311 0.0906790998836768
1419496 -0.9994731613312794 0.08971690435431674
1419784 -0.9987808932216237 0.08977107945241726
1420072 -0.9989898939832906 0.09064377490269727
1420360 -0.998809025620201 0.08998544655825566
1420360 -0.9982903816859601 0.08954772570912102
1420653 -0.9984435805542446 0.09057158308634297
1420947 -0.9985085467597211 0.09116146512140982
1421241 -0.9992187455377739 0.09022771334511057
1421535 -0.998424916609855 0.09040246822985455
1421828 -0.9987309379158353 0.09116372029385922
1422122 -0.9988266551398342 0.09037515655146859
1422416 -0.9992137648530011 0.09033110092723583
1422710 -0.9988857210205209 0.09186644099249829
1423003 -0.999395102330701 0.09032954455779392
1423297 -0.9984350384884185 0.09007933693360523
1423591 -0.9985743861360613 0.09139045598977026
1423885 -0.999387810772009 0.09041389581190641
1424179 -0.998424505981959 0.08963318893024655
1424472 -0.9990410525355625 0.0907307181336091
1424766 -0.998917784025068 0.09070635737220256
1425060 -1.000202653807842 0.09126985681545262
1425354 -0.9990728684356237 0.09081729492622057
1425647 -0.9991116501407403 0.09117284171642584
1425941 -0.9993416841575689 0.09026098346384578
1426235 -0.9986704763170454 0.09126187661974662
1426529 -0.9995129565281989 0.09099851806770529
1426822 -0.999620844906162 0.09016318628979579
1427116 -0.9991402685512235 0.09023847374131796
1427410 -0.9987155280342599 0.0916937235452844
1427704 -0.9987169971528422 0.09029962035608592
1427998 -0.9986705449694007 0.09028141459120985
1428291 -0.9981805074454622 0.09124681752066964
1428585 -0.9987763117025449 0.0901621896671993
1428879 -0.9987655574362547 0.09069745092639592
1429173 -0.9985201921859856 0.09153963708897368
1429466 -0.9987021289663136 0.09129873779516805
1429760 -0.9981990230811388 0.09043580457619217
1430054 -0.998248930884151 0.09133399297069471
1430348 -0.9991727724962741 0.09145107957392595
1430641 -0.9994042919473252 0.09070847233106491
1430935 -0.9987754908814733 0.09074798557515325
1431229 -0.9984541381419918 0.0912918293823329
1431523 -0.9993362898488455 0.09041892012518879
1431817 -0.9986807523184176 0.09076878582483999
1432110 -0.9981841811558038 0.09174124514559469
1432404 -0.9984360694062908 0.09108536145978541
1432698 -0.9980299642947219 0.09042698029123485
1432992 -0.9987807467542072 0.0923795649857431
1433285 -0.9986990759519037 0.09123546610893106
1433579 -0.9987596631501383 0.09091473577032237
1433873 -0.9992914203725896 0.09188723290477631
1434167 -0.9992144262097034 0.0908647421885339
1434460 -0.9982153727462179 0.091025187039386
1434754 -0.9989641330532947 0.09152324103418555
1435048 -0.9984439722130576 0.09130395761873622
1435342 -0.9980241182241232 0.09082015680557166
1435636 -0.9986192677576017 0.09217430263299839
1435929 -0.9988610195512637 0.09149679488940887
1436223 -0.998304515506224 0.09101995920451086
1436517 -0.9987424092786469 0.09223096255149625
1436811 -0.9996781479029848 0.09155812892775324
1437104 -0.9982023358246243 0.09093447784615598
1437398 -0.9984346270511402 0.09183683070047838
1437692 -0.9995290319266773 0.09186064416783446
1437986 -0.9993718651443992 0.09080320435916105
1438279 -0.9983782372742497 0.09109296073274581
1438573 -0.9993042840413542 0.0914032797889009
1438867 -0.9989207112627126 0.0903111966050439
1439161 -0.9979293082578593 0.09172273116459691
1439455 -0.9987436335711061 0.09243805455724428
1439748 -0.9981775534900542 0.09158017185390475
1440042 -0.9980267959699161 0.09155412992485643
1440336 -0.9982274314307987 0.09280329358086203
1440630 -0.9991025867589265 0.09177035818376435
1440923 -0.9988752108046487 0.09166500958727829
1441217 -0.9985858296344178 0.09267823969681206
1441511 -0.9988076464256742 0.09208878728022732
1441805 -0.9989672680180864 0.09097467065057135
1442098 -0.9985432579721135 0.09207991178135526
1442392 -0.9995543602821899 0.09171425589368432
1442686 -0.9989092722322676 0.09093108941410981
1442980 -0.9984080239368728 0.0915793977473493
1443274 -0.9990937225345677 0.09220230101748185
1443567 -0.9984091512215798 0.09096205046018345
1443861 -0.9974422090003244 0.09229181548686247
1444155 -0.9989441098905071 0.09252633546508479
1444449 -0.9987335221443524 0.09152652354646391
1444742 -0.9986887823034374 0.09162213080576914
1445036 -0.9983027957694189 0.09246628382742816
1445330 -0.999293920066381 0.09191748991156565
1445624 -0.9987391309459692 0.09114572344255323
1445917 -0.9985962914210207 0.09233968251785174
1446211 -0.9987708728304145 0.09249844973966655
1446505 -0.9988841515220218 0.09090938351766294
1446799 -0.9979214951224914 0.0921762064643331
1447093 -0.9989713381404284 0.09207671532044848
1447386 -0.9988595102580847 0.09143309379703572
1447680 -0.9979619000040918 0.09206953647925795
1447974 -0.9989378326672229 0.09293795652868121
1448268 -0.9988729952955999 0.09186517015944204
1448561 -0.9981049420561217 0.0927460569897924
1448855 -0.9996485310232364 0.09285601390096773
1449149 -0.9987932556004696 0.09182331195644416
1449443 -0.9983594312296165 0.09237204348447386
1449737 -0.9986453037632834 0.09220623872108732
1449737 -0.9986257907667987 0.0926346618178882
1450036 -0.9973492203580225 0.09260975386672801
1450336 -0.9989823408502586 0.09176370577641672
1450636 -0.998870714265773 0.09224631364337858
1450936 -0.998554814296094 0.09294491741325989
1451236 -0.9985769421030163 0.09209554364260804
1451536 -0.9980405067744845 0.09255503934604034
1451835 -0.9981378439912029 0.09293375218033793
1452135 -0.9988328098267214 0.09173541444041851
1452435 -0.9984165603045965 0.09178613998215165
1452735 -0.9990073981127854 0.09303454849209658
1453035 -0.9989018046993444 0.09155007571967416
1453335 -0.9985605305842699 0.09181681854267623
1453635 -0.9987859572320641 0.09279768303170137
1453934 -0.9987326246986262 0.0926109624367725
1454234 -0.9976099384727856 0.09171387389415228
1454534 -0.9993456315736895 0.09291059659482222
1454834 -0.9989008806692254 0.0921580075173388
1455134 -0.9986151278666187 0.0915573447051451
1455434 -0.9988237797155455 0.09340423790209992
1455734 -0.9984294384292668 0.09241307795921913
1456033 -0.9985928221334867 0.09251693273298639
1456333 -0.9992014530325697 0.09277045566541386
1456633 -0.998610245911092 0.09281211834136964
1456933 -0.9993325137539791 0.09163698021234783
1457233 -0.9988041922412909 0.0932270954496634
1457533 -0.9980308509795925 0.09256900163935404
1457832 -0.9989741671788813 0.09256910558525454
1458132 -0.998219224314858 0.09230491891045492
1458432 -0.9981528094690197 0.09335046529030697
1458732 -0.998702182846139 0.09267080495806233
1459032 -0.9983583387259319 0.09343116290670743
1459332 -0.9977931870341881 0.09373866514947363
1459632 -0.999127906760087 0.09237963840952942
1459931 -0.9981560525538958 0.09326606622887171
1460231 -0.9979580580036315 0.09373584117894586
1460531 -0.9991992393719674 0.09253856738167704
1460831 -0.9985365782544589 0.09216266701358981
1461131 -0.9984275183305804 0.0932078119157264
1461431 -0.9984662099816645 0.09261663358487467
1461731 -0.9983157408001165 0.0924786412297572
1462030 -0.9978810860362111 0.09376660768683313
1462330 -0.9982684655621067 0.09292135049653574
1462630 -0.9986171457754013 0.09246927593702997
1462930 -0.9977667043915713 0.09305292753334388
1463230 -0.99850486302209 0.0930423133107627
1463530 -0.9984347195271611 0.09269994810170067
1463829 -0.9988883175132547 0.09362099946122983
1464129 -0.998160672851579 0.09312878090537305
1464429 -0.9990730246352 0.09276937986819495
1464729 -0.9992255388599627 0.09324131967360864
1465029 -0.9986394502083477 0.09234638740978934
1465329 -0.9979568272287974 0.09289529117075461
1465629 -0.9983834720949284 0.09341866744773225
1465928 -0.9980692705489542 0.09300358163567411
1466228 -0.9979169734136643 0.09355140870070483
1466528 -0.9981998645320846 0.09420364533954928
1466828 -0.9984254543916784 0.09325855181638604
1467128 -0.9985754973581492 0.09334753294399827
1467428 -0.9985152528479734 0.09466759085086439
1467728 -0.9989518273486031 0.09343288427423393
1468027 -0.9987966403475604 0.09332016749449715
1468327 -0.9981049760532151 0.09372633393975331
1468627 -0.999170506443815 0.09288753463101207
1468927 -0.9984035658692627 0.0930389505205592
1469227 -0.9977038506988357 0.09324713321677512
1469527 -0.9988196341296995 0.09356591335873249
1469826 -0.9984157328520974 0.09362801327806508
1470126 -0.9976805155694731 0.09372602639324143
1470426 -0.998832152460052 0.09401192187358706
1470726 -0.998571676780412 0.09286336046826596
1471026 -0.9983467305876504 0.09408668890137364
1471326 -0.9996025679336309 0.09400119077524609
1471626 -0.9985009385972592 0.09294893364152597
1471925 -0.9976340397881018 0.0934810011867549
1472225 -0.9992712111204662 0.09332841644529044
1472525 -0.9982112333779685 0.09304464689606443
1472825 -0.9973567550803483 0.09427250270807636
1473125 -0.998769393414327 0.09384617702897767
1473425 -0.9977427828899886 0.0928183051402151
1473725 -0.9977045137612143 0.09399226206035156
1474024 -0.9988136622044756 0.0947464911266004
1474324 -0.9984069855142206 0.09336223122489627
1474624 -0.9983510839735361 0.09384383515300991
1474924 -0.9982618618304937 0.0941133118916661
1475224 -0.9990004627272494 0.09357512830984545
1475524 -0.9980749213569896 0.09306299384125248
1475823 -0.9980769448315358 0.09396702398421598
1476123 -0.9988408658436022 0.09337139699316849
1476423 -0.9982439506618975 0.09419028423238436
1476723 -0.9987730971902522 0.09388947148504193
1477023 -0.9990652001239063 0.09357316892957192
1477323 -0.9974518994830217 0.0933371499256211
1477623 -0.9982372532775993 0.0943253901556803
1477922 -0.9993446940937022 0.09375882813381849
1478222 -0.9984949995693544 0.09381314564281315
1478522 -0.9978009404205439 0.09485134158143214
1478822 -0.9995006561720177 0.09404092145512402
1479122 -0.9978314576838447 0.09335722889769676
1479422 -0.9984889981358376 0.09453196222918901
1479722 -0.9988602956719713 0.09358081806401997
1479722 -0.9983971747026141 0.09392825096147422
1480028 -0.998965547366213 0.09389561110719982
1480334 -0.998694906490372 0.09366696209974618
1480640 -0.9981378274603346 0.0940278430089335
1480946 -0.9985431507485729 0.09486485588172426
1481252 -0.998026736301658 0.09376438072511895
1481558 -0.9980600275006971 0.09527544867741576
1481864 -0.9974927771254322 0.09473764387326619
1482170 -0.9988493694235764 0.0933537888977321
1482476 -0.9981460300078465 0.09508462116869651
1482782 -0.9987049374439032 0.09408261979479575
1483088 -0.9985521579723444 0.09368941033581794
1483394 -0.998746875353974 0.09497451612699695
1483700 -0.9985590656101765 0.0940187314465649
1484006 -0.9981465357905785 0.09349059669664812
1484312 -0.9980643493948242 0.09422711334964844
1484618 -0.9983597518161786 0.09514575751106841
1484924 -0.9978182764533035 0.09432908150228474
1485230 -0.9990417923465039 0.09522177311034019
1485536 -0.9989001912748173 0.09492705850420795
1485842 -0.9987909639229228 0.09445222258018034
1486148 -0.9989154000308861 0.09446485479585556
1486454 -0.9991635279259536 0.09520788133467753
1486760 -0.9989556845422036 0.09374318345555664
1487066 -0.9984553668091267 0.0943980553902722
1487373 -0.9976083907682178 0.09527529333583624
1487679 -0.9983455571424865 0.09460129372372098
1487985 -0.9982628334545818 0.09412749055008852
1488291 -0.9973147283547511 0.09499873421468374
1488597 -0.9975858181830201 0.09467170235693476
1488903 -0.9984706540599013 0.09421237215650038
1489209 -0.9973760150841837 0.09478487336705978
1489515 -0.9978286925118056 0.09397415293093038
1489821 -0.9985997161166494 0.09413676104197652
1490127 -0.9981176830604127 0.09548594839521606
1490433 -0.9989294627199146 0.0947040837694945
1490739 -0.9987714491506077 0.09426062288494381
1491045 -0.9976602956288239 0.09506460831794918
1491351 -0.9986531348746216 0.09464947906649934
1491657 -0.9986385883137661 0.0944262627030947
1491963 -0.9974670019424433 0.09533131481078874
1492269 -0.9986923478111693 0.09441462024314358
1492575 -0.9986172167501308 0.09482421085053805
1492881 -0.9975154548839094 0.09561248029545472
1493187 -0.9985122295012318 0.09508615215491838
1493493 -0.9979911035935879 0.09511929707847015
1493799 -0.99733176834551 0.09582902401001406
1494105 -0.9984226828602046 0.09522037230575184
1494411 -0.9988729915995825 0.09436430208462415
1494717 -0.9991911189859337 0.09498306296041942
1495024 -0.9982511428526076 0.0950073374582284
1495330 -0.998002719650087 0.09419896856468432
1495636 -0.9978535024840228 0.09422811116070413
1495942 -0.9976493353012195 0.09510578794401388
1496248 -0.9985647751935365 0.09448440026071758
1496554 -0.9977638839090406 0.09567539717643647
1496860 -0.9999167073999199 0.09669407971936221
1497166 -0.998593046304862 0.09509615621713771
1497472 -0.9982778871579977 0.0952162922094218
1497778 -1.000477646230264 0.09684148264273458
1498084 -0.995911389730439 0.09445483670732008
1498390 -0.9989741067584359 0.09475403471078037
1498696 -0.9968775346596327 0.0948171191448203
1499002 -0.9971514506195068 0.09488182520481199
1499308 -0.9973276567156886 0.09472864640053971
1499614 -0.9968626581500442 0.0952484667190654
1499920 -0.9941243025232136 0.09430638984057707
1500226 -1.0021594538157474 0.09648074886405245
1500532 -0.9936078956823423 0.09521669899637095
1500838 -0.9964617003768944 0.09423923257305357
1501144 -0.9943844335235399 0.09336733280784923
1501450 -0.9972265297115662 0.09569780058284395
1501756 -0.9987686848055612 0.09610553372334733
1502062 -0.9945644027334256 0.09308137102261635
1502368 -0.9967997580804151 0.0953164408820271
1502675 -0.9976077632308624 0.0948076648712373
1502981 -0.9973546677366966 0.09473767156332648
1503287 -0.9986432171217611 0.09623447910749312
1503593 -0.998890339174822 0.09512564983906108
1503899 -0.9975683009740949 0.09549540663676521
1504205 -0.9977958660495019 0.09625356291584722
1504511 -0.9986170401206311 0.09524582183095187
1504817 -0.9976045688547271 0.09546956481035952
1505123 -0.9989807938932193 0.09682005115726794
1505429 -0.9984413544664157 0.09470357701513608
1505735 -0.9980590122542315 0.09496180397338015
1506041 -0.9983838799575558 0.0964696020123796
1506347 -0.9980041403577512 0.09506462355663237
1506653 -0.9980865858955725 0.09467405717998009
1506959 -0.9984998442610653 0.09601155825269929
1507265 -0.9991587529489142 0.09655743187095733
1507571 -0.9984844002428427 0.09549889401477152
1507877 -0.9981169277354511 0.09603343526121003
1508183 -0.9983147866232657 0.096645444890564
1508489 -0.9990247984088019 0.09550462971768617
1508795 -0.9985391334197298 0.09623905574666766
1509101 -0.9985335854138813 0.09574146690645784
1509407 -0.9987824323300737 0.09569023707733777
1509713 -0.9985137346471932 0.09608146634893937
1510019 -0.9981402137372393 0.09576570564574116
1510326 -0.9973733054466815 0.09470201616205612
1510326 -0.997981833469558 0.09555777852345002
1510638 -0.9965702173316044 0.09644020762326916
1510950 -0.9992599477866978 0.09641170003573317
1511263 -0.9978183564329336 0.09544304741525922
1511575 -0.9972053661427788 0.09648335830561999
1511887 -0.9986469769867784 0.09690818866065012
1512200 -0.9978216744550664 0.09562223763629364
1512512 -0.9972554503115999 0.09647978163024482
1512825 -0.9987049552887585 0.09640797136940724
1513137 -0.9979614059467253 0.09551093129385105
1513449 -0.9971787857118851 0.09614609226440626
1513762 -0.998626099455433 0.09587752736765148
1514074 -0.9973978302854298 0.09567622154463641
1514386 -0.9973048340461673 0.09681023229006096
1514699 -0.9985300279250778 0.09670525618751218
1515011 -0.9977735562518948 0.09603884202228734
1515324 -0.9974783095300815 0.09665981826288972
1515636 -0.9989677949626363 0.0968166461518357
1515948 -0.9979036988082441 0.09614005637585525
1516261 -0.9980704560468547 0.09679283985029397
1516573 -0.9985307036533507 0.09621714416419747
1516885 -0.9975533145175678 0.09559897144940083
1517198 -0.9982386326375305 0.09653852484938404
1517510 -0.9988671818330765 0.0959935306880482
1517823 -0.9977487896694457 0.09595304370108132
1518135 -0.9972551220353076 0.09730061249585721
1518447 -0.9983654620205127 0.09675027942729603
1518760 -0.9979935694642926 0.09587939457618877
1519072 -0.9971786515567738 0.09736252287790341
1519385 -0.9984983793274209 0.09665910966949987
1519697 -0.9980100667081113 0.09647473475283036
1520009 -0.9977469734124987 0.09669197468334215
1520322 -0.9986599752490519 0.09598228154744001
1520634 -0.9976389158473399 0.09637671550786968
1520946 -0.997560615829849 0.09708195333012024
1521259 -0.9985732896742218 0.09632066272080346
1521571 -0.997589592150148 0.09641690494612526
1521884 -0.9972462006121353 0.09713297352493473
1522196 -0.9987838017981531 0.09695274588955229
1522508 -0.997463893685709 0.09657055146420603
1522821 -0.9972808162843951 0.09753176047602523
1523133 -0.9983273260153726 0.09651943707822945
1523445 -0.9977296828796556 0.09685721634066632
1523758 -0.9980753778590168 0.09754537146460757
1524070 -0.9987646672782702 0.09661025613950502
1524383 -0.9983806443294798 0.09675054602535887
1524695 -0.9975118750843784 0.09704902381830073
1525007 -0.9980430820128829 0.09680320716576812
1525320 -0.9979770068949172 0.09663166767899961
1525632 -0.9968799247737368 0.09700681731325575
1525945 -0.9976831708205312 0.09766545282972919
1526257 -0.9980060979857026 0.09698419549443733
1526569 -0.997526499098593 0.09767458928992534
1526882 -0.998053229222434 0.09726399006327408
1527194 -0.9995279530753524 0.09792390042777706
1527506 -0.9974551680019411 0.09719663278469155
1527819 -0.998357415644933 0.09768175651070489
1528131 -0.9986891753849558 0.09655751494760789
1528444 -0.9976676563533963 0.0977710628544588
1528756 -0.9983789077174726 0.09711450348504029
1529068 -0.9985731550735224 0.09673088840655136
1529381 -0.9974131716467388 0.09708811500972692
1529693 -0.9971526095818422 0.09755803950969277
1530005 -0.9983903662968084 0.09625881921209853
1530318 -0.997868493568131 0.0977761806801214
1530630 -0.9978445088622747 0.09754535175702071
1530943 -0.998722037325115 0.09673815982221359
1531255 -0.9980067458995056 0.09809242770953513
1531567 -0.9979015480422743 0.09699178414264369
1531880 -0.9979454501084679 0.09727592878146027
1532192 -0.9977225245804058 0.09768855409802342
1532504 -0.9978790588827683 0.09689952313817726
1532817 -0.9979597897535308 0.09687814070440146
1533129 -0.9976023825146052 0.09742828307032603
1533442 -0.9977142096088831 0.0976412251951715
1533754 -0.9979636806136807 0.09745057499969455
1534066 -0.9974628420769629 0.09781997878630873
1534379 -0.9978473061923389 0.098084559958573
1534691 -0.9981303088995037 0.09725479926036702
1535004 -0.9983858011744305 0.09729932578314625
1535316 -0.9980426417736861 0.09792004161458624
1535628 -0.9986895300916937 0.09705064904631369
1535941 -0.9973147023995206 0.09746126070397639
1536253 -0.9976544088632155 0.09749607612242653
1536565 -0.9984684153159474 0.09735414613797311
1536878 -0.9971379500279913 0.09796881776918998
1537190 -0.9971722221448687 0.09800694324238851
1537503 -0.9980255198151663 0.09758700454018437
1537815 -0.9974156572987162 0.09835078152395213
1538127 -0.9980365586830034 0.09847418878104805
1538440 -0.9987362479966861 0.09733748976020892
1538752 -0.9980782796201039 0.09816575775581922
1539064 -0.9980745761111657 0.09773778559184898
1539377 -0.998414978460327 0.09726781323578663
1539689 -0.998129885894358 0.0979678591035446
1540002 -0.9977977780866187 0.09814399684428719
1540314 -0.9982684120807314 0.09681217073572695
1540626 -0.9969571912426259 0.09786631852508028
1540939 -0.9981905040261917 0.09842300399386321
1541251 -0.9974463931970184 0.09767872611012932
1541564 -0.9970202813397373 0.09851649174076849
1541564 -0.9970237719488318 0.09872278541541986
1541882 -0.9992639353516662 0.09847795271179573
1542201 -0.9981881641379722 0.09708027212009783
1542520 -0.9974451456648168 0.09869719754656572
1542839 -0.9995582651974166 0.09905721903973892
1543158 -0.9979452639801497 0.09719023428308536
1543477 -0.9969438738694241 0.09848310104086193
1543795 -0.9987307755082345 0.09757892023410157
1544114 -0.9972318017988708 0.09769968020024002
1544433 -0.9969982339797456 0.09830004736724036
1544752 -0.9985641318361316 0.0975834955701379
1545071 -0.9976752756891013 0.09849996245229313
1545390 -0.9977592323149923 0.09889327789994198
1545708 -0.9984300902939607 0.09827472481309417
1546027 -0.997960796322832 0.09809960230312546
1546346 -0.9977665924772039 0.09851017036089198
1546665 -0.9982268974946644 0.09775417117344395
1546984 -0.9982012617849659 0.09849209366439791
1547303 -0.9978755046390357 0.09838475233945788
1547621 -0.9984036966084698 0.09762844844739617
1547940 -0.997155880894168 0.09856494967962699
1548259 -0.9977502886073729 0.09861127182701827
1548578 -0.9977409211738916 0.09845185699512364
1548897 -0.9974453049523608 0.09901820044768339
1549216 -0.9983398320367983 0.09879232929416198
1549535 -0.9985134575737391 0.09790266484201288
1549853 -0.9979689678330801 0.09852029435321978
1550172 -0.9985268841857761 0.09846540157171889
1550491 -0.9982615688364778 0.09786359153982119
1550810 -0.9972381265380269 0.09874651422554233
1551129 -0.9978220180227327 0.09801783424109974
1551448 -0.997117920318524 0.09805206262644761
1551766 -0.9974255618209095 0.0992174876564969
1552085 -0.9978943602918314 0.09883316752596458
1552404 -0.9971598255093551 0.09856203036106745
1552723 -0.9973922516572801 0.09958549575558244
1553042 -0.9985113995634006 0.09884033157874497
1553361 -0.9971962526011411 0.09841670849681533
1553679 -0.9981233985836675 0.09943374532311282
1553998 -0.9991963026586269 0.09824430308080473
1554317 -0.9968831597432645 0.0984163985898291
1554636 -0.9978576021967572 0.09905880276235611
1554955 -0.9984018329358122 0.09882541365616614
1555274 -0.9967237743795129 0.09836381737173042
1555592 -0.9974018109760981 0.10017278086443084
1555911 -0.998386830299923 0.09883886808689202
1556230 -0.9973563384486597 0.0991148629911105
1556549 -0.9976745456463981 0.09977164410684505
1556868 -0.998230760020642 0.09892042383475952
1557187 -0.998068546586385 0.09896403790642909
1557506 -0.9976225451218814 0.09987070930321922
1557824 -0.998218134857709 0.09818793946085914
1558143 -0.9976826363475249 0.09832024150773017
1558462 -0.9977110975992648 0.09966236946894251
1558781 -0.9978706819095907 0.09814080630910013
1559100 -0.9973758798286155 0.09920936985972918
1559419 -0.9981912447328778 0.09953681811358076
1559737 -0.9981724827514924 0.09873839312508921
1560056 -0.9972810574064258 0.09997191839127366
1560375 -0.9983757671616462 0.09980589887663327
1560694 -0.9981350479149118 0.09863996799552734
1561013 -0.9974154852951045 0.09944015400401347
1561332 -0.9987804423706637 0.09973317576890005
1561650 -0.9982489532953653 0.09850846326372241
1561969 -0.9969876554648605 0.09979538597016417
1562288 -0.9984790737608661 0.0998277857263406
1562607 -0.9975934781810032 0.09910530448381084
1562926 -0.9970902807777884 0.09940961222126846
1563245 -0.9980821128046528 0.10008646102918667
1563563 -0.997073173742888 0.09930129743123255
1563882 -0.9967623435015738 0.09994650837015455
1564201 -0.9986888459964675 0.1001526700720203
1564520 -0.9984009101984335 0.09859719972281054
1564839 -0.9968818883120101 0.10002000930537171
1565158 -0.9985589630387138 0.10002219819905785
1565477 -0.9982329175692294 0.09852005601611226
1565795 -0.9967974205558593 0.09997568676970564
1566114 -0.9991873295431 0.09984127151499134
1566433 -0.9977310492166837 0.09874806942494553
1566752 -0.9967821793662935 0.10037095725589358
1567071 -0.9992864095391482 0.09996027585614486
1567390 -0.9975674108127831 0.09923055529329639
1567708 -0.9975215691644239 0.10011352952863926
1568027 -0.9987867562496366 0.09994805574357887
1568346 -0.9972903565818149 0.09925197031726996
1568665 -0.9977462256913504 0.10020890123383985
1568984 -0.9981972546379021 0.09985496621165896
1569303 -0.9977038885564019 0.09851366558254306
1569621 -0.9975713049183826 0.09977669190333499
1569940 -0.998173936346268 0.09982006592658565
1570259 -0.9973916900872571 0.0993380594868448
1570578 -0.9965599716674347 0.10028790459534166
1570897 -0.9980671674225816 0.09988904555989085
1571216 -0.9971474689422736 0.09955901943900866
1571534 -0.9967171602241589 0.10046586342527908
1571853 -0.9991502841145868 0.09971553012863886
1572172 -0.9972950416961982 0.09945789618810169
1572491 -0.9977194280584749 0.10002749189414353
1572810 -0.9991650079925758 0.09947352517577958
1573129 -0.9975296339414111 0.09929760908235538
1573448 -0.9977380957152832 0.10027075238219094
1573448 -0.9966896753707357 0.09998407405704744
1573773 -0.9974413780540605 0.10038358513855637
1574098 -0.9983360731471269 0.09933508218029422
1574424 -0.998851397101004 0.10117242814885058
1574749 -0.998239892639205 0.10087203475717901
1575075 -0.9988898907701591 0.10001151462189137
1575400 -0.9972693759248663 0.10071002456065285
1575726 -0.9983892242210661 0.09959154190676754
1576051 -0.9984686881727428 0.09938061131236461
1576376 -0.997291632584902 0.1006476677014448
1576702 -0.9979318094009623 0.09969371095126556
1577027 -0.9979049701511705 0.09961841190170624
1577353 -0.9973005805141966 0.10133152996441486
1577678 -0.9974048506800813 0.0999504281319326
1578004 -0.9969485782526551 0.09954740224292777
1578329 -0.997170966481757 0.10052830385331153
1578654 -0.9984730755244592 0.10011815068033605
1578980 -0.9968451460770315 0.09989469440835823
1579305 -0.9976609288564562 0.10125002830452594
1579631 -0.9983246388020669 0.09965526771178873
1579956 -0.9970393362312615 0.09973002084986583
1580282 -0.9976389061340223 0.10076484358832911
1580607 -0.9980065622572171 0.09986213609769631
1580932 -0.9969072884735153 0.10009064955705685
1581258 -0.9974863613612936 0.10101012796703736
1581583 -0.9980599304808033 0.09999051066145814
1581909 -0.9970163616870604 0.1017388429146437
1582234 -0.9979622646060886 0.10132797482362702
1582560 -0.9981212771467832 0.10004252289330962
1582885 -0.9974842054095755 0.10093926419969815
1583210 -0.9978035055890507 0.10102701314956677
1583536 -0.9984770876587938 0.10003757110181981
1583861 -0.9975734189264687 0.10109521054251826
1584187 -0.9980354420508476 0.1003165174778384
1584512 -0.9982798170165572 0.0998353689483498
1584838 -0.997971759398568 0.10197533527936727
1585163 -0.997916488554861 0.10028187485148128
1585488 -0.9970599491766354 0.0995319459729769
1585814 -0.997685620528556 0.10159538087147259
1586139 -0.9982292536379875 0.10090669525083369
1586465 -0.9969859459085445 0.100051330962446
1586790 -0.9982441356206766 0.1020281517403753
1587116 -0.9979159719335259 0.09998762017896598
1587441 -0.997641236012655 0.10010593828676013
1587766 -0.9976295196536697 0.10181348794248339
1588092 -0.9980551166301507 0.09986751590266528
1588417 -0.9969198943858895 0.10073133175627232
1588743 -0.9973743257776753 0.10163110209505405
1589068 -0.9981393100461743 0.10116603116061856
1589394 -0.9974408955942804 0.10110463308782375
1589719 -0.9971420332685086 0.10154893012467815
1590044 -0.9978043069603828 0.10014786284376301
1590370 -0.997517723505372 0.10158961228430581
1590695 -0.9976443213755998 0.10123736858640232
1591021 -0.998070832484617 0.10164354812154257
1591346 -0.9981885753518989 0.10051687095874608
1591672 -0.9978238324157913 0.10183761631452287
1591997 -0.9973010034821074 0.10129369914768198
1592322 -0.9970773296460753 0.10036208827738408
1592648 -0.9970400269491816 0.10158625806639433
1592973 -0.9975788973621885 0.10158126375668669
1593299 -0.998015544712151 0.10081309592240865
1593624 -0.9972009916919009 0.10259142259311871
1593950 -0.997931474348165 0.10171980583883797
1594275 -0.9976093927767961 0.10063886931409338
1594600 -0.9975140658386958 0.10230541451316644
1594926 -0.9980523712780567 0.10084193366465603
1595251 -0.9971481029969633 0.10061013592477819
1595577 -0.9977436897121241 0.10216469769770957
1595902 -0.9977923457703477 0.10067362990907303
1596228 -0.9970585910285309 0.10019736658092455
1596553 -0.9977153139130414 0.102313026815706
1596878 -0.9977484172681962 0.10074229977675495
1597204 -0.9967180069643058 0.1010706973905898
1597529 -0.9973653950925463 0.10222899769755635
1597855 -0.9985237305716015 0.10084185129430949
1598180 -0.9971786964086861 0.10180772047925028
1598506 -0.9975376775875594 0.10191270377247617
1598831 -0.9986895576057486 0.10040273652398593
1599156 -0.9980289768035305 0.10196797525599637
1599482 -0.9974160710123576 0.10206664722599991
1599807 -0.9973810210428546 0.10041372435229598
1600133 -0.9972509158291472 0.10254687930738036
1600458 -0.9975055246556399 0.10239575532281046
1600784 -0.9974244763614446 0.10098171209829773
1601109 -0.9969385009696519 0.10291809404904662
1601434 -0.998278157642337 0.10185077021595802
1601760 -0.9976293513268288 0.10086416926249606
1602085 -0.9977204875331979 0.10296403658293851
1602411 -0.9985301913660707 0.10181376482712245
1602736 -0.9974167936226929 0.10077977298229755
1603062 -0.9976725321237276 0.10243459313791393
1603387 -0.9978922686979896 0.10100828533468045
1603712 -0.9963251780968437 0.1009099373705277
1604038 -0.9972918366940662 0.10265756559162488
1604363 -0.9981074572910772 0.10101047184117773
1604689 -0.9968549567319893 0.10114721512601592
1605014 -0.997052073779371 0.10271631515679865
1605340 -0.9979459231052892 0.10142518627272976
1605665 -0.997015301020207 0.10191191196640101
1605991 -0.9974635563182054 0.10241006401462424
1605991 -0.997771383036491 0.10077059362168697
1606323 -0.9974161457602111 0.1024278534792672
1606655 -0.9979092185025928 0.10183878303166984
1606987 -0.9971883337271639 0.10100121080291896
1607319 -0.9967484404428316 0.10235203593219507
1607651 -0.9975842067312998 0.10215694817930694
1607983 -0.9969286758437936 0.1025388502861932
1608316 -0.997035923625339 0.1030147492130172
1608648 -0.9978619798953481 0.10218575476106895
1608980 -0.9976714830751731 0.102743045799059
1609312 -0.9979902610187537 0.10249362334702772
1609644 -0.9976418567106037 0.1016707792388204
1609976 -0.9973069074902549 0.1030919635643342
1610309 -0.9973802803433668 0.10232634233999158
1610641 -0.9971160201886797 0.10180913285937772
1610973 -0.9970508044029388 0.10283221423110878
1611305 -0.9975941396494484 0.10213077610580813
1611637 -0.9974192588329298 0.10255918160442777
1611969 -0.9965491585026307 0.10345862716618404
1612302 -0.9976216522923721 0.1028338280128426
1612634 -0.9976009040530571 0.1026443915429689
1612966 -0.9973121513921626 0.10261161628303149
1613298 -0.9980367823551701 0.10141719525641343
1613630 -0.9974672357219846 0.10208387993718555
1613962 -0.9976744886773026 0.10275140542587162
1614295 -0.9976199734130707 0.10127250034106054
1614627 -0.9973788114927251 0.10273599381449006
1614959 -0.9976517649117471 0.10236953911268785
1615291 -0.9974901633569084 0.10231488591765342
1615623 -0.9963835539400197 0.1032984885631845
1615955 -0.9978921007676793 0.10309405335911381
1616287 -0.9981431987100632 0.1023262049881785
1616620 -0.9973628802644061 0.10333978618466858
1616952 -0.9976647947002948 0.10269585068995322
1617284 -0.9973911146514872 0.10216425399807953
1617616 -0.997324643944372 0.10271668109202578
1617948 -0.9975251485908444 0.10201977438093023
1618280 -0.9967953329435948 0.10247949984152874
1618613 -0.996996335570971 0.10307100806606655
1618945 -0.9976906129376423 0.10262274124084723
1619277 -0.9965910097218356 0.10412285650782448
1619609 -0.9980323374160177 0.10393909028195725
1619941 -0.9983354680700798 0.10279891570267863
1620273 -0.9969019181756842 0.10337144153501751
1620606 -0.9978357211115481 0.10301856063303408
1620938 -0.9977182033639399 0.10240263016946446
1621270 -0.9965387208748078 0.10285411959206768
1621602 -0.997037541574763 0.10253277574452054
1621934 -0.997387046851902 0.10161817054157382
1622266 -0.9973753119582446 0.10348715024240791
1622599 -0.9977399749487503 0.10210651603984515
1622931 -0.9972072345322874 0.1032407206149525
1623263 -0.9977514226103354 0.10347609102314813
1623595 -0.9971652779462529 0.10222060073683269
1623927 -0.9968151462643271 0.10410419859321692
1624259 -0.9977514350585649 0.10326841278657727
1624591 -0.9971762048729732 0.10283790983620926
1624924 -0.9973801222124535 0.10359193483675154
1625256 -0.9979460531604042 0.10296045701861312
1625588 -0.996378480670755 0.10321225472273274
1625920 -0.9975481257780174 0.1045632255813314
1626252 -0.9978413544550443 0.10243685296488025
1626584 -0.9968775044305103 0.10303919845859433
1626917 -0.9979904258088435 0.10412434023270212
1627249 -0.9976058428868493 0.10175784580134128
1627581 -0.9972636096644992 0.10380504663279957
1627913 -0.997645633617734 0.10363214045516715
1628245 -0.9977149587729831 0.10276815651926408
1628577 -0.9967127441400006 0.1040258946579535
1628910 -0.9975063822546787 0.10285600098377176
1629242 -0.9963947162114111 0.10242293485032297
1629574 -0.9972698841197192 0.10456462798490736
1629906 -0.9973477547228913 0.10285937933286206
1630238 -0.9965550528711228 0.10331564797183929
1630570 -0.9976124939396979 0.10471700545937575
1630903 -0.9972866703235302 0.10290735849216735
1631235 -0.996940223132831 0.10414981173320847
1631567 -0.9983379555634632 0.10456680442335348
1631899 -0.997416869795563 0.10272266216965008
1632231 -0.9966275430665513 0.10390189306174526
1632563 -0.9981221193444176 0.10386317947816673
1632895 -0.9969434479618122 0.10281697138048715
1633228 -0.9968425502950887 0.1038000912163368
1633560 -0.9978093786075309 0.10429773286928133
1633892 -0.9967215596351617 0.10342697712079034
1634224 -0.9965186090501051 0.10456125342052408
1634556 -0.9977419760300535 0.10359479356598024
1634888 -0.9971455285019943 0.10462114630411753
1635221 -0.9981664747329437 0.10496747821986532
1635553 -0.9978955867080944 0.10276387489565868
1635885 -0.9974679871181044 0.10412430032144109
1636217 -0.9972328599961903 0.1043380364482108
1636549 -0.9976243129694311 0.10324653995419805
1636881 -0.9964584244483582 0.10426400199195612
1637214 -0.9972886051474766 0.10339853448631516
1637546 -0.997353302144454 0.10334007926882492
1637878 -0.9969962332663743 0.10489920059910791
1638210 -0.9974966653056137 0.10365152573401512
1638542 -0.9967717566985792 0.10432185744885461
1638874 -0.9971601784521833 0.10405444869478109
1639207 -0.9974279723797375 0.10327004830718525
1639207 -0.9976763199297911 0.10425090605947204
1639546 -0.9981684942033967 0.10366807585559303
1639885 -0.9970152796898119 0.10447809935626107
1640224 -0.9972267385662145 0.10340732345764242
1640563 -0.996803946235529 0.10397943129218236
1640902 -0.9968804326807799 0.10461075515690361
1641241 -0.9970640121230984 0.10374227308043496
1641580 -0.9969182185354315 0.10451188667690614
1641919 -0.9971250933806662 0.10440008094851148
1642258 -0.9976093016636601 0.10361961598439545
1642597 -0.9960527085115668 0.10421338163809146
1642936 -0.9980587621143564 0.10483989909336944
1643275 -0.9973950165130944 0.10398877718679868
1643614 -0.9961381983067773 0.10426084525365509
1643953 -0.9969330968394029 0.10387799374900414
1644292 -0.9971503543650322 0.1041384455848536
1644631 -0.9965475848785511 0.10417850835071689
1644970 -0.997179814311179 0.10337430252684933
1645309 -0.9968043625135106 0.10472486241701487
1645648 -0.9971897983004151 0.10498749118334551
1645987 -0.998018540697472 0.10422968825858604
1646326 -0.9968269296085958 0.10512536601587262
1646665 -0.9984327590159283 0.10499028024458891
1647004 -0.9972769792563783 0.10352693678693907
1647343 -0.9968279310386106 0.1048985362154631
1647682 -0.9967893214499223 0.10512112176824612
1648021 -1.0006782110758046 0.10525239463990121
1648360 -0.9969567820307926 0.10452489062436021
1648699 -0.997588004898337 0.10490365171628613
1649038 -0.9967589202191477 0.1047719240228988
1649377 -0.9961195604925756 0.10514695645354558
1649716 -0.9980219789951553 0.1043983860339472
1650055 -0.9977635792309052 0.1061349958597914
1650394 -0.9977386541645353 0.10505590947912889
1650734 -0.9988647801891143 0.10431870239534362
1651073 -0.996257188089481 0.10594575168826129
1651412 -0.9976792884528214 0.10478421665442643
1651751 -0.9972799061442623 0.10452785829220963
1652090 -0.9987027360618917 0.10656285539684318
1652429 -0.9970205823143697 0.10451195478783112
1652768 -0.99694003154686 0.10484776076850055
1653107 -0.9953597159787535 0.10540694361049799
1653446 -0.9975809732044133 0.1048840044404455
1653785 -0.9972599500380182 0.10500165241578563
1654124 -0.9977885787743994 0.10571785541076344
1654463 -0.9980444950857452 0.10481347895859645
1654802 -0.997157984135149 0.10575866971438916
1655141 -0.996710896817366 0.10449612348881367
1655480 -0.9968846067358016 0.10426093607157685
1655819 -0.9962011341337744 0.105041130808517
1656158 -0.9955849539378661 0.10581015370934999
1656497 -0.9977740804245265 0.10467567866153496
1656836 -0.9962613318869746 0.10582225116053634
1657175 -0.9968174794765411 0.10551181602799796
1657514 -0.9979457911047394 0.10499376701834572
1657853 -0.9970473813397458 0.10554819114316376
1658192 -0.9977892278854251 0.10529917025641723
1658531 -0.9966271867706956 0.1048479092926003
1658870 -0.996915003195383 0.10526710429843555
1659209 -0.9975218493656692 0.10495236485441721
1659548 -0.9967119664303691 0.1053561937754454
1659887 -0.9972002460159757 0.10590061708868864
1660226 -0.997226878478504 0.10471330159827519
1660565 -0.9964055599846159 0.10631105530190672
1660904 -0.9974350707721983 0.10608320473091559
1661243 -0.9972075293142662 0.10521657902139697
1661582 -0.9968997660009831 0.10534351280127438
1661922 -0.9973258019807526 0.10554757498111188
1662261 -0.9975935619349007 0.10472128510225154
1662600 -0.9970508570767354 0.10636918182315716
1662939 -0.9966655209980114 0.10459473643379195
1663278 -0.9965984365594174 0.1054642059578052
1663617 -0.9959687995189545 0.105865006159369
1663956 -0.9974294159999479 0.10541848758410366
1664295 -0.9966528682371594 0.106470668093312
1664634 -0.9979321681188876 0.10715420971540637
1664973 -0.9972478760463143 0.10538018700721016
1665312 -0.9964778754139727 0.10580299045493463
1665651 -0.9979080592575952 0.10606439283432013
1665990 -0.997213979283121 0.10496634351821682
1666329 -0.9966652651843662 0.10637170423893903
1666668 -0.9967522725720798 0.10524222275513322
1667007 -0.9961547707347311 0.10544538792690952
1667346 -0.9971089105724165 0.10631415550699054
1667685 -0.9965076060563138 0.10525587210974481
1668024 -0.9965044156927219 0.10605788599913156
1668363 -0.997938064593417 0.10686576804330424
1668702 -0.9972660702975438 0.10590539540697522
1669041 -0.9964529066134559 0.1066794187554584
1669380 -0.9974600466103536 0.10587301478590436
1669719 -0.9980194091304216 0.10524003415678115
1670058 -0.9966920321396685 0.10601196608386529
1670397 -0.9969582735473667 0.1054769041171172
1670736 -0.9966422189563086 0.1057039418196497
1671075 -0.9967960909973157 0.10613858802787207
1671414 -0.9971492799156879 0.1056731832511337
1671753 -0.9964128035557263 0.10671441822339298
1672092 -0.9971358873108027 0.10707285952515778
1672431 -0.9975666080264973 0.1059279524172933
1672770 -0.9969819777377111 0.1062061142265092
1673110 -0.9976976416520288 0.10649748222950985
1673110 -0.9976587220781814 0.10547856014848879
1673456 -0.9962526035957158 0.10660318484406885
1673802 -0.9977287798842742 0.10679201610365993
1674148 -0.9972306798438065 0.10498680259692984
1674494 -0.9971148015855423 0.10718034052861038
1674840 -0.9974888293813824 0.10569063938153332
1675186 -0.9961496592443364 0.10564339298268703
1675532 -0.9965319190743469 0.10771217616830758
1675878 -0.9978170560184044 0.1056103098644883
1676224 -0.9959859544082236 0.10649888372977895
1676570 -0.9976703912091531 0.1072797522481648
1676916 -0.9973173843029842 0.10523570867416604
1677262 -0.9967376608821222 0.10744762426381986
1677608 -0.9970552154269459 0.10635079941773333
1677954 -0.996479184865824 0.10529031926169607
1678300 -0.9965951363125588 0.10744726273512956
1678646 -0.9971965204343725 0.10600295206502167
1678992 -0.9956530155223767 0.1064211707576366
1679338 -0.9974416516946054 0.10768339004771056
1679684 -0.9969535899066685 0.10601501176503599
1680031 -0.9966630715180119 0.10795545723631034
1680377 -0.9975238905986382 0.10741758078134883
1680723 -0.9970971519810189 0.10521575604591603
1681069 -0.9969023133875154 0.10798730653667497
1681415 -0.9972815158015842 0.10662760336996123
1681761 -0.996878309651946 0.1059556558735371
1682107 -0.9969169217396796 0.10742966451302345
1682453 -0.9974169519529789 0.10591199376982904
1682799 -0.9959732284495114 0.1069467159729632
1683145 -0.9970663857068924 0.10793512528250461
1683491 -0.9967885905486746 0.10576677408626618
1683837 -0.9961018640449282 0.1075494532870209
1684183 -0.9965919402345115 0.10684465653496018
1684529 -0.996643698191547 0.10626350122001925
1684875 -0.997018893674766 0.10797426752587215
1685221 -0.9979682167144429 0.10651958958699972
1685567 -0.9962564395732217 0.10657461611402862
1685913 -0.9973599427793074 0.10759948853682104
1686259 -0.9968614493589864 0.10616037914731678
1686605 -0.9960857241970765 0.10773667403624901
1686952 -0.9964742990534812 0.1075906932952477
1687298 -0.996496157917541 0.10620565681340269
1687644 -0.9971530221788292 0.10832155931857201
1687990 -0.9972290362495245 0.1076011192564254
1688336 -0.9964958015202877 0.10614620818701838
1688682 -0.9978320383018829 0.10798670288571456
1689028 -0.9975672439548234 0.10697179610972883
1689374 -0.9961744320453161 0.10725692256777479
1689720 -0.9967767516131614 0.1069327315863424
1690066 -0.9957722102131147 0.10657036109744186
1690412 -0.9969610444825712 0.10820072957660644
1690758 -0.997933760226017 0.10799971191394725
1691104 -0.9962175026371541 0.10752600863492423
1691450 -0.9970793520801163 0.10804461020573959
1691796 -0.9978843962995612 0.10703773480554808
1692142 -0.9967733467351464 0.10756602312451755
1692488 -0.9966486393078895 0.10725749039901478
1692834 -0.996314116394944 0.10730135390387548
1693180 -0.9967499719736018 0.10791450993838908
1693526 -0.9976770582552117 0.10823754540546983
1693873 -0.9968334353157865 0.10778100748446949
1694219 -0.9968783254918799 0.10819122576006614
1694565 -0.9982268292430438 0.1077388463377022
1694911 -0.996822156520203 0.10787800942232456
1695257 -0.9975548305169217 0.10749662768220054
1695603 -0.9971899346890677 0.10638351707956765
1695949 -0.9964683847696734 0.1080324869265847
1696295 -0.9969994894524572 0.1075369225396476
1696641 -0.9961453443084008 0.10698630548627325
1696987 -0.9966412372723147 0.10856555309434086
1697333 -0.9970837844066215 0.10797442379590905
1697679 -0.996088933179876 0.10758301352895834
1698025 -0.9970233617290097 0.10789189060130228
1698371 -0.9972233550994257 0.10713857048028531
1698717 -0.9966364147435111 0.10828703854038961
1699063 -0.9976700401583823 0.10751392753559513
1699409 -0.9959719506804557 0.10711182871311763
1699755 -0.9958223738821317 0.10779393398671018
1700101 -0.9975820868035744 0.10810903811908591
1700447 -0.996474673743312 0.1078477189792793
1700794 -0.9961804360471916 0.10849350244682152
1701140 -0.9971321763584641 0.10749927956353905
1701486 -0.9967332467628149 0.10835128766210347
1701832 -0.9970933011542134 0.10890603886645378
1702178 -0.9961936877018818 0.10744852040931292
1702524 -0.9966977775137343 0.10824216673504952
1702870 -0.9973094136647512 0.10819601921982352
1703216 -0.9970479250399585 0.1080019197264464
1703562 -0.9967601078754297 0.10823212577800038
1703908 -0.9974544518791622 0.10733358505707288
1704254 -0.9964066016612583 0.10852574878372964
1704600 -0.9969509612991142 0.1092225708772206
1704946 -0.9962045230977615 0.10740519375980455
1705292 -0.9962845661407115 0.10867688743985586
1705638 -0.9977676842731974 0.1087173374319388
1705984 -0.9966474423763285 0.10796660384932755
1706330 -0.9968753894284273 0.10869235713194005
1706676 -0.9973692939391575 0.10786547500244183
1707022 -0.9965893110251579 0.1082296685703972
1707368 -0.9969067400164072 0.10867450043594458
1707715 -0.9969524627700954 0.10754362082778994
1707715 -0.9974036321656388 0.10750922816402053
1708068 -0.9966118352398007 0.10833092532630134
1708421 -0.9974605927008953 0.10860635145216625
1708774 -0.9962121698002557 0.10792272442793047
1709127 -0.9957547088447313 0.10909842329151923
1709481 -0.997705096666145 0.10848754109022919
1709834 -0.9967450869061387 0.10879906416107313
1710187 -0.9967837414196704 0.10884427781866118
1710540 -0.9971092374359366 0.10785483153922294
1710893 -0.9967181213129974 0.10888166762177415
1711247 -0.9973973657870017 0.10877193314484475
1711600 -0.9960401548889105 0.10825772853325613
1711953 -0.9965812812546624 0.10852317924710055
1712306 -0.997309347478977 0.1077193995377396
1712659 -0.9962119543022052 0.10880519825764336
1713013 -0.9962714562006338 0.10850682399214497
1713366 -0.9960953735045577 0.10860450461868838
1713719 -0.9960617885708853 0.10993110499549591
1714072 -0.9970044240114838 0.10958059029469674
1714425 -0.9959948683012794 0.10848036843850209
1714779 -0.9972075248732128 0.10920727027100503
1715132 -0.9974629161145908 0.10816111586864795
1715485 -0.9965281430955487 0.10931042764952309
1715838 -0.996831757329991 0.10836674730404104
1716191 -0.9962620732738899 0.10886887965313725
1716545 -0.9961666145979815 0.10935526395500121
1716898 -0.9970987392085662 0.10896818094697043
1717251 -0.9961916604536646 0.10939518501747672
1717604 -0.9962856578407475 0.10958830355685172
1717957 -0.9973854691713571 0.10876445557955731
1718311 -0.9970244829662191 0.10892809509317448
1718664 -0.9970362283514694 0.10885370465965466
1719017 -0.9961516417410925 0.10928417843838485
1719370 -0.9968283871404083 0.10935206236936208
1719723 -0.9965429313728933 0.10843937685494363
1720077 -0.9960955763771123 0.10921377900014445
1720430 -0.9957957118299117 0.10884335556878022
1720783 -0.9959545989023503 0.10956860147962927
1721136 -0.9967257396418716 0.11010716596567613
1721489 -0.996823990462893 0.10913125567390397
1721843 -0.9956329757514425 0.11010159925354836
1722196 -0.9971621888411252 0.1092109865156461
1722549 -0.996686181976935 0.10865486848641218
1722902 -0.9966040365297505 0.10957997599072451
1723255 -0.9971476512867192 0.1092606016984346
1723609 -0.9962373757230112 0.10905071163295768
1723962 -0.9966771050851183 0.10993244676983892
1724315 -0.9975351995345153 0.10911930417744613
1724668 -0.9961411275478312 0.10991851636882088
1725021 -0.9950088822158487 0.10912243782528123
1725375 -0.9968302577985517 0.10920595169324648
1725728 -0.9965995252341073 0.11019020105305163
1726081 -0.9967662746391917 0.11082907273333215
1726434 -0.9968335780834514 0.10881296808510971
1726787 -0.9956411056030446 0.1089160018301866
1727141 -0.9970620536643399 0.11020996096975089
1727494 -0.9970027739411492 0.10810725218087228
1727847 -0.9959322077971089 0.10979385673418923
1728200 -0.9971261009021068 0.10969153369008437
1728553 -0.9962459763810978 0.10947434637606003
1728907 -0.9966068037131708 0.11122390459537523
1729260 -0.9977080349732202 0.1090364840655204
1729613 -0.9959482280212612 0.10934041000886813
1729966 -0.9971071758253526 0.11019488243588721
1730319 -0.9969016318060631 0.10875380372084201
1730673 -0.9961409686197186 0.11021715421830187
1731026 -0.9966915067548553 0.10953181783840879
1731379 -0.9960767549586286 0.10907386496356855
1731732 -0.996261583920148 0.11092031492501334
1732085 -0.9973311794172929 0.10942483724041177
1732439 -0.9960253490785399 0.10980381935009406
1732792 -0.9966725271197049 0.11072117385283593
1733145 -0.9967448434535751 0.10896366761979497
1733498 -0.9960591343837362 0.11062892133936363
1733851 -0.9968350791754967 0.11001308073366366
1734205 -0.9960244639857301 0.10882842225555218
1734558 -0.9959243058140422 0.11046154488637253
1734911 -0.9968372640992174 0.10895945039629171
1735264 -0.9959020537354915 0.11005203147285485
1735617 -0.9968838566232591 0.11145677023049248
1735971 -0.9967575163495286 0.10967918417586184
1736324 -0.995868246359461 0.11106256514553363
1736677 -0.9972923089087571 0.1103387404656618
1737030 -0.9955556159153787 0.10938162667520188
1737383 -0.9967007613819382 0.11095435842925717
1737737 -0.9971391637262289 0.10907013207129226
1738090 -0.9959818324267504 0.11030527851618022
1738443 -0.9969310846227138 0.11095210834801097
1738796 -0.9964865782346509 0.10902214807289154
1739149 -0.9959404797938366 0.11080981193735275
1739503 -0.9966765449377205 0.11067829094269033
1739856 -0.9954098157070091 0.1104182525564229
1740209 -0.9970963153716443 0.1118219590901116
1740562 -0.997322137393258 0.10930622250168884
1740915 -0.9962001066607222 0.11096485069468807
1741269 -0.9970623603622298 0.11091500483701563
1741622 -0.9965623398536885 0.10880515695280217
1741975 -0.9961392488672182 0.1106844273506789
1742328 -0.9965545876845976 0.11071750026264984
1742681 -0.9957782035791912 0.11039468548211268
1743035 -0.9964527129456047 0.11149091650590541
1743035 -0.9962660044191393 0.11189934937625368
1743395 -0.9967690969565799 0.11030667983306065
1743756 -0.9957325245289551 0.11047136816400813
1744116 -0.9969849470456091 0.11146437248188826
1744477 -0.9968141884447906 0.1096819128371545
1744837 -0.9957300783628864 0.11096319040999472
1745198 -0.997319957287485 0.11055244639071955
1745558 -0.9953213554096347 0.10989905035997033
1745919 -0.9961890523033157 0.1117909899870265
1746279 -0.9967968073276418 0.109801084569917
1746640 -0.9958660855320048 0.11140950736610496
1747000 -0.9971094929263543 0.11144248255805106
1747361 -0.9962047687800338 0.11045308694966735
1747721 -0.9955780322933626 0.11198728977881506
1748082 -0.9971705365992517 0.11027126313037681
1748442 -0.9958603091554943 0.1102943032750985
1748803 -0.9966561986897111 0.11149289993694703
1749163 -0.9963905781542223 0.10954059032458187
1749524 -0.9952377791160028 0.11128685972113166
1749884 -0.9968946857103209 0.11110488159078927
1750245 -0.9956019913490193 0.11030458798507026
1750605 -0.9962182304568016 0.11157853128249401
1750966 -0.9968624263390568 0.11005058231489526
1751326 -0.9963196349176725 0.11175789713446763
1751687 -0.996951261277419 0.11189960856042203
1752047 -0.9961772751521533 0.11026450619345267
1752408 -0.99633034218941 0.11200317027545921
1752768 -0.9970000145286574 0.11036531814820004
1753129 -0.9955888215641244 0.11063622729563165
1753489 -0.9966259638477217 0.11242703104444284
1753850 -0.9963345556704413 0.10942005336890287
1754210 -0.995601688783253 0.11196486563220989
1754571 -0.9966211766756838 0.11147883920011908
1754931 -0.9955093951547235 0.11059008110908988
1755292 -0.996652578381572 0.11275462072432264
1755652 -0.9969684967114993 0.10996174088213163
1756013 -0.9962525525643124 0.11184266537973735
1756373 -0.9967308309465382 0.11170398152989708
1756734 -0.9961184875008738 0.11068318745698237
1757094 -0.9954971062416533 0.11262956733145277
1757455 -0.9968720783480378 0.11078871463642773
1757815 -0.9956659932943766 0.11168255933987666
1758176 -0.9965112886990299 0.11198946495600517
1758536 -0.9968041561903561 0.11093562916574501
1758897 -0.9961351956569816 0.11239719934016183
1759257 -0.996979924207986 0.11163197926438556
1759618 -0.9967182715752462 0.11116474852345691
1759978 -0.9958089883882326 0.11170690939852296
1760339 -0.9974742669515327 0.11107679860208004
1760699 -0.9961565851260277 0.11188430963159655
1761060 -0.9959088550678462 0.112669549889289
1761421 -0.9968045802728295 0.11167597217440885
1761781 -0.9953442419778584 0.11167072123288031
1762142 -0.9965466198830402 0.11341636516043647
1762502 -0.9965850920683748 0.11092808393516378
1762863 -0.9961304120085396 0.11202952781763051
1763223 -0.9973187193899237 0.11247324585208633
1763584 -0.9957514663825965 0.11039586859893119
1763944 -0.9958217267265045 0.11315163673652993
1764305 -0.9965639209332662 0.11102490762330008
1764665 -0.9951509214511481 0.1116753438440795
1765026 -0.9963139521695257 0.11276497111530337
1765386 -0.9963417363006932 0.11074362090662307
1765747 -0.9954462478696702 0.11304800924033365
1766107 -0.9965532421350344 0.11255525612333808
1766468 -0.9954357922362485 0.11166326531521664
1766828 -0.9966207599204391 0.11301851926513566
1767189 -0.9968480978456757 0.11113604145636398
1767549 -0.9961277652758139 0.11241506164606331
1767910 -0.9968893118903103 0.11211585941096044
1768270 -0.9955052387365221 0.11107223435031935
1768631 -0.995921164214138 0.11342853570383489
1768991 -0.9966772930221195 0.11179018405282742
1769352 -0.9955010433029949 0.11239737272526251
1769712 -0.9969585655549602 0.1130897387364431
1770073 -0.9963510156511532 0.11112713988438144
1770433 -0.9954732953815763 0.11269655324423139
1770794 -0.99690337454749 0.11163583100991269
1771154 -0.9959956663941351 0.11157058695729692
1771515 -0.9959050206850543 0.11384082954405068
1771875 -0.996797142420784 0.11153972488142713
1772236 -0.9956929347723054 0.11222170493596167
1772596 -0.9966212812760565 0.11276029640174243
1772957 -0.9962023332908407 0.11159321220260622
1773317 -0.9960817639375598 0.11430919110977311
1773678 -0.9967934037891382 0.11164749582541073
1774038 -0.9956774939033721 0.11251603749888782
1774399 -0.9968799100605151 0.11360372614482203
1774759 -0.996538113399145 0.11135089255829268
1775120 -0.9960092441423303 0.11295696028309941
1775480 -0.9968392501760136 0.11240670501877001
1775841 -0.9953618808666145 0.11196278650549386
1776201 -0.9966594507210401 0.11380491028392714
1776562 -0.9969842796037975 0.11229622188957088
1776922 -0.9955129272846222 0.11335518289868825
1777283 -0.9963505852692301 0.11305052287438534
1777643 -0.9957092843254 0.11145589611070267
1778004 -0.9960365985858969 0.11407272288627532
1778364 -0.9971891216993508 0.11201146781031392
1778725 -0.9956732537193268 0.11248161864613655
1779086 -0.9964674546264506 0.11265856659867161
1779086 -0.9960236559138886 0.11201860400339433
1779453 -0.9955842383079109 0.11425421924733292
1779821 -0.9967787703450164 0.11303062573277893
1780189 -0.9951666340631847 0.11316896478416623
1780557 -0.9967759385731914 0.11452774825245517
1780925 -0.9963222392946981 0.11122046402017736
1781293 -0.9958552374300362 0.11347319604310897
1781661 -0.9970605035466359 0.11280036649310013
1782029 -0.9954581017051466 0.11253287632659617
1782397 -0.9969626518214986 0.11324984415861337
1782765 -0.9958726276406731 0.11197889820853812
1783133 -0.9955712616874938 0.1133081252165621
1783501 -0.9963037691829576 0.11297715097672888
1783869 -0.9952545371276966 0.1125048993114363
1784237 -0.9964137241544686 0.11475067908449024
1784605 -0.9961237976999524 0.11280211548340567
1784973 -0.9958395661296705 0.11459440210721901
1785341 -0.9967639902415694 0.11346504908138631
1785709 -0.9954569810646628 0.11261232806198693
1786077 -0.9967579290052169 0.11457678622203231
1786445 -0.9964402193129789 0.11164937434130313
1786813 -0.9956912947365687 0.1143339065369144
1787181 -0.9961050028709749 0.11321412816003347
1787549 -0.9954534919239175 0.1130015012685643
1787917 -0.9962210428552059 0.1142563568544327
1788285 -0.9963194041103821 0.11268497296254643
1788652 -0.9957067396764467 0.11415312596630518
1789020 -0.996448182261494 0.11336351658767095
1789388 -0.9957150747779391 0.1124524245782498
1789756 -0.9964821544063417 0.11470652862949746
1790124 -0.9968830484257415 0.11248158780258485
1790492 -0.9951873391748142 0.11373032451489003
1790860 -0.9961911805678786 0.11408609099729032
1791228 -0.9953678617026142 0.1125002449451334
1791596 -0.9955573543217445 0.11502528361232829
1791964 -0.9968456179200947 0.11350455562452172
1792332 -0.9947951452507919 0.11387888761347313
1792700 -0.9965881239806216 0.11384059551532297
1793068 -0.9963693869985436 0.11256961803406468
1793436 -0.9960029042006783 0.11434565491686093
1793804 -0.9960065266317173 0.11337040608870264
1794172 -0.9947039790499503 0.11330516903915606
1794540 -0.9959224929633255 0.11407816008764828
1794908 -0.997536838566543 0.11346711426365813
1795276 -0.9959279286215221 0.11455660252103132
1795644 -0.996542457130957 0.11356980769966508
1796012 -0.9957077942561221 0.11349835210238564
1796380 -0.9965206754771366 0.11504604012990015
1796748 -0.9962505599545095 0.11313272366551128
1797116 -0.995177421233436 0.11411985643250817
1797484 -0.9955310823030948 0.11390144866559676
1797851 -0.9931844710159766 0.11296840562993299
1798219 -0.9966968548026933 0.11451394483259922
1798587 -0.9950421223487748 0.11310027877970566
1798955 -0.9971058483192339 0.1135950562169256
1799323 -0.996507226005741 0.11431865097742508
1799691 -0.9962454747136457 0.11402535479697115
1800059 -0.9973007892574753 0.11455133709049647
1800427 -0.9959968111555899 0.11302375376942213
1800795 -0.9962799430682884 0.11437430895823315
1801163 -0.9884048093196675 0.1120423702807981
1801531 -0.9969473825848219 0.11398618143185393
1801899 -0.9946017667335096 0.11425562217205165
1802267 -0.9979536525602858 0.11456303788056171
1802635 -0.9956386132389216 0.11473719297361193
1803003 -0.9971894566379504 0.1147821304621222
1803371 -0.9956286121654252 0.11433833032127497
1803739 -0.9967351664789015 0.11506834595478901
1804107 -0.996484697220002 0.11390738158445315
1804475 -0.9960525274277918 0.11436837967207505
1804843 -0.9964997112224976 0.1139164690936701
1805211 -0.9961786894586752 0.1146497064110216
1805579 -0.995902537262115 0.11458273346870249
1805947 -0.9963505338314322 0.11429304328533758
1806315 -0.9957112590916634 0.11449749494486405
1806683 -0.9956447898090046 0.11382606947904599
1807050 -0.9953034476914188 0.11489608199178453
1807418 -0.9965020487792523 0.1146620455352195
1807786 -0.9965708548195182 0.11446916262898135
1808154 -0.9961465864315499 0.11505706452192932
1808522 -0.9966186446286378 0.11468078007602237
1808890 -0.9960455601977027 0.11450291870211776
1809258 -0.995630313208219 0.11476899518627746
1809626 -0.9953037504201275 0.11406866779954121
1809994 -0.9950844818462746 0.11516734842356617
1810362 -0.995610631603419 0.11462429142107067
1810730 -0.99525547229307 0.11525250937041583
1811098 -0.9960382830520318 0.11508267045348675
1811466 -0.9958686765222007 0.11476441025200723
1811834 -0.9958682951985349 0.11500466502165729
1812202 -0.9960763677961454 0.11414831385790242
1812570 -0.9954381661831807 0.11513309423075094
1812938 -0.9957750158514309 0.11523684417775262
1813306 -0.9959582703833384 0.11434010112849873
1813674 -0.995615632932062 0.11577636722017332
1814042 -0.9960438268655215 0.11466444278112396
1814410 -0.9951391188927865 0.11575319736272471
1814778 -0.9962033411892477 0.11608385038008984
1815146 -0.9956382382090921 0.11436170243274121
1815514 -0.9957313692582778 0.11618358664715725
1815882 -0.9965490115517416 0.11487042533500075
1815882 -0.995467315176671 0.11439455413392784
1816257 -0.995293137086902 0.11546369570932062
1816633 -0.9967879651906932 0.1143612122159402
1817008 -0.9953036008164367 0.11520621715561555
1817384 -0.996415550084235 0.11561939095768815
1817759 -0.9959610066928709 0.11512216209924026
1818135 -0.9954836064189416 0.11562368299047782
1818510 -0.9966183267044293 0.11451297368738111
1818886 -0.9957911268812565 0.11543416524302175
1819262 -0.9960852190329476 0.11541155387390241
1819637 -0.9952287402467416 0.11467811151445506
1820013 -0.9953079861571894 0.11593065426101898
1820388 -0.9960050304692036 0.11489044421108678
1820764 -0.995711037677012 0.11585658921042845
1821139 -0.9964786618232816 0.11587929611328161
1821515 -0.9962084707016016 0.11496804839848578
1821891 -0.9952938178210253 0.11580962233859468
1822266 -0.9966453031067 0.11469036315689271
1822642 -0.9956394849352664 0.11499711123883259
1823017 -0.9959218438832772 0.11550682576851355
1823393 -0.995112254860222 0.11540690338040654
1823768 -0.9952929849190437 0.1160021718455975
1824144 -0.9961081506471867 0.11510631773273215
1824520 -0.9953917457517782 0.1164437187493182
1824895 -0.9970596859132689 0.11614014818425096
1825271 -0.9954803839604249 0.11534905487308761
1825646 -0.9958661696325395 0.11563880922859018
1826022 -0.996192116543362 0.1145710778483938
1826397 -0.9951132226818384 0.11581126139326042
1826773 -0.9961387067118131 0.11551825364379277
1827149 -0.995117082007313 0.11522397066597438
1827524 -0.9953262294922514 0.11604967065164755
1827900 -0.9956059099899691 0.11541305755346311
1828275 -0.9955633931431667 0.1160115441514731
1828651 -0.9961385533666669 0.11563876269626783
1829026 -0.9958002534926049 0.11552383484273321
1829402 -0.9958731050635026 0.11622133814857881
1829778 -0.9962990432106346 0.11472880551870204
1830153 -0.9957227261676137 0.11614755359513218
1830529 -0.9966246736909191 0.11554537030343641
1830904 -0.9949198106414482 0.11598167853815763
1831280 -0.9953263088094918 0.11638466895189302
1831655 -0.9957826507391971 0.11590700613674446
1832031 -0.9958432364828789 0.11653675081508763
1832407 -0.9964397394675992 0.1160090909239447
1832782 -0.9952066115365354 0.11610124344156462
1833158 -0.9962149872878125 0.11725902629533647
1833533 -0.9960084738194374 0.11539403955014559
1833909 -0.9953341075453458 0.11653539456183844
1834284 -0.995876194221361 0.11576668522576342
1834660 -0.9951362831462325 0.11638392210706215
1835036 -0.9965687503983943 0.11594605137077613
1835411 -0.9952546889601853 0.1163594296556369
1835787 -0.995594761801085 0.1162989141678943
1836162 -0.9960085979324272 0.11587580760432882
1836538 -0.9951309261488883 0.11701171708266228
1836913 -0.9965155660892944 0.11650492614871516
1837289 -0.9952594655734973 0.11641881735685443
1837665 -0.9958273028779364 0.11665913101951406
1838040 -0.9960154223684535 0.11552790189339956
1838416 -0.9954650972519437 0.11654396606063705
1838791 -0.9958079287460543 0.1161014725666181
1839167 -0.9947661140025795 0.11669137361873728
1839542 -0.9950144948222934 0.11680236257280396
1839918 -0.9958416552358719 0.11596726064628633
1840294 -0.995225921187572 0.11744902223714693
1840669 -0.9962962910583073 0.11733963048952799
1841045 -0.9959737737773379 0.11647863384435461
1841420 -0.9959207527333843 0.11683365360236794
1841796 -0.9963295624647545 0.11602511127883
1842171 -0.9956238828582975 0.11672725108288201
1842547 -0.9962623579175597 0.11662329676282567
1842923 -0.9953551414583796 0.11710673095166912
1843298 -0.9954838791979704 0.11721237969167468
1843674 -0.9957340171658184 0.11675477173073183
1844049 -0.9950352960714492 0.11753820984821584
1844425 -0.996530551464624 0.11703552284121262
1844800 -0.9959266398335331 0.11760907255202036
1845176 -0.9957929171017477 0.11709903266126498
1845552 -0.9959568729964294 0.11635033946941473
1845927 -0.9952178963707603 0.11690404707591626
1846303 -0.996041926890822 0.1172249526859659
1846678 -0.9946640024952436 0.1169315570196775
1847054 -0.9952738930360653 0.11757472597345979
1847429 -0.9955414960639198 0.11668883801974607
1847805 -0.9950708278174916 0.11764113874327572
1848181 -0.9964054568165095 0.11763474338996267
1848556 -0.9957616832202089 0.1172752881252705
1848932 -0.9962020642965127 0.11768625129391704
1849307 -0.99622929280437 0.11668997536064053
1849683 -0.9948401396990977 0.11752293366332918
1850058 -0.996441554527491 0.11638750956921796
1850434 -0.9954649299459213 0.11686299894498983
1850810 -0.995292203172387 0.11755255040846466
1851185 -0.9965118886139749 0.11797353337459429
1851561 -0.9956717593025868 0.11760535655409496
1851936 -0.995722277333927 0.11757366498136905
1852312 -0.9961125569075073 0.11700983688692651
1852687 -0.9954253335434512 0.11690471091744556
1853063 -0.9961101933094373 0.11703601152891871
1853439 -0.9944866005456426 0.11669258489131783
1853439 -0.9946309741542555 0.11768100678516799
1853822 -0.9956487365223355 0.11768643278391391
1854205 -0.9948320565730517 0.11728622747037215
1854589 -0.9955713821741824 0.11890458362966866
1854972 -0.9954575811820351 0.11615475144281172
1855355 -0.9951346352697925 0.11926673456161066
1855739 -0.9968114713506645 0.11704721195358214
1856122 -0.9950341602565517 0.11774795311385126
1856505 -0.9961777990690884 0.11811399406868595
1856889 -0.9947251431529597 0.11589465429278786
1857272 -0.9947959992756914 0.11901457960294025
1857655 -0.9960371182856055 0.1173750057067082
1858039 -0.9944528093619964 0.11821418016666642
1858422 -0.996281032785808 0.11833957467521473
1858805 -0.9955882891994917 0.11680196250329854
1859189 -0.9955614129154114 0.11926912158922487
1859572 -0.9959868783957947 0.11676718844450076
1859955 -0.9951374671997566 0.11801433055218043
1860339 -0.9962193187258978 0.11810089591184803
1860722 -0.9945360835174574 0.11687918826335186
1861106 -0.9958229746983007 0.1187269750534552
1861489 -0.9956571358485589 0.11682644321104936
1861872 -0.9951733105405574 0.1191227708116472
1862256 -0.9957371955926383 0.11806655916600003
1862639 -0.9942082448662765 0.11776681347411458
1863022 -0.9959698777545449 0.1192884434334553
1863406 -0.9954257128991686 0.11709430186944965
1863789 -0.9953162068118597 0.11942722773708683
1864172 -0.9961912032959382 0.11712554003919302
1864556 -0.9945347775397576 0.11810851642376188
1864939 -0.9961660545281283 0.11918162340157651
1865322 -0.9952142753278399 0.11659906496360496
1865706 -0.9949647472724943 0.1200277457428859
1866089 -0.9962587253411178 0.11769146580963358
1866472 -0.9944663218618427 0.11848164107128946
1866856 -0.9966213443930881 0.11907271072116386
1867239 -0.9958116699271385 0.11737088911940025
1867622 -0.9956800712647081 0.11920011930032487
1868006 -0.9956538177645322 0.11738511214138256
1868389 -0.9944691620316208 0.11821662924899033
1868773 -0.9958591960672991 0.11885114681297027
1869156 -0.9944649348168946 0.11826700166955496
1869539 -0.9956412022487724 0.1195301535590613
1869923 -0.996112360403591 0.11747653413735222
1870306 -0.995148923310423 0.11946193142994009
1870689 -0.9958768090352227 0.1182077186110295
1871073 -0.9947690709975501 0.11817305400818653
1871456 -0.9956709166085419 0.11960283262820937
1871839 -0.9953160706548697 0.1178943582007972
1872223 -0.9944621084234931 0.11954993494294916
1872606 -0.9963910521004354 0.11894619054125798
1872989 -0.9948085573599121 0.1185707361885613
1873373 -0.9957421728081657 0.11989484775374382
1873756 -0.9961470905995817 0.11809079560589072
1874139 -0.9949226734996164 0.11953143940091478
1874523 -0.9950654407915414 0.11766237749244018
1874906 -0.9946028297193833 0.11825801147107286
1875289 -0.9960987309768162 0.11911766562332152
1875673 -0.9947003072605137 0.11758197930213304
1876056 -0.9945275489845639 0.11951752789819557
1876440 -0.9952282473769865 0.1178353825628488
1876823 -0.9945960864962832 0.11901548755660785
1877206 -0.9960448264562655 0.11935364098362773
1877590 -0.9946891738225138 0.1181242379909737
1877973 -0.9954628074692323 0.12003678622262046
1878356 -0.9958885898037448 0.11757430701245378
1878740 -0.9949079055145515 0.11967871705889513
1879123 -0.9955939473084819 0.11847341145054693
1879506 -0.9943135340859369 0.11876337942197529
1879890 -0.9958104205553828 0.11999101616438596
1880273 -0.9950814205669085 0.11792012941615813
1880656 -0.9947455406253249 0.11991772807836693
1881040 -0.9962636510245153 0.11840517765003336
1881423 -0.9955296181344756 0.1192159817159938
1881806 -0.9962642099025125 0.11995196952580284
1882190 -0.9954059629315306 0.11780313216674518
1882573 -0.9951263400562652 0.12029754126976405
1882956 -0.9956854280156819 0.11834577801815098
1883340 -0.9944847240785034 0.11889849115992503
1883723 -0.9955973121251012 0.1198092310550615
1884107 -0.9947071332330609 0.11821120619629782
1884490 -0.9950624773288473 0.12086704300922414
1884873 -0.9959366131991328 0.1188258635178721
1885257 -0.994941817691287 0.1196836749307892
1885640 -0.9962024071543285 0.11971670250429699
1886023 -0.9950630305806241 0.11837360756109289
1886407 -0.9955888217254607 0.12037410425353959
1886790 -0.9951060976787489 0.11807863406003052
1887173 -0.9944086220039353 0.12099872817119615
1887557 -0.995610554940156 0.11917866474320472
1887940 -0.9948571195138683 0.11979530057309842
1888323 -0.9959027718226902 0.1212170354826676
1888707 -0.9955680753473528 0.118562215859394
1889090 -0.995311987485426 0.12101314084455918
1889473 -0.9962408723143753 0.11842747451119294
1889857 -0.9943810294279505 0.11936981671386893
1890240 -0.9954307894279969 0.12011354173203924
1890623 -0.9948585939733408 0.11910025724133204
1891007 -0.994976539900675 0.12097602309711056
1891390 -0.9957457234103281 0.1189716553895966
1891774 -0.9944462927121839 0.12062883089171364
1891774 -0.9947735786899978 0.11985512629406501
1892165 -0.9954188795058034 0.12091875629983989
1892556 -0.9954021390852275 0.11877654188163556
1892947 -0.995243704105723 0.12067952466595447
1893339 -0.9954812598156174 0.11933711997752838
1893730 -0.9945639692769114 0.11909731181624084
1894121 -0.995611657971873 0.12046632321471575
1894512 -0.9945486795223537 0.11872161502567474
1894904 -0.9950362861787247 0.12063023084721512
1895295 -0.9951599196210223 0.11910867556174555
1895686 -0.994646057633569 0.12070090341546334
1896077 -0.9957537545458646 0.12014894011040686
1896469 -0.9945524188253942 0.12022092565755763
1896860 -0.9956973164244267 0.12078352347332996
1897251 -0.9949788056605701 0.11909216869146687
1897643 -0.9953002043580754 0.12088864045733409
1898034 -0.9952038889845355 0.11873445412861934
1898425 -0.9947192659139993 0.12052715706057576
1898816 -0.9952331574561362 0.1201069749451628
1899208 -0.9943180047522835 0.11956482762200857
1899599 -0.9963332378150263 0.12181388584126615
1899990 -0.9951152111193697 0.11905793118663337
1900381 -0.9952861151344651 0.12191250008122677
1900773 -0.9958474155249383 0.11979587122338273
1901164 -0.9942981398084105 0.1200263610433812
1901555 -0.9952316826598621 0.12103891942654202
1901947 -0.994354185974784 0.12004413001308728
1902338 -0.99561906284503 0.12181535888013414
1902729 -0.9950308725578587 0.11947923965236874
1903120 -0.994736839644237 0.12153425302810969
1903512 -0.9959360395941516 0.12035150767482561
1903903 -0.9942625536265838 0.12038556207368249
1904294 -0.9957148474383584 0.12170958821258443
1904685 -0.9950742419822487 0.11966063944167926
1905077 -0.9945471786398309 0.12206325854959366
1905468 -0.9954728800435175 0.11980258918344455
1905859 -0.9945432895495671 0.12100178971947642
1906250 -0.9956425579338728 0.12059954050372251
1906642 -0.9944211811652327 0.12100360497658208
1907033 -0.9956320945250876 0.12203474293332758
1907424 -0.994902466659996 0.11980996731068534
1907816 -0.9950866898102827 0.12169644821771039
1908207 -0.9960430745258176 0.11997538547946777
1908598 -0.9944689135923426 0.12033491499519922
1908989 -0.9955826347467878 0.12128749285352639
1909381 -0.9940873115169162 0.11990889571400569
1909772 -0.9951669499440748 0.12211698053380808
1910163 -0.9944806352066362 0.11959932591348751
1910554 -0.9945811924084038 0.12169112774414118
1910946 -0.9955112301305394 0.12083031380876343
1911337 -0.9943339674334722 0.12102461212726139
1911728 -0.9958558947208884 0.12245924658085881
1912120 -0.9949651151788305 0.12025460954963883
1912511 -0.9954160559028276 0.12189625645088117
1912902 -0.9957045405907134 0.11983228865579414
1913293 -0.9942363835251643 0.12173648091676664
1913685 -0.9953049482408018 0.12066823803469148
1914076 -0.9942067838759684 0.1213555678209063
1914467 -0.9953829278246052 0.12241682382783776
1914858 -0.9949559691799316 0.12066542001477601
1915250 -0.9949120444589238 0.12248028684356271
1915641 -0.9956175464071425 0.12090582638739691
1916032 -0.994452898397247 0.12124974752121499
1916424 -0.9955049338009442 0.12240759494864062
1916815 -0.9945459300988149 0.12043487494346979
1917206 -0.9948763884420512 0.12229864000620445
1917597 -0.9951597672777496 0.11996336465036887
1917989 -0.9945834679502864 0.12196463417101236
1918380 -0.9958288855629965 0.12135783654622798
1918771 -0.9950355251869302 0.12183619868048037
1919162 -0.9957311812128914 0.12289539021613728
1919554 -0.9950454185727904 0.12014104604836562
1919945 -0.9947254006799537 0.12190321318609025
1920336 -0.9951598968746576 0.12073896949679105
1920727 -0.9938932883174276 0.12134969094173205
1921119 -0.9951465070859369 0.12258225458299653
1921510 -0.9940709424843659 0.12114965884791742
1921901 -0.995625721991008 0.12304628157404135
1922293 -0.9946665908384622 0.12027397637177374
1922684 -0.9946050599583895 0.1221153414881391
1923075 -0.9954044773999493 0.12103658169961172
1923466 -0.99439319699676 0.12163119821917678
1923858 -0.9957779845489828 0.12326321339538963
1924249 -0.9949417819468211 0.12073233941797501
1924640 -0.9940803492213279 0.12255254015957086
1925031 -0.9956308496796467 0.12159924522930189
1925423 -0.9940209752443343 0.12206330858588361
1925814 -0.9955441099781793 0.12240259143079255
1926205 -0.995197499537772 0.12097669308365404
1926597 -0.9951960621146992 0.12303788737774073
1926988 -0.9950463166633131 0.12072575786589675
1927379 -0.9947897265809319 0.1227286639436767
1927770 -0.9954423701716506 0.12138610873425437
1928162 -0.9939353118146466 0.12093834069591565
1928553 -0.9955841007581316 0.12302680167054562
1928944 -0.9944856146538524 0.12160320302563658
1929335 -0.9946350134414909 0.12338911182289074
1929727 -0.9955715862659202 0.12232634736139436
1930118 -0.9944258243983606 0.12302079578122022
1930509 -0.9958938880893355 0.12237978738153765
1930901 -0.9949900811884443 0.12121609052194854
1930901 -0.9950227705790381 0.1218949845139628
1931300 -0.9950175444228692 0.12180324915514854
1931699 -0.9943963326271548 0.12224320980580605
1932099 -0.9941312685434169 0.12193826290894685
1932498 -0.9944807454240145 0.12280076993906457
1932897 -0.9950314533910648 0.12245933514766695
1933297 -0.9949453657698666 0.12274008920931205
1933696 -0.9953141668379417 0.12274959175511656
1934095 -0.9949663068634884 0.12230474741616246
1934495 -0.9947834697060317 0.1223763974969041
1934894 -0.995002164851813 0.12158560808660826
1935293 -0.9942716764771297 0.12236672747724092
1935693 -0.9947987399181786 0.12234997599745438
1936092 -0.9947500222867661 0.12294351898363019
1936492 -0.9947796176691734 0.12260638418057782
1936891 -0.9947182269761299 0.1226224393921159
1937290 -0.9947380298991576 0.12309069488550832
1937690 -0.9947036508748012 0.12222124236857902
1938089 -0.994976217373921 0.12242007630027667
1938488 -0.9947911623670705 0.12238993114908636
1938888 -0.9947717180707742 0.12263158847190767
1939287 -0.9951487694593585 0.12294559593936327
1939686 -0.9941581418217705 0.12227747668857387
1940086 -0.994759838679731 0.12307850855784155
1940485 -0.9943612867651856 0.12205475702863997
1940885 -0.9948242665697884 0.12300640259252962
1941284 -0.9950040320241483 0.12286061170182004
1941683 -0.9948472519716738 0.12287420440983046
1942083 -0.9949881042557839 0.12285723514734116
1942482 -0.9946189597007913 0.12259883358557774
1942881 -0.9951766178457906 0.12308458168685499
1943281 -0.9941333839514167 0.12248370260051876
1943680 -0.994273123974594 0.12206019901074634
1944079 -0.9949958550646818 0.12305889426484201
1944479 -0.995013594522253 0.12348883392535269
1944878 -0.9936323485302496 0.12307760748665779
1945277 -0.9953130714623092 0.12308445757360163
1945677 -0.99499754561085 0.12318640165998938
1946076 -0.9944922441650147 0.12242897387920541
1946476 -0.9944956987184097 0.12340885901429605
1946875 -0.9948356006902286 0.1238494448869776
1947274 -0.9954685433433934 0.1233383643864337
1947674 -0.9939825233093041 0.12376222985833993
1948073 -0.9967873962252456 0.12439493472847007
1948472 -0.9963070111940674 0.12380263308360365
1948872 -0.9914677856082595 0.12082963278882618
1949271 -0.9949546625354755 0.12321688342759304
1949670 -0.9940795709304139 0.12279051664569904
1950070 -0.9906632663340175 0.12222451128712251
1950469 -0.9943633252933245 0.12386225073573542
1950869 -0.9983472795091785 0.12371967272618346
1951268 -0.9941092109417307 0.12379664241048931
1951667 -0.9943098802654187 0.12370816318348915
1952067 -0.9922443788079722 0.12266862916458489
1952466 -0.9944431407075072 0.12373462011022593
1952865 -0.9944617729553125 0.12342544686380467
1953265 -0.9946873709607742 0.12325379270712201
1953664 -0.9945711088897374 0.12323102435591896
1954063 -0.9940142816326631 0.12386277114564573
1954463 -0.9947440454469899 0.12393948253403694
1954862 -0.9948458172767998 0.12408924004581223
1955261 -0.9942688613449555 0.12395178146092069
1955661 -0.9946285749109955 0.12394393911562367
1956060 -0.9947008163684005 0.1241980705957914
1956460 -0.9951866499590257 0.12414113804347812
1956859 -0.9953841654478385 0.123952054170741
1957258 -0.9948158737368725 0.1236546184946857
1957658 -0.9946330474973071 0.12365379835375716
1958057 -0.9943447312677712 0.12421920422305634
1958456 -0.9946208433549608 0.12405618045740074
1958856 -0.9946126466349661 0.12511230289334335
1959255 -0.9943963019026418 0.1245110145595377
1959654 -0.9948094115809172 0.12410327267169995
1960054 -0.9952851629436925 0.12431860832308003
1960453 -0.9951156271296691 0.12382440275751162
1960853 -0.9944175456844542 0.12408300293420031
1961252 -0.9938604522374944 0.12350670864419477
1961651 -0.9945599938256732 0.12381683816880017
1962051 -0.994247430778063 0.12406098946009549
1962450 -0.994649161417017 0.12449490334348368
1962849 -0.9946944780259526 0.12469050796608537
1963249 -0.9945851573813458 0.12454027625743605
1963648 -0.9948480697303212 0.12394189366794905
1964047 -0.9946410050784178 0.1239233307278958
1964447 -0.9954351826393527 0.12427827890482156
1964846 -0.9949148762457408 0.12417244653346249
1965245 -0.9949578973894038 0.12435928301008407
1965645 -0.9942269648504964 0.1241778811726171
1966044 -0.9944201362941935 0.12458941978225739
1966444 -0.994388511377396 0.12442716772118316
1966843 -0.9945114867209301 0.12328761669819799
1967242 -0.9942947350672274 0.12498963037022384
1967642 -0.9946247893560374 0.1251162945167402
1968041 -0.994800806524028 0.12457959069863875
1968440 -0.9947018694974543 0.12457020692988145
1968840 -0.9940166055475315 0.12419743691637178
1969239 -0.9942756416972844 0.12482740336038692
1969638 -0.9941573860768124 0.12414200544070525
1970038 -0.993926104525192 0.12551378850681216
1970437 -0.9947203203558787 0.12494247310969499
1970837 -0.9951195756843678 0.12501287255969398
1970837 -0.9947107329274364 0.12485126768813408
1971244 -0.995269539253663 0.12478168631399023
1971652 -0.9947194292144579 0.12461113817292524
1972059 -0.9944654178666035 0.12503225106396643
1972467 -0.9948420831706092 0.12472804749230407
1972875 -0.9947976996060632 0.12534666200737582
1973282 -0.9942185468251318 0.12497257813700619
1973690 -0.9950266336945536 0.1250042102055837
1974097 -0.9938367809841635 0.1250269039177209
1974505 -0.9950420039323866 0.1249606398336345
1974913 -0.9940439683947401 0.1254736865921861
1975320 -0.9951168817993319 0.12536180628889193
1975728 -0.9944500046988256 0.12509562539231653
1976136 -0.9942247047618552 0.1249548871151935
1976543 -0.9948264746201476 0.12449885262383899
1976951 -0.9944292017610051 0.1251941049027957
1977358 -0.9950619836115593 0.12448062715364706
1977766 -0.994559525098915 0.12539671084210277
1978174 -0.9946401147631143 0.12533946562709802
1978581 -0.9946713555414495 0.12538916104012432
1978989 -0.994558558809395 0.1249388583515761
1979397 -0.9943566267220614 0.12490902092653001
1979804 -0.9941931704097884 0.12571498446063228
1980212 -0.9947015290461992 0.12535354747264285
1980619 -0.9935246139686912 0.12562651556500123
1981027 -0.994580930537156 0.12532797030106219
1981435 -0.994493507440916 0.12607473304682631
1981842 -0.9949265345819893 0.12553357791977626
1982250 -0.994257077415206 0.12561727646719004
1982657 -0.9943249445059378 0.1253343067191533
1983065 -0.9944328425081839 0.12526483304100852
1983473 -0.9938988306306422 0.12536569056712407
1983880 -0.9946690020945759 0.12490791269887688
1984288 -0.9942249358523799 0.12575489640728718
1984696 -0.9944591509228987 0.12558888679849006
1985103 -0.9935247286104724 0.12615187960332663
1985511 -0.9941201150214544 0.12593098507228695
1985918 -0.9943143443667027 0.1254351395762826
1986326 -0.994376118989294 0.12599778797975386
1986734 -0.995090286595822 0.12567180909344444
1987141 -0.9940504652170482 0.12593787137582776
1987549 -0.9949179192176725 0.12607452973668182
1987957 -0.994114379554119 0.12591623889077402
1988364 -0.9943616009375223 0.1257592078269361
1988772 -0.9939546997670974 0.12557742061755328
1989179 -0.994280531126569 0.12655674757252658
1989587 -0.9948054878260643 0.12598096871060105
1989995 -0.9944188480928304 0.12653923439293227
1990402 -0.9954369579933101 0.12680640102118346
1990810 -0.9939273530988523 0.12509861274946227
1991218 -0.9944936956952584 0.12717199942414462
1991625 -0.9938519718759798 0.1252964176683915
1992033 -0.994071989987889 0.12677846146710656
1992440 -0.9947782209355363 0.12587722943409108
1992848 -0.993792112688745 0.1262677311034844
1993256 -0.9944261094511069 0.1265733137887046
1993663 -0.993527846882488 0.12529034615872156
1994071 -0.9949914964702188 0.12775228546565587
1994478 -0.9940084297760537 0.1251246801275189
1994886 -0.9945638828789597 0.12737063681675795
1995294 -0.994541848951701 0.12527401807779043
1995701 -0.993525163727921 0.1266511178096101
1996109 -0.9947279549841261 0.1265748102695531
1996517 -0.9938580498715824 0.1261809908482787
1996924 -0.9950381571475592 0.12726504838912925
1997332 -0.9942028002934116 0.12561821102659995
1997739 -0.9939717549803528 0.1272840787678525
1998147 -0.9939755258952471 0.1252576423801065
1998555 -0.9937074938191004 0.1272108402949074
1998962 -0.9946979187779253 0.12595672213797188
1999370 -0.9931642726746599 0.12639280971380343
1999778 -0.9947124512135456 0.12727052243284617
2000185 -0.9940113154095834 0.12636786458874757
2000593 -0.9950597574945576 0.1277896762891014
2001000 -0.9939811957888801 0.12528647615513314
2001408 -0.9940791939866228 0.12743724152369051
2001816 -0.9947601031586876 0.1261882617162762
2002223 -0.9936697576730803 0.12705108691922737
2002631 -0.994896880498722 0.12705227222051507
2003038 -0.993666347483161 0.12587434327766908
2003446 -0.9945840304238832 0.12719769187972044
2003854 -0.9936422863253696 0.12603992379595258
2004261 -0.9944909713757908 0.12834730381756693
2004669 -0.9946109529470898 0.12575186160693114
2005077 -0.9941175055675784 0.12750957173401553
2005484 -0.9944420190701453 0.1263038805121421
2005892 -0.9939100495911848 0.1263442360759145
2006299 -0.9954784622242975 0.126901913782333
2006707 -0.9939199973115341 0.1262815089042049
2007115 -0.9940627554532661 0.12794640997502904
2007522 -0.9940953164497841 0.12639661945848774
2007930 -0.9941106573764547 0.12804276243297352
2008338 -0.9943129613267903 0.12713494851633492
2008745 -0.9935960098543088 0.12747195484538443
2009153 -0.9944970270476065 0.12651038241612586
2009560 -0.9937719868103201 0.12709459365784384
2009968 -0.9947863523556325 0.1281766011560565
2010376 -0.9940516960979836 0.1266564721957854
2010783 -0.9943798190590533 0.12766717219041895
2011191 -0.9945747226856123 0.12676931081550638
2011599 -0.9933677152457558 0.12795404167942032
2011599 -0.994067171896364 0.12826672148329948
2012015 -0.9945029071387478 0.12652398833061645
2012431 -0.9937243626807913 0.12777676101787627
2012847 -0.9954777628013579 0.1265892994131437
2013263 -0.9942811911143298 0.12753969959768985
2013679 -0.9951081595806205 0.126880378334974
2014095 -0.993751608764661 0.1267610895246203
2014511 -0.9946083620933107 0.128364604442672
2014927 -0.9938526623877961 0.1269721115823933
2015343 -0.9938492125582894 0.1285929489060271
2015759 -0.9937496962465822 0.12658783438544377
2016175 -0.9938386333218768 0.12820883624197657
2016591 -0.994429923655445 0.12789792953198206
2017007 -0.9937947672166185 0.12819885497331546
2017423 -0.9943623656611345 0.12681591050253707
2017839 -0.993492544655062 0.12721171279407595
2018255 -0.9945655139909315 0.12873349865338704
2018671 -0.9935939721764614 0.12754729589266905
2019087 -0.9942174868104007 0.1282522089156539
2019503 -0.994279030446102 0.12736334539945646
2019920 -0.9939512783874699 0.12830661695953693
2020336 -0.9943916917763316 0.12744854921398652
2020752 -0.9942725134744226 0.1277767404626675
2021168 -0.9947438957926967 0.12781347762394485
2021584 -0.9940427798285502 0.12764982551220078
2022000 -0.9941067679036072 0.12874700432832126
2022416 -0.9934893980986277 0.12712384909497162
2022832 -0.9934523276529325 0.12901007344225232
2023248 -0.9943691769481965 0.12714588281126582
2023664 -0.9934899984409784 0.12886371071714567
2024080 -0.9941924477973094 0.12797676167767913
2024496 -0.9943607199623279 0.12830502244203504
2024912 -0.995455335144997 0.12776723512029323
2025328 -0.9936418933915253 0.12762795711529007
2025744 -0.994385156324561 0.12866631404156445
2026160 -0.9934241549269633 0.12744809006903643
2026576 -0.9937799687344591 0.1289674622929553
2026992 -0.9944881041196517 0.12721343069461985
2027408 -0.9936299467548524 0.12911816604631268
2027824 -0.9944406582898302 0.12800529953058593
2028241 -0.9939407424165566 0.12879510129572802
2028657 -0.9944930396678918 0.12780176255195497
2029073 -0.9938025936805003 0.12806742794567547
2029489 -0.9946018016406022 0.1292931792607892
2029905 -0.9933622469260887 0.12775151083771652
2030321 -0.9938275494786463 0.12891505002030174
2030737 -0.9932179794560233 0.1278346515376055
2031153 -0.9943839604172162 0.12929920981298418
2031569 -0.9940028219927931 0.12799417061601423
2031985 -0.9944604159410905 0.1286637050805982
2032401 -0.9938236172109868 0.12751879254553242
2032817 -0.9939868282853839 0.12996241676898906
2033233 -0.9943186736986128 0.1286841775472642
2033649 -0.9935476591318129 0.12898370244553795
2034065 -0.994415519759605 0.12823922691866968
2034481 -0.9935530138864411 0.12938131047062934
2034897 -0.9944722928818035 0.12963824487585215
2035313 -0.9935783153179943 0.12846440805018627
2035729 -0.9946863410144801 0.1294997680036372
2036145 -0.9939054995188943 0.1276388911293134
2036562 -0.9938034654173412 0.12963318324269224
2036978 -0.9938486296979784 0.1273957876596819
2037394 -0.9934366411987814 0.12968092383134922
2037810 -0.9944464794502967 0.12798912738452675
2038226 -0.9931863466345974 0.12894299811166568
2038642 -0.9939540573719307 0.1291227336522611
2039058 -0.9940225810771782 0.1284693128185195
2039474 -0.9944557208358112 0.12969502284274814
2039890 -0.9940396777119184 0.12722749506241873
2040306 -0.9935899602693142 0.1299502224392987
2040722 -0.9933376128587209 0.12803872168986571
2041138 -0.9936647700146312 0.12970937203414146
2041554 -0.9947045513778816 0.12888447983553677
2041970 -0.9929257155212489 0.12900578490153772
2042386 -0.9942591182241651 0.12937462101179806
2042802 -0.9937168549520058 0.12854471092376615
2043218 -0.9947256263601004 0.13045769494059942
2043634 -0.9939464028567381 0.1280399625444324
2044050 -0.9936184876191142 0.12999927628712085
2044466 -0.9935490769793051 0.12869886791540908
2044883 -0.9932068849405814 0.1299285823994299
2045299 -0.9946004682222572 0.12932082528330965
2045715 -0.9928167213436638 0.12963650200552354
2046131 -0.9943350871176022 0.12988818496049814
2046547 -0.9939097547410659 0.1287260950603765
2046963 -0.994634534071982 0.13050982470054723
2047379 -0.9930267781159683 0.12796461104775783
2047795 -0.9939707963886278 0.13082890690055046
2048211 -0.9935578112615276 0.12867941778795436
2048627 -0.993645420714317 0.1307520836238338
2049043 -0.9941440151548135 0.12970600458954704
2049459 -0.9932407486603276 0.12927522213424247
2049875 -0.9943461795802343 0.13044263420393215
2050291 -0.9935310306866609 0.12887393351729046
2050707 -0.9946964656008964 0.1300820885965544
2051123 -0.9933507135645141 0.12835919104386156
2051539 -0.9938944658947383 0.13080903015286055
2051955 -0.9934533910620877 0.1283742404930172
2052371 -0.9933146839617688 0.13014694464611765
2052787 -0.9942219199379794 0.12936970410254628
2053204 -0.9927213552518905 0.12992031828348408
2053204 -0.9927946693737987 0.13023600244094422
2053628 -0.9942293408666237 0.1297032024274495
2054053 -0.9935339611839497 0.1299173280277018
2054477 -0.9946490860448309 0.13046089176639403
2054902 -0.9934665054174415 0.12854550968703504
2055327 -0.9940591760551718 0.13077383530065798
2055751 -0.9936359286367814 0.12952212586899328
2056176 -0.9937570149055157 0.13142680753271738
2056601 -0.993824875439837 0.12875052675644896
2057025 -0.9933466490056816 0.13067188840879024
2057450 -0.9938863622797467 0.12926651606531794
2057875 -0.9933191847898598 0.1305276723283984
2058299 -0.9944521557839593 0.13002009699118666
2058724 -0.9937003312394576 0.13052789671548823
2059149 -0.994465886947184 0.1307860274777307
2059573 -0.9932630449887244 0.12958998377532976
2059998 -0.9941983283118112 0.13142335335505353
2060423 -0.9936236569228676 0.1299178416365281
2060847 -0.9936562542188463 0.1315672206127007
2061272 -0.9938215658906816 0.1292444175748156
2061697 -0.9934227338474905 0.13122789724644193
2062121 -0.9940772764013339 0.12964488246532363
2062546 -0.9929967409630123 0.1308454817641551
2062971 -0.9948084392418852 0.13047961699135593
2063395 -0.9931797478207132 0.13004067901591443
2063820 -0.9941310267696675 0.13115737076136355
2064245 -0.9933535115108758 0.12913136123511065
2064669 -0.9936110614569529 0.13152796724072732
2065094 -0.9936817907806665 0.1295746918183893
2065519 -0.9930815613273652 0.13122585732049843
2065943 -0.9940745943394613 0.12952994654520086
2066368 -0.9928120179727957 0.13122695529945042
2066793 -0.9942890643190935 0.12957525696132585
2067217 -0.9929138282518529 0.13103968142051026
2067642 -0.9945956945566802 0.13123848960095577
2068067 -0.9933967092794126 0.13035616545310547
2068491 -0.9946128351243132 0.13169566322935652
2068916 -0.9935280038826361 0.13005831879471205
2069341 -0.9936726993667614 0.13171571231527157
2069765 -0.9936865291668324 0.12943318385193323
2070190 -0.9932510233068816 0.13153551419116571
2070615 -0.9937757607193136 0.1304026780685785
2071039 -0.9929499307319813 0.13129850364788367
2071464 -0.9941179497388979 0.13032771655173642
2071889 -0.9933707962595745 0.13126654152103237
2072313 -0.9947318209452548 0.13033702817844817
2072738 -0.9933939191469204 0.13018043220068368
2073163 -0.9943116625607669 0.13197843656488206
2073587 -0.9936700892908089 0.13041750775632216
2074012 -0.9933999390865366 0.1315329615028414
2074437 -0.993979431647629 0.13140843929861412
2074861 -0.9929480432572727 0.13169956464163612
2075286 -0.9950487133004552 0.13224350960814482
2075710 -0.9934953874658597 0.1303865393826844
2076135 -0.9940643179570283 0.13237553195955984
2076560 -0.9935968581453846 0.13020410426620538
2076984 -0.9933275131621808 0.13217295259228687
2077409 -0.9934069201012101 0.13002683272854768
2077834 -0.9931647889961941 0.13185922715799023
2078258 -0.9934941349084372 0.1310625156780178
2078683 -0.9924610751706767 0.1320560402108514
2079108 -0.9940528870895695 0.13164578328336493
2079532 -0.993625949065721 0.13202904144994743
2079957 -0.9943848451482958 0.13229126600690422
2080382 -0.993384621618928 0.13057155870785625
2080806 -0.9939905271273254 0.1322898600490475
2081231 -0.9929243404789933 0.13042557958771428
2081656 -0.9931589753570349 0.1327065973238054
2082080 -0.993491505390759 0.1309199511535235
2082505 -0.9930250704840606 0.13278050817733014
2082930 -0.9937146076633367 0.130550760018938
2083354 -0.993033243108945 0.13179864185363524
2083779 -0.9945248550252418 0.13180556398201568
2084204 -0.9933247990159445 0.13155893857814574
2084628 -0.9945784829138218 0.13200588243074415
2085053 -0.9927281992283306 0.13053996786089528
2085478 -0.9935282439111386 0.13277557624825087
2085902 -0.9931939720032006 0.1312869225319593
2086327 -0.9937512531314416 0.1328945290983441
2086752 -0.9933006063905214 0.13092206813436197
2087176 -0.9929312630268452 0.1324102050617518
2087601 -0.9936787206019171 0.13100843951903157
2088026 -0.9924537582258549 0.13225540208828326
2088450 -0.9941453181334219 0.1318467234562011
2088875 -0.9928364866836932 0.13161690763766548
2089300 -0.9939049446844418 0.13291193353763012
2089724 -0.9931951379912121 0.13155261656652095
2090149 -0.9936884379046187 0.13368489144045076
2090574 -0.9928258079268234 0.13175767736332886
2090998 -0.993760158562029 0.13383794301080448
2091423 -0.9938876979117923 0.13083964269121012
2091848 -0.9934200582689915 0.13262937539443045
2092272 -0.9938467797414158 0.13144171305985536
2092697 -0.9929412199872384 0.1323900581164769
2093122 -0.993541712073104 0.13263403029931828
2093546 -0.993083921896091 0.13249682828956266
2093971 -0.993487894877871 0.13325176353871884
2094396 -0.9935558658341076 0.13211734513029144
2094820 -0.9949008968161832 0.13356690202828797
2095245 -0.9929874191863693 0.13161843767949816
2095670 -0.9938163242917545 0.13367293364506244
2095670 -0.9938688653728568 0.1330021494850761
2096103 -0.9932657657585673 0.13143527870520122
2096536 -0.9930917929021382 0.13352088872399676
2096970 -0.9926937220736239 0.13188237599685698
2097403 -0.9929035555457563 0.13293848526744534
2097837 -0.9919673784335955 0.13182913091268694
2098270 -0.9930737822564809 0.13306374426213938
2098704 -0.9937961477977123 0.1327045135873512
2099137 -0.9950973845925926 0.13363727133948367
2099570 -0.9957502526015405 0.1338244802650662
2100004 -0.9969449654956389 0.13265418804449708
2100437 -0.9948604546671483 0.13415026625156995
2100871 -0.9951914947211637 0.13176033095387474
2101304 -0.993297780589391 0.1340531213889718
2101738 -0.993020162200909 0.1320577066398268
2102171 -0.9912440113156535 0.13300488026225082
2102605 -0.9941105847632773 0.1323464561024901
2103038 -0.9927425647222784 0.133371116089028
2103471 -0.9933661036432048 0.13261650300988181
2103905 -0.9929506287676186 0.13274353418639823
2104338 -0.9939350988791686 0.13283207426856328
2104772 -0.9924147902707439 0.13282740044138386
2105205 -0.9932229459409929 0.13278770842695412
2105639 -0.9928276863524058 0.1325041142735344
2106072 -0.9937578258598194 0.1334597432739915
2106506 -0.9933841122693012 0.1329262152818136
2106939 -0.9940946647087485 0.1347675290874866
2107372 -0.9929372438523075 0.1319527082394777
2107806 -0.9935161788611684 0.134563137974302
2108239 -0.9927140636624352 0.13211447827376946
2108673 -0.9936056319135361 0.13506673564906418
2109106 -0.993453773436426 0.13228803116059543
2109540 -0.992593953872545 0.13385092236844828
2109973 -0.9937834070785225 0.13260166656005415
2110406 -0.9925213348736461 0.1336236357163267
2110840 -0.9933975270156375 0.13380260762561325
2111273 -0.9929387835733651 0.13349654464656133
2111707 -0.9942501640606427 0.1333137119148195
2112140 -0.9926016692715719 0.13293951686197203
2112574 -0.993930892286128 0.13402417431955022
2113007 -0.9929275312840847 0.13278357872738586
2113441 -0.9938305911463367 0.13484262637182365
2113874 -0.993084272016504 0.13319067642841054
2114307 -0.9931437098463451 0.13454719054010103
2114741 -0.99317883059005 0.13282786278269898
2115174 -0.9927574273846094 0.1342252069954477
2115608 -0.9931533882258838 0.13310832916097354
2116041 -0.9934637034470714 0.1352801403784392
2116475 -0.993069249013894 0.13307638793648444
2116908 -0.9931294157459517 0.13466911912395177
2117342 -0.9932444856621124 0.13313787661220375
2117775 -0.9928367121923505 0.13438690341737408
2118208 -0.993216316052633 0.13271890903564507
2118642 -0.9923694672598108 0.13453195791669376
2119075 -0.9934300067881997 0.13385893948540076
2119509 -0.992847501970904 0.13393435256850889
2119942 -0.9944763400068232 0.13467506292747503
2120376 -0.9927622833577031 0.13402388761467315
2120809 -0.9937576133323764 0.13423657810010223
2121242 -0.9926379579459503 0.13391268244670962
2121676 -0.9934639979587003 0.1347012324139767
2122109 -0.9927681765558504 0.13323686996886588
2122543 -0.9930608196986603 0.13542593192015928
2122976 -0.993149381966258 0.13319055198773996
2123410 -0.9925493962113011 0.13509908632902423
2123843 -0.9930997191130508 0.13342794437140312
2124277 -0.9918715372457213 0.1344594565106857
2124710 -0.9938614061840834 0.1333469261391328
2125143 -0.9925371278251524 0.13494274877336404
2125577 -0.9931619154300422 0.13425028637236036
2126010 -0.9929695848993301 0.13411058327124628
2126444 -0.9935949467774565 0.1352553397882256
2126877 -0.9927959541466456 0.13378237231386983
2127311 -0.9932083697792389 0.1351495635357457
2127744 -0.993255692152134 0.1339350133712407
2128178 -0.9928346437492548 0.1354853508425664
2128611 -0.9926813918517793 0.13413284891198132
2129044 -0.9928858938878984 0.1350818373428926
2129478 -0.9934460726361817 0.13354560448865757
2129911 -0.9927069503587578 0.1347669043620295
2130345 -0.9936173991675441 0.13415797483481562
2130778 -0.9927670598563583 0.13478939524111272
2131212 -0.9932753194539503 0.13443164306223673
2131645 -0.9929272573018926 0.1341662269400813
2132078 -0.9937951639561564 0.13470472423325308
2132512 -0.9929379346598484 0.13431828810950533
2132945 -0.9936783806138004 0.13525549449887492
2133379 -0.9927419598917164 0.1340956630352861
2133812 -0.9925248396975279 0.13584668286836546
2134246 -0.9929745654348383 0.13399688209360897
2134679 -0.9926895405152527 0.13532370576668418
2135113 -0.9929557943462027 0.13469164929563968
2135546 -0.9924183950216251 0.13583730320494936
2135979 -0.9934616100747732 0.13474829482911724
2136413 -0.992738063877693 0.1353019262110701
2136846 -0.9933197184805609 0.1352161449675444
2137280 -0.9933808742353637 0.13565466276587526
2137713 -0.9942481964310113 0.13542067984893602
2138147 -0.9930298616836611 0.13449209222511607
2138580 -0.993396975855659 0.13598195100678215
2139014 -0.9930963332061082 0.1345902498460874
2139014 -0.9930624681838888 0.13558810903774918
2139456 -0.9925140628501219 0.13470179640300597
2139898 -0.9937688392828458 0.13590710196991293
2140341 -0.9921364576256628 0.13537914161940667
2140783 -0.9939154575062438 0.13567498993671306
2141226 -0.9929907752322017 0.13451938395064944
2141668 -0.9940713810675349 0.13629512072927102
2142110 -0.9932811055830434 0.1351118775638111
2142553 -0.9932895395969843 0.1358924546170547
2142995 -0.9928144388846522 0.1349104519323786
2143438 -0.9929834354034363 0.1354926665742885
2143880 -0.9930077567560613 0.13467613289595645
2144322 -0.9935254031764013 0.13587163619250733
2144765 -0.992718391538242 0.13551522216775297
2145207 -0.9926502385674417 0.13585567152903935
2145650 -0.9934937060370646 0.13578171292002278
2146092 -0.9923972753231414 0.13521151146160323
2146534 -0.9932365740404249 0.13587496632547572
2146977 -0.9922066165113184 0.13543632240722625
2147419 -0.993231757805478 0.13613915651793387
2147862 -0.9923185704638218 0.13575052816068212
2148304 -0.9933534911862132 0.1362291735958875
2148747 -0.992971672918236 0.13485625062290751
2149189 -0.9937939262452299 0.1359150809795244
2149631 -0.9924470599612103 0.135236746295644
2150074 -0.9936857992160492 0.1366860910503665
2150516 -0.9929499528824762 0.13525343878971358
2150959 -0.9930180363183508 0.13593390252488316
2151401 -0.9921056012284895 0.13588509156839307
2151843 -0.9931963237701671 0.13622396577865897
2152286 -0.9929156993598031 0.1355960396417567
2152728 -0.993134511074015 0.1363391507057066
2153171 -0.9926463217894933 0.13561649734882195
2153613 -0.9929572857321554 0.13615220713344273
2154055 -0.9927747443206322 0.13633026800305953
2154498 -0.9923761086605667 0.13576547407159878
2154940 -0.9929936079618215 0.13644109543361624
2155383 -0.9921397528551934 0.13646619302793073
2155825 -0.9928588800823491 0.13612847434235376
2156267 -0.9921910296959309 0.13610553087335212
2156710 -0.99346271554864 0.13639582286643118
2157152 -0.9923030355474154 0.13572440107136952
2157595 -0.9938126915447458 0.13648345650195642
2158037 -0.9925021466527477 0.13558625223676313
2158480 -0.9935006171338284 0.1373939146062519
2158922 -0.9933146733090332 0.1358070561327042
2159364 -0.9933237418321569 0.1369410474524827
2159807 -0.9925814793212921 0.1362049604365194
2160249 -0.9930721746119168 0.13703398987157228
2160692 -0.9924638144625438 0.1363200792923113
2161134 -0.9925984377339317 0.1370257522731696
2161576 -0.9923895673743889 0.1368258811516452
2162019 -0.9923244722592677 0.13628481569673945
2162461 -0.9927579650090385 0.13670059619161207
2162904 -0.9923281282534117 0.13650159746886428
2163346 -0.9931764734814673 0.13694496106064277
2163788 -0.9916021418107434 0.13686889705127558
2164231 -0.9936006879115392 0.13675649933641015
2164673 -0.9926199467046255 0.13621687236373292
2165116 -0.9933365023778132 0.13671539792453294
2165558 -0.9927717400003752 0.13633275024300598
2166001 -0.9933976810675254 0.1376380242897613
2166443 -0.9931057249092327 0.13624702140936032
2166885 -0.9930164442435719 0.13744644951404517
2167328 -0.9925915227268788 0.13691567675757044
2167770 -0.9931761066225538 0.13766839818849583
2168213 -0.9927604743131545 0.13688397924735465
2168655 -0.9924193418616072 0.13707350920244574
2169097 -0.9922821701611187 0.13687657208235635
2169540 -0.9923139255100409 0.13733487582582063
2169982 -0.992674102730055 0.1371017358685091
2170425 -0.9926410270838366 0.1371282111442291
2170867 -0.9931450211960866 0.13767002580344176
2171309 -0.9923400946761349 0.1370765971818932
2171752 -0.9930849834964768 0.13747554775678772
2172194 -0.9921962606831106 0.13644773658573384
2172637 -0.9932278246126649 0.13737579518345167
2173079 -0.9923777002585574 0.13666329269850022
2173521 -0.992938243092099 0.13774947114483746
2173964 -0.9929459669116713 0.137876439492025
2174406 -0.9931394670389554 0.1376948804661083
2174849 -0.9925190294894324 0.1370831406721046
2175291 -0.9927107017046004 0.1378403220698701
2175734 -0.9929408777971014 0.13691399014602554
2176176 -0.9928796565039133 0.13753929390308234
2176618 -0.9922672173708531 0.13762740051396666
2177061 -0.9918281631051675 0.1376933191768029
2177503 -0.9925955679774447 0.13792757752600057
2177946 -0.9921514737098339 0.13766457562688267
2178388 -0.992900405773204 0.13769598141199216
2178830 -0.991541655750217 0.13767531473258593
2179273 -0.9931398224801273 0.13757492451558279
2179715 -0.9917892091788616 0.1378731581758894
2180158 -0.9931374722314374 0.13741024964149068
2180600 -0.992478998258806 0.13703466088265018
2181042 -0.9932759994263248 0.13848802791652734
2181485 -0.9925771371919696 0.1381153640930781
2181927 -0.9933862551739716 0.13820113141758844
2182370 -0.9928724277215482 0.13748505017905188
2182812 -0.9932143893493226 0.1381318049777711
2183255 -0.992374512152085 0.13876172575674234
2183255 -0.9923889278065046 0.13792980900402205
2183706 -0.992894265062396 0.137981692180357
2184158 -0.992518037306995 0.13705204881228147
2184609 -0.9927594443660922 0.13872719694046504
2185061 -0.9922696336368945 0.13738018247678618
2185512 -0.9931247821281718 0.13879045109728677
2185964 -0.9924009818191418 0.13808357273602268
2186415 -0.9933291427877399 0.13838437082466978
2186867 -0.9928068243836182 0.13738678609694308
2187319 -0.9929029655487049 0.13866061057415324
2187770 -0.9921688143378798 0.13801993771894627
2188222 -0.9924945026744875 0.13823432656647108
2188673 -0.9918683624577205 0.1380583549895367
2189125 -0.9924868538686336 0.13854452291799343
2189576 -0.991890344863119 0.13824668471368007
2190028 -0.9921676095633507 0.13872269751014382
2190479 -0.9924502504750182 0.1381995784225874
2190931 -0.9923591933338277 0.13850906893705786
2191383 -0.9925620298239839 0.13838461264128787
2191834 -0.9920684007507842 0.13827074031938522
2192286 -0.99240901460819 0.1386548021797323
2192737 -0.9918842357138141 0.1383617033050629
2193189 -0.9930296940083647 0.13870722977575098
2193640 -0.9915644978658187 0.13880617221424005
2194092 -0.9928328120052347 0.1387451183801559
2194544 -0.992062025525352 0.1385745186909173
2194995 -0.9928637863719489 0.1386627662930773
2195447 -0.9920808385960529 0.1380759888754488
2195898 -0.9925669100305202 0.13865061644280963
2196350 -0.9921952060016415 0.1387005642846957
2196801 -0.9925629874959666 0.13845126825940457
2197253 -0.991876597362914 0.1386428092629769
2197704 -0.9931956960891778 0.13875293780687672
2198156 -0.9923934821904102 0.1385857399138859
2198608 -0.9930787730789002 0.13898102021288838
2199059 -0.9922318786579808 0.1391777717964392
2199511 -0.9930531391483896 0.13904307534722232
2199962 -0.9925349840127362 0.13882270183131118
2200414 -0.9930500463872768 0.13912342318526977
2200865 -0.9922749915148863 0.13924923762046382
2201317 -0.9934851643270969 0.1393586640320952
2201768 -0.9920885660079408 0.13909909603077963
2202220 -0.9929270279281143 0.138975546234923
2202672 -0.9923817810457796 0.13951574228840324
2203123 -0.9929099581359796 0.13906426172858022
2203575 -0.9924725454009206 0.1388043258954135
2204026 -0.9929232892889408 0.1399417034042492
2204478 -0.9925309424279726 0.13936782532210504
2204929 -0.9921991016773176 0.13912803881843983
2205381 -0.9932897319250491 0.14020199712725046
2205833 -0.9925927530000994 0.13911249366220702
2206284 -0.9931192393876823 0.14028223804041332
2206736 -0.9919396111452364 0.13883947537607969
2207187 -0.9929351288388389 0.1402076833801396
2207639 -0.9918607998290496 0.13893161802927542
2208090 -0.9924097662746395 0.1405388943795428
2208542 -0.9928204550625872 0.1389684696275372
2208993 -0.9922203791748224 0.14041632339969673
2209445 -0.9921038933486351 0.13838882081734108
2209897 -0.9920356597179842 0.14013633314092067
2210348 -0.992176106329607 0.1389354563077456
2210800 -0.9924879375064676 0.14017966970172985
2211251 -0.9920337987345142 0.13921867983400488
2211703 -0.9920807762191939 0.1404401703985872
2212154 -0.9924397689520076 0.13954481962127993
2212606 -0.9921826874507185 0.14023821238623693
2213057 -0.9924058711485941 0.13962902803109684
2213509 -0.9924067234539173 0.14020198124847844
2213961 -0.9926206406257316 0.13931965017567255
2214412 -0.9919895615249331 0.14032213085168949
2214864 -0.9923543626441265 0.13939229506607578
2215315 -0.9914463630919341 0.14048868703107947
2215767 -0.9918310427270115 0.1397134561755396
2216218 -0.9919910424909429 0.14027068573121823
2216670 -0.9928798157525819 0.13980261157365573
2217122 -0.9920231447718182 0.14033740208167486
2217573 -0.9927796736185289 0.14045213517857566
2218025 -0.9916756515678149 0.13994496900976214
2218476 -0.9927885988105082 0.14068995088029793
2218928 -0.9912958199448066 0.14014255076540288
2219379 -0.9928680996035426 0.14117585834143778
2219831 -0.9926648465171902 0.13983908584994115
2220282 -0.9927627002324884 0.14087909303745094
2220734 -0.992362740583412 0.13932746495060008
2221186 -0.9919477580649136 0.14055965433286322
2221637 -0.9919122237724702 0.13975212264503983
2222089 -0.99172571765417 0.14041597749404686
2222540 -0.9916843788320479 0.14023901667698743
2222992 -0.9912772187164588 0.14036657300725516
2223443 -0.9924003687872905 0.14015548127990135
2223895 -0.9919451863537934 0.14046625745567654
2224346 -0.9929766452726695 0.13942134399291392
2224798 -0.9919646438463127 0.14052352762915216
2225250 -0.9923214627840518 0.13991029286861698
2225701 -0.991529831358846 0.1406389281811546
2226153 -0.9924429655448147 0.14042182955650281
2226604 -0.9920033134220514 0.14117815184268712
2227056 -0.9928549451027209 0.1407298724205738
2227507 -0.992090054899604 0.14086264300287443
2227959 -0.9929930292216761 0.14104534380582176
2228411 -0.9919857241358512 0.14087225462440417
2228411 -0.992212273719709 0.1409419737503204
2228871 -0.9923199176245117 0.1400148103216957
2229332 -0.9918407274602415 0.14075521079231054
2229793 -0.991321929012553 0.140168444551012
2230254 -0.9921645247641172 0.14134868106070386
2230715 -0.9915339682649887 0.14053636908038442
2231176 -0.9916673372242258 0.14107883680609054
2231637 -0.9920688883496157 0.1406379116866039
2232098 -0.9913800960280963 0.14112422925861362
2232559 -0.9916115246012512 0.1412551906689021
2233019 -0.9919463629133499 0.14127712934981465
2233480 -0.9918563824482906 0.14101904946130742
2233941 -0.9916464784011186 0.1412028666310599
2234402 -0.9922310614294076 0.14099826900871756
2234863 -0.9915748648080407 0.14057807765614125
2235324 -0.9926478640181793 0.14095830040559842
2235785 -0.9917538316029547 0.1412956280247853
2236246 -0.9927058270639761 0.14138863383029815
2236707 -0.9917763225751226 0.14104569857061824
2237167 -0.992400375864568 0.14120098676025225
2237628 -0.9912644756653631 0.14145978445864058
2238089 -0.9923912132136646 0.14175046489952542
2238550 -0.9911986441881074 0.14166010512643107
2239011 -0.9927536596408084 0.14149144752467316
2239472 -0.9918085475385544 0.14114984550867873
2239933 -0.9924737801603851 0.1419470459833542
2240394 -0.9916609774513032 0.1410588903923439
2240855 -0.9922557928072969 0.14191049636794828
2241315 -0.9918593576088555 0.1420058331927422
2241776 -0.9924038655633962 0.1413151520817025
2242237 -0.9916226252958895 0.1412644946307818
2242698 -0.9922987750044515 0.1423928776438141
2243159 -0.9919169169109263 0.14108123520650037
2243620 -0.9918679084111357 0.14233650649310212
2244081 -0.9920737771907698 0.14114078883393072
2244542 -0.992311354361671 0.14262627418181378
2245003 -0.9914769577518585 0.14169529175969123
2245463 -0.992385539411585 0.14216005220545513
2245924 -0.9917109948531592 0.14176389788696697
2246385 -0.9921713046297241 0.14240814459107512
2246846 -0.9921796887149116 0.14170665640822963
2247307 -0.9926757718655921 0.14215493025785866
2247768 -0.9921412801631688 0.14155272313896136
2248229 -0.992896984718182 0.14292306127883828
2248690 -0.9919035598228537 0.14251198024030715
2249151 -0.9926116324089479 0.1424218942061428
2249611 -0.9916241607666251 0.14194686684578361
2250072 -0.9939978196541097 0.14255662053201248
2250533 -0.992190105479134 0.14243236402492931
2250994 -0.9915592357239341 0.14267418743012372
2251455 -0.9916800638008092 0.14243969417286867
2251916 -0.9915579151630337 0.14216568138597063
2252377 -0.9913652018165705 0.1419713199535254
2252838 -0.9923591061486391 0.1428469476094808
2253299 -0.991581141700673 0.1424527901591564
2253759 -0.9926521803553615 0.14310283569490653
2254220 -0.9921456592943851 0.1425082809348913
2254681 -0.9922613817097816 0.1427609829599498
2255142 -0.9922599400575736 0.14262823823900386
2255603 -0.9925721565045038 0.14298409661535
2256064 -0.99197001493659 0.1425842366438578
2256525 -0.9928615210788382 0.1427491331811456
2256986 -0.9923899558214305 0.14278145504514944
2257447 -0.9916995871767365 0.14294103687909043
2257907 -0.9918371843781266 0.14243518849171663
2258368 -0.9925402470056328 0.1434604865347755
2258829 -0.9917419187556621 0.14214322099954016
2259290 -0.9918697750433704 0.14334038270190197
2259751 -0.9918339999035911 0.1422474637506999
2260212 -0.9919350182899724 0.143254106720812
2260673 -0.9914738344013017 0.14266668657885098
2261134 -0.9915471935004704 0.14298211445941758
2261595 -0.9915422907206302 0.14199359667110253
2262055 -0.9916275980806618 0.14321610193464246
2262516 -0.9919676267519478 0.1427052184042497
2262977 -0.9921309154828117 0.14322007280527982
2263438 -0.9915894515465578 0.1426066956809149
2263899 -0.9917999760088475 0.1440176304898551
2264360 -0.9915401482359134 0.1424917765839475
2264821 -0.9917608670728322 0.14369833707585492
2265282 -0.9918237172848421 0.1425738797060737
2265743 -0.9917849474222016 0.14335529836423444
2266203 -0.9917411935089211 0.14273574164556602
2266664 -0.9915975332381188 0.14347191264508935
2267125 -0.9913945702704251 0.1423729961667649
2267586 -0.991481974345807 0.1437954637370414
2268047 -0.991783038890387 0.14291077116846979
2268508 -0.9918581920924406 0.14372264389141817
2268969 -0.9920118925441744 0.1425388275210471
2269430 -0.9913185822091466 0.14367032442455144
2269891 -0.9914920235604601 0.1427306297563444
2270351 -0.9913735073769773 0.14330004860412968
2270812 -0.9920350470362338 0.14314550371419235
2271273 -0.9914175833994282 0.14366139332409664
2271734 -0.9917589377594086 0.14355581933458836
2272195 -0.9918089818014505 0.14385795008142202
2272656 -0.9921342724648758 0.14292041908456096
2273117 -0.9918204423193403 0.14391586461063668
2273578 -0.9920966588538216 0.14267410592829002
2274039 -0.9913620144648388 0.14382894886570963
2274500 -0.991501065694137 0.14362558872277137
2274500 -0.9910736515651472 0.1435271629536538
2274970 -0.9919343202569628 0.14323595931946184
2275440 -0.9908569112929794 0.1439262663309306
2275911 -0.9920037597051808 0.14321011997405747
2276381 -0.9911912012219788 0.14363943198109175
2276852 -0.991729068327763 0.1431023305923138
2277322 -0.9914167086064904 0.1433353570143315
2277793 -0.9917837086948603 0.14325798282987462
2278263 -0.9911572701961945 0.14384841487436625
2278733 -0.991711302182171 0.14290782814684988
2279204 -0.9917331790330954 0.14411319319201304
2279674 -0.9918599005484228 0.14326621037774814
2280145 -0.9920286348882666 0.14405185412936672
2280615 -0.9914753466776998 0.14327929596655392
2281086 -0.9913133309842077 0.1436253622467334
2281556 -0.9916738981929195 0.14331410857137844
2282026 -0.9912476401323721 0.1439378634890922
2282497 -0.9918460035027323 0.143936677837248
2282967 -0.9915569632639027 0.14400793865355774
2283438 -0.991953985486503 0.1440079998456059
2283908 -0.9914874819744706 0.14402772518458115
2284379 -0.9920209609736582 0.14383247136925964
2284849 -0.9912323900315606 0.14375395457884604
2285319 -0.9912859940601789 0.14391103242313433
2285790 -0.9911945599851217 0.14424922972360732
2286260 -0.9913840058775277 0.1441920856013342
2286731 -0.9909692702857932 0.14464788952926924
2287201 -0.9914660196333344 0.14378594399683525
2287672 -0.991677487311527 0.1443994873670954
2288142 -0.991731251404636 0.1439541777727481
2288612 -0.9914049617678687 0.1443170829410067
2289083 -0.9914940264043086 0.14402404927316143
2289553 -0.9912348861069985 0.14447373572174024
2290024 -0.9915025827633739 0.14431908030936538
2290494 -0.9910143155921136 0.14454072095551906
2290965 -0.9917817841352571 0.14414197384649938
2291435 -0.9917232991383328 0.14496816091169323
2291905 -0.9918109099144133 0.14431011039891964
2292376 -0.9912432482426049 0.14463763054203316
2292846 -0.9917471863355571 0.14367150313703594
2293317 -0.9911110235922662 0.14519188101072086
2293787 -0.9911769520884638 0.14398307673543434
2294258 -0.9912976816182252 0.14571146563156231
2294728 -0.991309517014141 0.14428435890505023
2295198 -0.9916887119692233 0.14501761558995757
2295669 -0.9918943869702308 0.14412734543327876
2296139 -0.9918304935740513 0.14481437958623947
2296610 -0.9911930587733428 0.14569455786106034
2297080 -0.9910851012605802 0.14513652682886063
2297551 -0.9910604686112917 0.1456420578184679
2298021 -0.99115164107479 0.1453672005383875
2298491 -0.9915534017520404 0.1456240057770582
2298962 -0.9909459193607644 0.14434885225507188
2299432 -0.991894711596244 0.1453150221938973
2299903 -0.9914289268980689 0.14506873812427581
2300373 -0.9918567764351406 0.14486538849953828
2300844 -0.9917387984860512 0.144818164269058
2301314 -0.991546813981583 0.14517677884689328
2301784 -0.9916643169637147 0.1447748805022867
2302255 -0.9922470004057414 0.1460753518232671
2302725 -0.9914797505981967 0.1448278725817871
2303196 -0.9919906937551544 0.14556732755541024
2303666 -0.9912927958537835 0.14522020464515334
2304137 -0.9916974962633034 0.1457072024717264
2304607 -0.9916833989278304 0.14575503071984733
2305077 -0.9921414948283308 0.14620559161442226
2305548 -0.9913276551098611 0.14528095463049495
2306018 -0.9924272621781163 0.14614661884105282
2306489 -0.9913339810289236 0.14497294266585514
2306959 -0.9919736061852876 0.14615151254109882
2307430 -0.9907311948639527 0.14537732654658062
2307900 -0.9919558347120244 0.1465840012345806
2308370 -0.9907511227971381 0.14565186868723565
2308841 -0.9919933566179758 0.14569650061363332
2309311 -0.9913473413697764 0.14552871978097445
2309782 -0.9919127921634475 0.14585005914080781
2310252 -0.9918916021849464 0.14542541513641974
2310723 -0.9920721913726511 0.14580971800556836
2311193 -0.9912187991246528 0.14579706749390917
2311663 -0.9918855796219654 0.14572846919412596
2312134 -0.9910829336817419 0.14591884173129266
2312604 -0.9919031042960548 0.1461776540008979
2313075 -0.9917370604347071 0.14597822963694987
2313545 -0.9925099538502485 0.14642734724103007
2314016 -0.991180942333463 0.14612710376584295
2314486 -0.9923739356072431 0.14612239105452404
2314956 -0.9910162969966481 0.14596584514890154
2315427 -0.9923724305532069 0.1464263581496459
2315897 -0.9914029267601513 0.14645477326372458
2316368 -0.9920427045078207 0.14603670859970844
2316838 -0.9914777621913407 0.14630035978064573
2317309 -0.991957995815871 0.1461276042606779
2317779 -0.9910853250753268 0.14596785076223687
2318249 -0.9912931137374094 0.1461969778756321
2318720 -0.9912053111376189 0.14675297303758109
2319190 -0.991784874523157 0.14619728838768406
2319661 -0.9909697251416358 0.14685473669259808
2320131 -0.9918213061238486 0.14671027993180952
2320602 -0.9908071041444317 0.146831988014876
2321072 -0.9923264717650859 0.14628842856000718
2321543 -0.9909293321002692 0.14659109700459375
2321543 -0.991021061494598 0.14675183180731227
2322023 -0.9919445813350733 0.1463393943703445
2322503 -0.9904530069158348 0.14613860233019987
2322983 -0.9919631328981869 0.146067054102122
2323463 -0.9903640280824348 0.14692108107543805
2323943 -0.9912577408587686 0.14723736750265032
2324423 -0.9910499353595138 0.14706335818103614
2324904 -0.9908320448052653 0.1462390144759853
2325384 -0.9908689316950244 0.14715404954321604
2325864 -0.9908740785374816 0.1461422087853262
2326344 -0.9911390981474606 0.14652521276109423
2326824 -0.9908636538370436 0.14621771849904563
2327304 -0.9902636317613068 0.14721323809461714
2327785 -0.99062905310522 0.147163873832326
2328265 -0.9908300954349695 0.14676331186780997
2328745 -0.9910302906200728 0.14691827109166739
2329225 -0.990984135229116 0.14730096335821394
2329705 -0.9914373216231444 0.14635292959344873
2330185 -0.991148082752454 0.14667793068842122
2330666 -0.9909057946356182 0.14697324537811937
2331146 -0.9913194267941021 0.14727385739056742
2331626 -0.9911062499970226 0.14737298699492346
2332106 -0.9917740407458029 0.1481728206044104
2332586 -0.9913003316614218 0.14676477951460282
2333066 -0.9923448933267643 0.14725455786405509
2333547 -0.9909996354283808 0.14674043251899316
2334027 -0.9918805598901662 0.14783821863866542
2334507 -0.9911417273009481 0.14710020820202313
2334987 -0.9913059819346025 0.1479013138904527
2335467 -0.9906660429964879 0.14737437784854449
2335947 -0.9918035255643887 0.14755158782067387
2336427 -0.9905786326063981 0.14737836298140047
2336908 -0.9914056306207156 0.1469011384125373
2337388 -0.9911628929173117 0.14767123046880037
2337868 -0.9918902442186558 0.14760896834182952
2338348 -0.9907181854466081 0.14793790872330326
2338828 -0.9913733868898905 0.14831987942075528
2339308 -0.9911765338098837 0.14791026218929954
2339789 -0.9918153863438549 0.14774611469031276
2340269 -0.9911621299205127 0.14797327900719046
2340749 -0.9915420261539563 0.14783375014848837
2341229 -0.9910313844693235 0.14762056510217889
2341709 -0.9909008038111016 0.14702663493260146
2342189 -0.990763353030935 0.14769514800261863
2342670 -0.9911479513101374 0.1478933635462978
2343150 -0.9904426406533668 0.1481256848421852
2343630 -0.9907066037686731 0.14764169145768655
2344110 -0.9919216339785407 0.14815947765577864
2344590 -0.9904674802558343 0.14751243030762093
2345070 -0.9914299911466723 0.14802344210519605
2345551 -0.9907221160453147 0.14803399450454716
2346031 -0.9911153906807182 0.14853714903300935
2346511 -0.9908829367900289 0.14865884970226032
2346991 -0.9914136033859405 0.14819012098920326
2347471 -0.9912007162051247 0.14838828684655073
2347951 -0.9920018217493743 0.14829287481616288
2348431 -0.9910883841559271 0.14790923291834449
2348912 -0.9910342154841962 0.14798006828723126
2349392 -0.9906379706892258 0.14835071347129877
2349872 -0.9909046270277483 0.14807192191002105
2350352 -0.9909345893159507 0.14871619862513774
2350832 -0.991377629530951 0.1482759264122212
2351312 -0.990657586302239 0.14817519141226784
2351793 -0.9920755963684365 0.1482782959467857
2352273 -0.9906070316080103 0.14858294649438164
2352753 -0.9912447071037253 0.1476343958009926
2353233 -0.9903292187632343 0.14907739611335127
2353713 -0.9909725062482548 0.1480638443299081
2354193 -0.9906263877949604 0.14907254088546412
2354674 -0.9907729059065029 0.14880811315765705
2355154 -0.9908260430700115 0.14884159914006082
2355634 -0.9912065035944402 0.14744174563458154
2356114 -0.9907318679194566 0.14880772401332426
2356594 -0.9906174169020688 0.14763025744228062
2357074 -0.9901184249409329 0.14910393643090405
2357555 -0.99012883207046 0.1483637042357754
2358035 -0.990780332684688 0.14923797376147768
2358515 -0.9908991409122533 0.1481930947146633
2358995 -0.9908226521520502 0.1494439515514199
2359475 -0.9909646490335324 0.14820542163383552
2359955 -0.9906030934738964 0.1491039265926273
2360435 -0.9898794693586835 0.14876704385641207
2360916 -0.991079029578926 0.14945559654640947
2361396 -0.9909723841980372 0.1494397950271534
2361876 -0.9914089238556516 0.1500217474418893
2362356 -0.9912007804201391 0.14869470759319417
2362836 -0.9919015156259875 0.14936266145422494
2363316 -0.9907812943034369 0.1485793372317312
2363797 -0.9913505501531849 0.14949225058101495
2364277 -0.9902361694717996 0.14910292950260062
2364757 -0.9913364664071757 0.14905213942137793
2365237 -0.9904839664301177 0.14908549784010494
2365717 -0.9910062505677304 0.14928089881683568
2366197 -0.990944980833363 0.14865095160058386
2366678 -0.9914775810285917 0.14935635803429187
2367158 -0.9907069111689107 0.1491323297468999
2367638 -0.9914518604663376 0.14943892962163713
2368118 -0.9902614640045445 0.1495249246359331
2368598 -0.9907704554579929 0.14878889902308792
2369078 -0.990289113397662 0.14987923235617046
2369559 -0.9915806117652135 0.14960211839475626
2369559 -0.991567407594106 0.1497058636766947
2370049 -0.9908498768783124 0.1492220811324038
2370539 -0.9908283705899118 0.14970297653528564
2371029 -0.9905135689237632 0.14951506027220027
2371519 -0.9909075318121641 0.14930835213999616
2372009 -0.9904781100776021 0.14956035818140342
2372499 -0.9910627469871849 0.14983880241075967
2372989 -0.990644521949622 0.14977058309852934
2373479 -0.9916627833729758 0.14884666238362163
2373969 -0.990411943603898 0.14968895447652694
2374459 -0.9910169992055395 0.14864769192802135
2374949 -0.9902575598804473 0.1501383215774694
2375440 -0.990060074102368 0.14925759803827757
2375930 -0.9904028776568485 0.1502110232581306
2376420 -0.9910152328167146 0.14947904000669834
2376910 -0.990287730061582 0.15095666429096535
2377400 -0.990676399585181 0.14980250565567682
2377890 -0.9912378623547938 0.15054769558025136
2378380 -0.9906533043475646 0.14978342911898845
2378870 -0.9909835394288441 0.1503775278197509
2379360 -0.9901421728302183 0.14990107984194076
2379850 -0.990591609849297 0.1503714739783128
2380340 -0.9905754323641687 0.15016824002840776
2380831 -0.9911828761222583 0.1508542771148782
2381321 -0.9908621021384486 0.15020755722962198
2381811 -0.9911158144082369 0.14949232824233757
2382301 -0.9901325271773372 0.14963679437223537
2382791 -0.9908312757336644 0.1503466340198058
2383281 -0.9899833355508063 0.15041295383493591
2383771 -0.9903051397085928 0.14997352334621225
2384261 -0.990654479456568 0.15064845908339858
2384751 -0.9910853437915625 0.1499960371011806
2385241 -0.9906287529092216 0.15132049325166
2385731 -0.9910035758585529 0.15004545181464632
2386222 -0.9902712952825133 0.15076547668801
2386712 -0.9909542906145636 0.1502844102290863
2387202 -0.9901443683643619 0.15166046816196949
2387692 -0.9907701435568929 0.1502605795498241
2388182 -0.9914357752808209 0.15171151221306287
2388672 -0.990866640926769 0.14973100736261566
2389162 -0.9908905082489144 0.15111045247632204
2389652 -0.9904838370330493 0.15026922931545697
2390142 -0.9911211834881842 0.15061240560109737
2390632 -0.9903730059944281 0.15071550825438326
2391122 -0.9909095348018944 0.15109673453706696
2391613 -0.9905475988847813 0.15138773102645195
2392103 -0.990976017393874 0.1513684620242312
2392593 -0.9909247034372164 0.15061507990922338
2393083 -0.9906500360753332 0.15068715695285995
2393573 -0.9903113383289156 0.15040805250892125
2394063 -0.9909438170490638 0.15073248100155198
2394553 -0.9903488237713678 0.15054332277946372
2395043 -0.9911788303494337 0.15239107447895348
2395533 -0.9903628132868182 0.15033272632196953
2396023 -0.9908323285698843 0.1516300750531596
2396513 -0.9905143253149953 0.1508617018013281
2397004 -0.9903612724498755 0.15070132486024512
2397494 -0.99058339060587 0.15064872267535429
2397984 -0.988926041851886 0.1505861575878999
2398474 -0.9902527481393607 0.15139815754643354
2398964 -0.9893575381593915 0.15040025298421253
2399454 -0.9912921786941578 0.1517113532679015
2399944 -0.9922794913981696 0.15098715976730823
2400434 -0.9906164408511556 0.15158785024357382
2400924 -0.9923723552494313 0.151287784345716
2401414 -0.990157837841894 0.15143165011308862
2401904 -0.9904439124113329 0.15124860641836374
2402395 -0.9896842648318069 0.15182729753570579
2402885 -0.990460246299646 0.15118424760503413
2403375 -0.9905300600691194 0.15161636454266786
2403865 -0.99089277366972 0.15131341938766785
2404355 -0.990100279947525 0.15175630602590442
2404845 -0.9905670234442854 0.15164330896838707
2405335 -0.9902058936812558 0.15174694500450345
2405825 -0.9899744540944878 0.15134766839801791
2406315 -0.9906758470482405 0.1529145493808972
2406805 -0.9905406089070476 0.15134218790770326
2407295 -0.9912496796272788 0.1522436595622573
2407786 -0.9905496442715255 0.15168909445856904
2408276 -0.9905894974789313 0.15202289204978853
2408766 -0.9901701709834553 0.1520994267346093
2409256 -0.9903561036338265 0.1518028173936016
2409746 -0.990373859337244 0.15243960500167067
2410236 -0.9906397542226918 0.15243151744098976
2410726 -0.9902210841471178 0.15227145134168418
2411216 -0.9910861241976552 0.1519553477254844
2411706 -0.990312835822536 0.1524583656398907
2412196 -0.9906903155049456 0.15137403335670707
2412686 -0.9898445442689477 0.15212535495038967
2413177 -0.9902062568637402 0.1521429106400778
2413667 -0.9902961754257797 0.15208567209855636
2414157 -0.9905911329841723 0.15182942438279837
2414647 -0.9900481793714565 0.15297500361714703
2415137 -0.9903414344954885 0.151471966986006
2415627 -0.9902444372422045 0.15299391334871232
2416117 -0.990156661813537 0.15173514894367846
2416607 -0.9904402706694867 0.15313771438875035
2417097 -0.9903994864547468 0.15234004362038472
2417587 -0.9906839796178043 0.15278077284340025
2418077 -0.9904643297538906 0.1525092094896058
2418568 -0.9906546464885775 0.15177475861492495
2418568 -0.9905751522960662 0.15158086207495874
2419068 -0.9901463274297126 0.152563476236988
2419568 -0.9903393969851898 0.15196231328789478
2420068 -0.9902797757019893 0.1532283377402699
2420568 -0.9900296045265727 0.1522061112852069
2421069 -0.990542118361192 0.15297161610889146
2421569 -0.9907824273414363 0.15250950454923382
2422069 -0.9906557848143491 0.1527056627881529
2422569 -0.9898966894223592 0.15278518432389915
2423069 -0.9899899747748214 0.15174772985425425
2423570 -0.9898674856128792 0.15266138379483518
2424070 -0.9905979999892551 0.15259575595866096
2424570 -0.9900155444190951 0.15378499074585952
2425070 -0.9905060030183691 0.15285014725872403
2425571 -0.990292572039848 0.15336873698083897
2426071 -0.9905349428411465 0.15291124303833437
2426571 -0.9906408985105234 0.15343820850569934
2427071 -0.990778006628924 0.1522447596559216
2427571 -0.9904259519878587 0.15378235212191366
2428072 -0.9896834622491172 0.15334362891098954
2428572 -0.9906304217913184 0.15339081162483198
2429072 -0.9899473879279245 0.1533469456339589
2429572 -0.9904379986022978 0.15296308772827494
2430073 -0.9903907346667493 0.15314592785323297
2430573 -0.9903035228220952 0.1528142676166712
2431073 -0.9897694293307302 0.15341978554314248
2431573 -0.9901753272336581 0.15290606234290147
2432073 -0.9900098809512118 0.15353576042447745
2432574 -0.9900666523847663 0.15350306777750128
2433074 -0.9906257679786818 0.1543024969930374
2433574 -0.9903375716912762 0.15362099533462
2434074 -0.9900964977711965 0.15329627682743618
2434575 -0.9902940042318364 0.153322778988106
2435075 -0.9901954254598276 0.1536709846030863
2435575 -0.9897118507715453 0.1538055714225375
2436075 -0.9900643171253241 0.1533436142180026
2436575 -0.9904869291953119 0.15383957489376313
2437076 -0.9903797951742481 0.15376938529953896
2437576 -0.9903590803342373 0.15376282815298342
2438076 -0.9903670182803512 0.15331268416916746
2438576 -0.9897873371296313 0.1536707709241111
2439077 -0.9896044724685487 0.15379213376038833
2439577 -0.9902105961869135 0.15418484402908808
2440077 -0.9900175579410115 0.15429058512835725
2440577 -0.9907252131402421 0.1540784211996293
2441077 -0.9898898929490727 0.1540814638268094
2441578 -0.9904032181968809 0.153808641456845
2442078 -0.9892078673829355 0.1536657298719125
2442578 -0.9902082715480186 0.15410092062716954
2443078 -0.9900570892334664 0.15457601975376617
2443579 -0.9900313491628988 0.15412928935912215
2444079 -0.9902031895397302 0.15450259493987414
2444579 -0.9903238328596493 0.15360569884559358
2445079 -0.9901301371263432 0.15460965299932886
2445579 -0.989742154597014 0.1536986151766949
2446080 -0.9900385702028893 0.15417651442234206
2446580 -0.9894760740943529 0.15436401983858433
2447080 -0.9897983299703614 0.15455531131614755
2447580 -0.9896921476510754 0.15445054432240723
2448080 -0.9906469690998286 0.1546255765984356
2448581 -0.9902159409649203 0.15426177219197354
2449081 -0.9898682331947983 0.15399923745307442
2449581 -0.9899283490670157 0.15414472301354798
2450081 -0.9902322057538585 0.1547900236468259
2450582 -0.9903075785776624 0.15431427938410194
2451082 -0.989975840220389 0.15455417412968486
2451582 -0.9902807205340941 0.1545626609875862
2452082 -0.9898498363530047 0.15434163673118464
2452582 -0.9897864985570826 0.15426352521826917
2453083 -0.9899067489100178 0.15449918654014436
2453583 -0.9899120697221161 0.15481527833799325
2454083 -0.9893454646504133 0.15611048065540284
2454583 -0.9897308730674947 0.15501053249295585
2455084 -0.9904055980431696 0.1546026778184367
2455584 -0.9895816824952811 0.1551401572205901
2456084 -0.9901645325823186 0.15482962665973882
2456584 -0.9897915163080696 0.15438936301079892
2457084 -0.9898963906813325 0.15500200013131457
2457585 -0.989667679544108 0.15457332174578603
2458085 -0.9899338593151547 0.15530536862101565
2458585 -0.9898699803024165 0.15536813711886766
2459085 -0.9906094462085134 0.15418289693292025
2459586 -0.9900140533786387 0.1554409480982355
2460086 -0.9900000102961315 0.1543541316219906
2460586 -0.9896314565809546 0.15510005234792473
2461086 -0.9894773040321888 0.15521613421105673
2461586 -0.9896281682741175 0.1552320079140464
2462087 -0.9895299099880284 0.15584956141579262
2462587 -0.9900779208666156 0.15508799369430154
2463087 -0.9898000352218954 0.15568816598523832
2463587 -0.9899134986818517 0.15527480897395937
2464088 -0.9895914786758806 0.1550088979102601
2464588 -0.989681873093382 0.1549041043250046
2465088 -0.9895626810259023 0.15545552479575597
2465588 -0.990312610282575 0.15524667439445977
2466088 -0.9895226517000631 0.15602048432402718
2466589 -0.9899088717789057 0.15531170789356002
2467089 -0.9900004834100714 0.15620723626144795
2467589 -0.9899400563179531 0.15528004315745303
2468089 -0.9898564208963806 0.1553965632736582
2468590 -0.989178573856907 0.15559204626345474
2468590 -0.9889790447269811 0.15619035890571856
2469100 -0.9897906160568981 0.15558644605577662
2469611 -0.99012628147363 0.1563573976210529
2470121 -0.989749297165214 0.15549173751523307
2470632 -0.9897409005167909 0.1556513691217463
2471142 -0.9895778915265702 0.15563040793828628
2471653 -0.9899156204646854 0.15562733406218238
2472163 -0.9895485150488258 0.15547132224129173
2472674 -0.9900463113322111 0.155856921436167
2473185 -0.9894845092541795 0.15674579064928593
2473695 -0.9899390185650855 0.15569320955348798
2474206 -0.9899927982072076 0.15616006349431907
2474716 -0.9899332482748304 0.1557075379143423
2475227 -0.9894868844172534 0.15673342373988827
2475737 -0.9897568928803224 0.1557202941405085
2476248 -0.9897905439816749 0.15664854393696775
2476759 -0.9895071963927882 0.1560765946405496
2477269 -0.9896952795998648 0.1563299266182475
2477780 -0.9897726015488194 0.15610095940386745
2478290 -0.9904123138358649 0.15545310165924267
2478801 -0.9892991379186918 0.15656698624040788
2479311 -0.9891603669280924 0.15633166793441283
2479822 -0.9892523505558918 0.1571941137694089
2480333 -0.9896880325539972 0.15605475859625964
2480843 -0.9893063207876095 0.15740646997469399
2481354 -0.9901712122493086 0.1561479639507428
2481864 -0.9906007013528435 0.15680362726094932
2482375 -0.9893580687462887 0.15585623901524304
2482885 -0.989452104572269 0.15561931568041473
2483396 -0.9896651082023736 0.15589780617330248
2483907 -0.9898458589824506 0.15643489419900183
2484417 -0.9889495237738364 0.15709933180642793
2484928 -0.9893821691020562 0.1567610426681885
2485438 -0.9891521956422825 0.15755854919244025
2485949 -0.9899080282952901 0.1557467390878056
2486459 -0.9888922041532762 0.15692399340942928
2486970 -0.9894708894965968 0.1566241928170215
2487481 -0.9896768782479866 0.15736437274071902
2487991 -0.9893800315740563 0.15659348667204367
2488502 -0.9896756759834809 0.15707938226658794
2489012 -0.989734448415056 0.15716219472106902
2489523 -0.9904171426517847 0.15662778994264226
2490033 -0.9891564869207143 0.15708146634028447
2490544 -0.9902671899449351 0.1559182728436584
2491055 -0.9892768732147215 0.1573503314777104
2491565 -0.9893485343851763 0.15671011676690502
2492076 -0.9887073505508932 0.1571434109676195
2492586 -0.989501137088671 0.15669142393428329
2493097 -0.9890618642060668 0.15693439389712396
2493607 -0.989623893683919 0.15667506635187853
2494118 -0.9898392266234443 0.1573792844330833
2494629 -0.9894784878249273 0.15773876115167698
2495139 -0.9897692468340538 0.1571612508549529
2495650 -0.9887442214118105 0.15823187403160835
2496160 -0.9901076653586646 0.15794747515486915
2496671 -0.9892407685781941 0.15768396189634942
2497181 -0.990298772303001 0.15658614923658015
2497692 -0.9901234950147394 0.15830594336884313
2498203 -0.9891647482902421 0.1573463330564268
2498713 -0.9894913670230924 0.15768644016285716
2499224 -0.9892821503752588 0.15763202465100218
2499734 -0.9901875766713973 0.1577986952074648
2500245 -0.9891916472147064 0.15769238832817398
2500755 -0.9897744317643037 0.1572096320156234
2501266 -0.9890832313879956 0.15801276979547887
2501777 -0.9896937839028518 0.15721397437569667
2502287 -0.9889018326486058 0.15779910956103324
2502798 -0.9894302686095653 0.15765940794830383
2503308 -0.9899796143354953 0.158478656704564
2503819 -0.9895000497130706 0.15799513367075652
2504329 -0.989472289850535 0.15752289304941397
2504840 -0.989252388713338 0.15744002832542334
2505351 -0.9897013303223966 0.15747404915838492
2505861 -0.9888500126901942 0.15827680860862567
2506372 -0.9899565375362696 0.15759166412949188
2506882 -0.9889061799824843 0.15891638142011003
2507393 -0.9895608741255976 0.15740214971889552
2507903 -0.9891601144290822 0.15818428561486503
2508414 -0.9893893783633546 0.1576144241282925
2508925 -0.9895682572376574 0.15813789778701998
2509435 -0.9891453160634528 0.1578517191010481
2509946 -0.9890146665679758 0.15843706774566224
2510456 -0.9891245117619214 0.15847523695286928
2510967 -0.9895337173048022 0.1581736945447824
2511477 -0.9892310247479804 0.1582356324911699
2511988 -0.9897533191876138 0.1575275997021414
2512499 -0.9884870130464765 0.1587785031286797
2513009 -0.989521590332467 0.1581602283400261
2513520 -0.9889584398702813 0.15871882838148763
2514030 -0.9895593292256788 0.15804769171892655
2514541 -0.9894334472090645 0.15905662739243545
2515051 -0.988946170368838 0.1581409756297115
2515562 -0.9897583620005479 0.15882196001065227
2516073 -0.9893304711512174 0.15766322349244616
2516583 -0.9900128654309052 0.15847752653501854
2517094 -0.9884423262408946 0.159127296835168
2517604 -0.9898292750566866 0.15882134540501597
2518115 -0.9886802556097114 0.15927885202753023
2518625 -0.9901728867684718 0.15859278878403543
2519136 -0.9890931780763321 0.1589950234549916
2519647 -0.9890109049892137 0.15818105115023512
2519647 -0.9891738934125242 0.15840334836206163
2520168 -0.9894875544009182 0.1584062231674099
2520689 -0.9895589871810312 0.15890514443715173
2521210 -0.9888171115373255 0.1590446220570458
2521731 -0.9897812341658141 0.15817969429107157
2522252 -0.9884598248049139 0.15924150841158138
2522773 -0.9895781985906998 0.15859637426575682
2523294 -0.9894559709793747 0.15957147926226173
2523816 -0.988569931839084 0.15806189952463007
2524337 -0.988896290281919 0.15899824987000394
2524858 -0.9889420338761351 0.15864990466050954
2525379 -0.9894624901588852 0.15875253916761514
2525900 -0.9886235745513059 0.1595524317897126
2526421 -0.9894339163426408 0.15904556292449526
2526942 -0.9888474739746682 0.1590155730571332
2527463 -0.9893534294642501 0.1582916353189732
2527985 -0.9892152370825595 0.1596326922275436
2528506 -0.9888561647474913 0.15882500251036794
2529027 -0.9887784371822252 0.15945876524258126
2529548 -0.9888738928770995 0.15938549916306574
2530069 -0.9897451990666846 0.15947203622520784
2530590 -0.9890016647150589 0.15980414184304403
2531111 -0.9902644812207937 0.15957791275030664
2531632 -0.9885902440927354 0.15916368513853918
2532154 -0.9891762012235408 0.15880054270198854
2532675 -0.98841416799089 0.16029317384612887
2533196 -0.9887200405015799 0.15955559025913674
2533717 -0.989345978192836 0.1595471609354436
2534238 -0.9893504036917409 0.15997591002193026
2534759 -0.98998198473088 0.15954020808513258
2535280 -0.988774598748276 0.16016138354040393
2535802 -0.9895622619529795 0.1593117869386546
2536323 -0.9887032906953932 0.1598918078950355
2536844 -0.9890396044996244 0.15953793605916847
2537365 -0.989257716485155 0.16071331723275836
2537886 -0.989141040270479 0.1593446938678755
2538407 -0.9894207226262662 0.1598049633091041
2538928 -0.9890340772577346 0.15991253096382005
2539449 -0.989371628638169 0.15975847643730304
2539971 -0.988718183481553 0.15991433422362836
2540492 -0.9894140877319598 0.15965584158730595
2541013 -0.9888797807178622 0.16074107577057167
2541534 -0.9891695532608803 0.16015002969428563
2542055 -0.9893085229022651 0.16079450207456644
2542576 -0.9885799587391224 0.16024172132432232
2543097 -0.9892854810536341 0.16024463801204966
2543618 -0.9884869086486052 0.16019224980389302
2544140 -0.9888240733226094 0.16042278681001682
2544661 -0.988450541970137 0.16088207101521376
2545182 -0.9889040499072731 0.160830965950358
2545703 -0.9895737730914426 0.15967930337342567
2546224 -0.989426022161313 0.16117810902632562
2546745 -0.9892613270636771 0.15994162920489516
2547266 -0.9886691982329467 0.16072888136998892
2547788 -0.9891895058885717 0.16050393289311238
2548309 -0.9892851996520696 0.16053827561334175
2548830 -0.986812736166716 0.1598608251668944
2549351 -0.9893090284700743 0.15989648770360007
2549872 -0.987058212316669 0.16042779823960532
2550393 -0.9882410655905691 0.16052381154737896
2550914 -0.9894015324070256 0.16129818751591796
2551435 -0.9889829517413791 0.16047481665662158
2551957 -0.9894516643433989 0.16135725806909715
2552478 -0.9890132504558168 0.16079253831536972
2552999 -0.9885527397680056 0.16075581408365025
2553520 -0.988472079913114 0.16127575416975792
2554041 -0.9894370439352572 0.16075097678423292
2554562 -0.98895660520575 0.16187830833692562
2555083 -0.9888495838578127 0.16068370654218023
2555604 -0.9890534827433463 0.1615860055910438
2556126 -0.9890561713235343 0.1610273986756049
2556647 -0.9896921720812762 0.16104186007032048
2557168 -0.9891394962030522 0.16069577880627517
2557689 -0.9887578664479169 0.1605862430963842
2558210 -0.9881943632614406 0.16142625969130636
2558731 -0.9891254257430526 0.16136597633190133
2559252 -0.9887751938605738 0.16163446558077355
2559774 -0.9890287075756196 0.16168253969462373
2560295 -0.9886188614936234 0.1613305996589356
2560816 -0.9889855799767964 0.16034784268690389
2561337 -0.9881555965028445 0.16127994292771536
2561858 -0.9883058532961839 0.16190315668298672
2562379 -0.9888426622527231 0.16138230563289999
2562900 -0.9890694947152845 0.16183223878510303
2563421 -0.989207933932194 0.16105568773301634
2563943 -0.9891737463818189 0.16201429610695928
2564464 -0.988481110691407 0.16098976611953442
2564985 -0.9888280416246824 0.1616577954048792
2565506 -0.9881588981879297 0.16113075489712092
2566027 -0.989129051339735 0.16182920809333803
2566548 -0.9884684249598077 0.1616067241308672
2567069 -0.989471170074631 0.1619617168380385
2567590 -0.9883025951608994 0.1624381706426962
2568112 -0.9885522546477645 0.16166737866527275
2568633 -0.9881210407612986 0.16218747431469407
2569154 -0.9885544759367998 0.16152919757405002
2569675 -0.9884503606026526 0.16219880009837082
2570196 -0.9885111916744296 0.16166986548888268
2570717 -0.9891243690945016 0.16174682596448647
2571238 -0.9886579297408394 0.16165399306845002
2571760 -0.989931235012763 0.16242262494228485
2571760 -0.9889182197610501 0.1626980901562768
2572291 -0.9888570123895746 0.16168045737410508
2572823 -0.9889009370482649 0.16212390744081503
2573355 -0.98862269276319 0.16164820726265677
2573887 -0.988307588379263 0.16242294835173504
2574419 -0.9878832023257176 0.16238716625364316
2574951 -0.9891534342824454 0.16218035278260196
2575483 -0.9889624660331191 0.16255656358546924
2576015 -0.9888867186788314 0.16123241572384214
2576547 -0.9883773192453292 0.16215328380640498
2577079 -0.9883610054161783 0.1614519585078834
2577611 -0.9885759766911176 0.1624814866532324
2578142 -0.9879168050795473 0.16285258863789942
2578674 -0.9889857262267328 0.16253137715028682
2579206 -0.9887016772579611 0.1628895793145931
2579738 -0.9891550131186385 0.16186202938371033
2580270 -0.988958254877539 0.16231650683344237
2580802 -0.9885208284016807 0.162396738818256
2581334 -0.9885650815227878 0.16226677924704452
2581866 -0.988003760375142 0.16308965845114756
2582398 -0.9888117235172957 0.16287829447421429
2582930 -0.9888162874009778 0.16381925900955663
2583462 -0.9880444062272393 0.16198424249682894
2583993 -0.9888326872527544 0.16274710611738596
2584525 -0.9879139350266579 0.16298697754478075
2585057 -0.9882495518198321 0.16257191746717736
2585589 -0.9876890685750724 0.16353204077705033
2586121 -0.9891057349869243 0.16249701815843778
2586653 -0.9892491710397172 0.16315365821369884
2587185 -0.9886682412484824 0.16231724399465483
2587717 -0.9889603601716659 0.16261040597559612
2588249 -0.9875185692537909 0.16286180527381658
2588781 -0.9882727050812979 0.16216676917761982
2589313 -0.9876621803607292 0.16418338725784015
2589844 -0.9888514038978472 0.16290732539094424
2590376 -0.988878736937805 0.16393162294435573
2590908 -0.9884393826730027 0.16299871455436174
2591440 -0.9888057335601539 0.16327599553783093
2591972 -0.9881054647209989 0.16216507389028179
2592504 -0.988692652381485 0.16256091006278217
2593036 -0.9876369514815844 0.16425614254497015
2593568 -0.9888191692424688 0.16282695549742818
2594100 -0.9892154777991296 0.16409898314883473
2594632 -0.988614584372037 0.16306881495567907
2595164 -0.9886095744350548 0.16352617133863134
2595695 -0.9875791363913725 0.16367449330850667
2596227 -0.9887140437565078 0.1632224511221182
2596759 -0.9881203481894322 0.16450818299868314
2597291 -0.9886537290679737 0.16332350577551857
2597823 -0.9886173738133973 0.16387003214541856
2598355 -0.9884843671577589 0.16353903981359927
2598887 -0.9886273048175952 0.1630938447149255
2599419 -0.9892758786782887 0.16394845911854805
2599951 -0.9876176210075127 0.1645841883292503
2600483 -0.9887392669454678 0.16379930407191445
2601015 -0.9878663742695105 0.16436519181458886
2601546 -0.9889058806100357 0.1633025539888609
2602078 -0.9883839959501477 0.163829118939081
2602610 -0.9883220733979656 0.16359588376804102
2603142 -0.988556129376548 0.1639877148322407
2603674 -0.9876221480823688 0.16458392128426363
2604206 -0.9897768626091381 0.1640443035681926
2604738 -0.9877702709753887 0.16438851124037138
2605270 -0.9885423057605892 0.16330436704668333
2605802 -0.9879081960491367 0.1643620881071655
2606334 -0.9883437073869189 0.1634122257360871
2606866 -0.9881531995153939 0.16411013379083625
2607397 -0.9877881627432895 0.16436571110218387
2607929 -0.988688052129104 0.16447666646207812
2608461 -0.9877689357214359 0.16545560740500087
2608993 -0.9887432800103629 0.16375745091636704
2609525 -0.9883120722271277 0.16457667252442143
2610057 -0.9879578470997586 0.16330581657564353
2610589 -0.9882374629482863 0.1644324656964716
2611121 -0.9880722595573241 0.16435048924195556
2611653 -0.9887433666342119 0.1642195293353901
2612185 -0.98793494740491 0.16543461662558012
2612717 -0.9890104506491443 0.16377600998346104
2613248 -0.9882138996631903 0.1646488724825711
2613780 -0.9882297349221845 0.16356117392935995
2614312 -0.9879156029478048 0.16494226155785277
2614844 -0.9875965653610893 0.16458686830053487
2615376 -0.9889062155056424 0.16484387674476286
2615908 -0.9880530262605601 0.16560832024724445
2616440 -0.9887121493434698 0.1645488704610677
2616972 -0.9882044461987973 0.16531139256594485
2617504 -0.9880510735707598 0.163820404455521
2618036 -0.9880531187835588 0.1650907913825564
2618568 -0.9879122383290967 0.16454685526012003
2619099 -0.9883381746293675 0.16524977038312785
2619631 -0.9875120308310472 0.16580727145380247
2620163 -0.9889628749930893 0.1644127084681501
2620695 -0.9878456758069429 0.16556790732104207
2621227 -0.9875071524810487 0.1646821691152505
2621759 -0.9877747188244028 0.16557805343798618
2622291 -0.9876498155018392 0.16509839503366705
2622823 -0.9889482855389057 0.1656533885773776
2623355 -0.9877433701911759 0.16622963532881013
2623887 -0.9895212343533685 0.16509203129979827
2624419 -0.9877496671467104 0.16562324187431632
2624951 -0.9884588913856392 0.1647210227190666
2624951 -0.9884921868109355 0.16464133710113046
2625493 -0.988754582218596 0.16596218781870958
2626036 -0.987905909547808 0.1654349653103757
2626579 -0.9885385556485737 0.16554584007887543
2627122 -0.9879003019748658 0.16613772614331318
2627665 -0.9885764453175356 0.16533972204299885
2628208 -0.9884803960687281 0.16612013492650984
2628751 -0.9877919547865666 0.165264385965571
2629294 -0.9877454598401881 0.16570431621194628
2629837 -0.9880424979033047 0.16596657661609387
2630380 -0.9881223898494093 0.16518814548134836
2630923 -0.9876688245847034 0.16634585999709225
2631465 -0.9883772443463593 0.1645020024770124
2632008 -0.9880561264390869 0.1657423377347837
2632551 -0.9877103737058868 0.16523841679843296
2633094 -0.9881666863546067 0.16582041134365133
2633637 -0.9877527995636373 0.1667405541965004
2634180 -0.9882860986922326 0.16558678008912225
2634723 -0.9877255765143531 0.16665249670488924
2635266 -0.9876594839237406 0.1656301964920759
2635809 -0.9884128774886368 0.16604138160734233
2636352 -0.9877949551694799 0.16605822964070896
2636895 -0.9881172706384157 0.16587934428481427
2637437 -0.9872966908202707 0.16659185608567167
2637980 -0.9881754921872258 0.1657672583376625
2638523 -0.9879549530037811 0.16724971842468508
2639066 -0.9878590533313524 0.16608173201204837
2639609 -0.9884454291442178 0.1661666795811878
2640152 -0.9876843764166829 0.16632718394140425
2640695 -0.9878644337180224 0.16595814182893562
2641238 -0.9875355185611104 0.16707807183491252
2641781 -0.9876672028986601 0.16594582828195284
2642324 -0.9882585076976257 0.16688972186507592
2642867 -0.9881903421624467 0.16630843689447108
2643409 -0.9883382957591261 0.1662991255313132
2643952 -0.9875053285290036 0.16677531872770668
2644495 -0.9876447898964877 0.16580107728270246
2645038 -0.9872230270406365 0.1668217844535701
2645581 -0.9877008913056667 0.16602456177155406
2646124 -0.9885464538847447 0.16695808215710803
2646667 -0.9877406017883527 0.16720807067285762
2647210 -0.9882052431711763 0.16616389094248474
2647753 -0.988039143794196 0.16713356879683333
2648296 -0.987803075425563 0.1660612018642039
2648839 -0.9875062515155244 0.1673302801859596
2649381 -0.9871236767616497 0.16679309273380227
2649924 -0.9880711572310049 0.16669940503316452
2650467 -0.9878174662634213 0.16848612530812146
2651010 -0.9874232737034091 0.16616760611468376
2651553 -0.9878830622626782 0.16675689391415938
2652096 -0.9868716985383573 0.16732899948829838
2652639 -0.9879362724419394 0.16714590011893016
2653182 -0.9871854789979309 0.16756332661101084
2653725 -0.9882418437436 0.16655250494224702
2654268 -0.9881330004175909 0.1676746463512489
2654811 -0.9871721806668896 0.16652616742922283
2655353 -0.9877596499835583 0.16745384839061225
2655896 -0.9876586031423269 0.16828267038533765
2656439 -0.9881245053087856 0.16717535185962987
2656982 -0.987650011640225 0.1679259439213921
2657525 -0.9875091582024517 0.16615954184143647
2658068 -0.9877856061437444 0.16747504971280647
2658611 -0.9880938814553318 0.16680155278273529
2659154 -0.9877934005323507 0.16756037059938572
2659697 -0.9874933794572276 0.16803747386687912
2660240 -0.9878141722619684 0.1671188549814028
2660783 -0.9874704013646654 0.16826135560657743
2661325 -0.9876646796100881 0.16710082834147147
2661868 -0.9879891283142936 0.167658431750297
2662411 -0.9873050344133818 0.16771599690182853
2662954 -0.9879748336310212 0.16772733591130337
2663497 -0.9868382119017793 0.16820956724921504
2664040 -0.9874918376135715 0.16718674677837037
2664583 -0.9875011965759289 0.16820137054477693
2665126 -0.987550185370923 0.1673603395243697
2665669 -0.9880073014112325 0.16779264244226078
2666212 -0.9870994373220671 0.1682822469133413
2666755 -0.9878038276254947 0.167318381600861
2667297 -0.9870952205391966 0.16845936235666528
2667840 -0.9869993282196615 0.16728501765086082
2668383 -0.9875795676790404 0.16828887514259994
2668926 -0.9880696154339369 0.16783690359469397
2669469 -0.9882211620243911 0.16788539279430525
2670012 -0.9875110698228221 0.1685581575348602
2670555 -0.9878731833513453 0.16767420527291277
2671098 -0.9870201302702694 0.16887168704273495
2671641 -0.9867212894938177 0.16721326967648117
2672184 -0.9876659596837759 0.16865380929477106
2672727 -0.9880588024186983 0.16797896888644454
2673269 -0.9878423872106765 0.16868204181364513
2673812 -0.9874991364803973 0.16887493428813588
2674355 -0.9875305554516194 0.16749357881957594
2674898 -0.9874839736898354 0.1689860960275393
2675441 -0.9868492867050702 0.1679500123745135
2675984 -0.9877308876317269 0.16907359247425402
2676527 -0.9874227239711963 0.16893724235018445
2677070 -0.9885039146118707 0.16777628673511427
2677613 -0.9870009244954435 0.1690258665066041
2678156 -0.9873178946913246 0.16742821864858357
2678699 -0.9875309612356303 0.16968429897440526
2679242 -0.9867289538498594 0.16767465494117959
2679242 -0.9873422637141577 0.16795427966541648
2679796 -0.9869296572199768 0.1694543715523887
2680350 -0.9876345677804438 0.16797405397873616
2680904 -0.9874277449470942 0.16909851667642195
2681458 -0.9873125763000166 0.1686596729632465
2682012 -0.9876351555870755 0.1676622813470563
2682566 -0.9867015076615219 0.16980102801723282
2683120 -0.9871675750609454 0.1686477102876216
2683675 -0.9877839717897166 0.1697037214556964
2684229 -0.9871975303883564 0.1689223086471733
2684783 -0.9880081987144775 0.16778919591398808
2685337 -0.9870179207653258 0.16980855850832013
2685891 -0.9873120905017109 0.16841923860679378
2686445 -0.9877824178076617 0.16990847091869837
2686999 -0.9877618588465356 0.16911014406261587
2687554 -0.9876641258686154 0.16891227509301593
2688108 -0.9870066109032732 0.17020108357265412
2688662 -0.9878469249487498 0.16873236103257827
2689216 -0.9871530790719816 0.1694648153488928
2689770 -0.9871832872291101 0.1691332477949052
2690324 -0.9870283181608266 0.16958350228146307
2690878 -0.9872002944821656 0.1698991038169384
2691433 -0.9881775952628707 0.16894723702554088
2691987 -0.9875614811085774 0.17004044367004115
2692541 -0.9873463952938759 0.16923869503639127
2693095 -0.9863887603858454 0.16909116540688876
2693649 -0.986191985763876 0.16983294586060552
2694203 -0.9876014974203806 0.1694189107171624
2694757 -0.9869252699149901 0.16984745445745364
2695312 -0.987865402126057 0.16913354220177623
2695866 -0.9875647527763267 0.16904636456548752
2696420 -0.986951117044737 0.16992427851922182
2696974 -0.9876015476541109 0.16925796980734456
2697528 -0.987076630082052 0.1704344397559018
2698082 -0.9865985243646258 0.168887642410703
2698636 -0.9870331744195924 0.16920617776730953
2699191 -0.9887924185953046 0.17046830615172817
2699745 -0.987474422298322 0.1696673666797138
2700299 -0.9872570635570682 0.17085335741920973
2700853 -0.9870606444094254 0.16949832721725447
2701407 -0.986572856637304 0.1703483646441286
2701961 -0.987292378979713 0.17009269263985605
2702515 -0.987630032331121 0.1702205413504894
2703070 -0.9881572188744434 0.17110564524323685
2703624 -0.9876874811243866 0.1694178644300363
2704178 -0.9871845708730366 0.170449160697519
2704732 -0.986409185670935 0.16986184273227684
2705286 -0.9872699235659133 0.1705682885125412
2705840 -0.9869163317937704 0.17074210299224526
2706394 -0.9874724783773022 0.1698873163313468
2706949 -0.9873730237156717 0.1709631109936925
2707503 -0.9872392209835554 0.16951683533598727
2708057 -0.9860870449580249 0.1704976782825871
2708611 -0.9867737794898425 0.1696046414192084
2709165 -0.9871017032175976 0.17107281152811912
2709719 -0.9867798650833906 0.17088442800305428
2710273 -0.9878629732341382 0.17062772272531967
2710827 -0.9863297757339987 0.17097476395414254
2711382 -0.9868330095038148 0.17014286058939318
2711936 -0.9870139769697848 0.1716035174237572
2712490 -0.9870084035865108 0.17070506664058138
2713044 -0.9882819149790102 0.17085376000527266
2713598 -0.9868585551749528 0.17116560122436392
2714152 -0.9871149066109621 0.17009928271226515
2714706 -0.9870123313725809 0.17116984830813442
2715261 -0.9865013267227536 0.17147316265370222
2715815 -0.9877524498625809 0.17043480366936875
2716369 -0.986700888818901 0.17129493384793446
2716923 -0.9870131592145401 0.17042299983299758
2717477 -0.9864570394863972 0.17066860595665423
2718031 -0.9863659600476331 0.1711303859417306
2718585 -0.9881616684045357 0.17115213100902674
2719140 -0.986290307820271 0.1716613561956671
2719694 -0.986993868308955 0.1704978845748886
2720248 -0.9866562059784052 0.17105930674432004
2720802 -0.9867975613214078 0.17124699912949573
2721356 -0.9880986345161273 0.17114551384014975
2721910 -0.9866631727131288 0.17154597827968032
2722464 -0.9865454148837525 0.17077384497334197
2723019 -0.98679406148175 0.1708939463490035
2723573 -0.9861874870224271 0.1717399513207089
2724127 -0.9877393314936598 0.17123576163010268
2724681 -0.9869392674045502 0.17183987034986742
2725235 -0.9872778949120999 0.1713943137900359
2725789 -0.9867620920766358 0.17135732083625263
2726343 -0.9865960282706794 0.17179881751996937
2726898 -0.9870439434753369 0.17130128651284454
2727452 -0.9865674664267088 0.17224245488689682
2728006 -0.9874224564762497 0.17088553322771058
2728560 -0.9871521191766963 0.17164984525241087
2729114 -0.9863937095267094 0.172436574723829
2729668 -0.9867573720108822 0.17068981812182926
2730222 -0.9863021355912868 0.17201087284212155
2730777 -0.9864773148970696 0.17200094335914992
2731331 -0.9872176329305216 0.17207814594997606
2731885 -0.9866386511575971 0.1725313162053511
2732439 -0.9869509809343615 0.1712376025743861
2732993 -0.9865581292248029 0.1721888407597038
2733547 -0.9869084691829823 0.17186780207689065
2734101 -0.9866214192721562 0.1724086449224951
2734656 -0.986038788159197 0.17290773379520769
2734656 -0.98643533482308 0.17294846474347023
2735221 -0.9865607610062928 0.17195707441721284
2735787 -0.987394361171031 0.17235971134972086
2736352 -0.98581542534013 0.17247737335219215
2736918 -0.9874555042477576 0.1711999471155833
2737484 -0.9873183809457773 0.17305581323231603
2738049 -0.9865114893485122 0.1723120193021005
2738615 -0.9874905130592415 0.17238769176571545
2739180 -0.9858686267190756 0.17244296665298708
2739746 -0.9870423851077501 0.17187948563411448
2740312 -0.9875602687825931 0.1728820431619604
2740877 -0.9859154254416789 0.17191688293815727
2741443 -0.9873279948466255 0.17217440388789093
2742008 -0.9859277183353579 0.1734040965100144
2742574 -0.9863642001670644 0.1721134582820496
2743140 -0.9877440120696858 0.17373987532339735
2743705 -0.9869216828517646 0.1722563298876242
2744271 -0.9875529676609481 0.17290190767464786
2744836 -0.9856439784033055 0.17274335422829926
2745402 -0.9861917282665644 0.1715559094618308
2745968 -0.986607302513827 0.17364801807751604
2746533 -0.986177220580864 0.17275757721567894
2747099 -0.9875283911375172 0.17281267806706843
2747665 -0.9860111637561711 0.17325382418743482
2748230 -0.9867803317229031 0.17194533992663397
2748796 -0.9871539588323788 0.1731665882340422
2749361 -0.9860037290736234 0.17238318777329434
2749927 -0.9874443447809567 0.17254397473896735
2750493 -0.98631485801716 0.17454151454830635
2751058 -0.9870332466401497 0.17193816620911842
2751624 -0.9873806060170857 0.17329962365459606
2752189 -0.986204433396877 0.17276678155896558
2752755 -0.9870218405779088 0.17258014342796782
2753321 -0.9858103381097261 0.17398865783108577
2753886 -0.9864609327348969 0.17292568245416923
2754452 -0.9875047707303293 0.17372446558016572
2755017 -0.9856393448560847 0.1731699614462935
2755583 -0.9871599367068087 0.17245504416419172
2756149 -0.9861288220163771 0.17385528776130282
2756714 -0.986316905728755 0.1727279586013825
2757280 -0.9869993052617458 0.1737463840427772
2757846 -0.9861366455990382 0.1720790493532687
2758411 -0.9865106669372598 0.17395601879049097
2758977 -0.9866498274860815 0.1738638795382973
2759542 -0.9874633649373001 0.17276153433199365
2760108 -0.9863469701440978 0.17400285686298553
2760674 -0.9861416868862524 0.17235230113409417
2761239 -0.9862956190772232 0.1739497437037157
2761805 -0.986646495709322 0.17444802068436682
2762370 -0.9867077202431161 0.17290169961628266
2762936 -0.9860908145070678 0.17396532913820836
2763502 -0.9862876296128611 0.1737089193171227
2764067 -0.986344603234368 0.17376221322995608
2764633 -0.9854079447595729 0.17459796922482013
2765198 -0.9861793072605195 0.17358310206688493
2765764 -0.9863448513069245 0.17471042599271508
2766330 -0.9866111033250066 0.17369676461884362
2766895 -0.9870128613485984 0.17380338523369268
2767461 -0.9858676323580919 0.17449982015659551
2768026 -0.9860997420901573 0.17297814916818943
2768592 -0.986517077693705 0.17469254520839264
2769158 -0.9863256871150813 0.17386583283789955
2769723 -0.9865700508527346 0.17404583529613302
2770289 -0.9864672933171537 0.174680065371648
2770855 -0.9861811967643408 0.17331254364136814
2771420 -0.9862096417813938 0.17475939700368145
2771986 -0.9861332075725574 0.17470671629716378
2772551 -0.9863026307063918 0.17442679718834966
2773117 -0.9856375828499356 0.1751941538620287
2773683 -0.9861746876315262 0.1744343802007998
2774248 -0.9872553474185319 0.17457280288978907
2774814 -0.9865562425737787 0.17436540683108892
2775379 -0.9861216197907171 0.1741347172989484
2775945 -0.9856595560247728 0.17547666588934616
2776511 -0.9866765634726864 0.1744077528719692
2777076 -0.9864575675833892 0.17458579955938042
2777642 -0.9868031021395062 0.1749776488878086
2778207 -0.9867777246308008 0.17422166470267594
2778773 -0.9858313338528867 0.17514322429789803
2779339 -0.9863830492615226 0.1743393857592539
2779904 -0.9862109821328111 0.1753498830697289
2780470 -0.9864033209580177 0.1752983195055628
2781036 -0.9863831702087791 0.17402781364502393
2781601 -0.9861783709462122 0.1755426735342887
2782167 -0.9867547878643017 0.1749051199086124
2782732 -0.986398504389664 0.17475998377659283
2783298 -0.9863277710690395 0.1754314800920029
2783864 -0.9861270052851967 0.17440769760541486
2784429 -0.9862213628771304 0.17553429667348228
2784995 -0.9865262935988578 0.1750151405858152
2785560 -0.9863280738538633 0.17517002563609385
2786126 -0.985713804482162 0.176034631026487
2786692 -0.9858871719516799 0.1741867307846637
2787257 -0.9856126704366825 0.17608753904491614
2787823 -0.9862781759065642 0.17579408915183542
2788388 -0.9866375882891947 0.1758050076084219
2788954 -0.9860210754283969 0.17603639860576506
2789520 -0.9860746799798644 0.17434587193581158
2790085 -0.9858780461238363 0.17586032484778674
2790651 -0.9863757960455168 0.174836559010109
2791217 -0.9864258521763907 0.17537682712793648
2791217 -0.9868030830408256 0.17551277857653735
2791794 -0.9854198950765035 0.1763675861146436
2792371 -0.9858992183414897 0.1745037334421688
2792948 -0.986149795981804 0.17586083283667361
2793526 -0.9857704393290767 0.17636274318637896
2794103 -0.9858938229302779 0.17454895754749084
2794680 -0.9858565451465846 0.17616523227740374
2795258 -0.9862846525172735 0.175612504008803
2795835 -0.986775130121368 0.17543740866961816
2796412 -0.9859642912305794 0.17683690677039457
2796989 -0.9856892760067133 0.1748444101329977
2797567 -0.9864399218283032 0.17613405211697544
2798144 -0.9865906728400264 0.1762636136995355
2798721 -0.9862694696881069 0.1762926774619899
2799299 -0.9858917536359176 0.176629185624406
2799876 -0.9854209165333078 0.17505267625698137
2800453 -0.9862564808196632 0.17618946084139964
2801030 -0.9857302525108254 0.17619522677571334
2801608 -0.9854204897331568 0.17507990082077812
2802185 -0.9859159666504403 0.17676800413468666
2802762 -0.9859973408852148 0.17564350427173606
2803340 -0.9867946293910264 0.1760960629671247
2803917 -0.9856282031987352 0.17695500688104873
2804494 -0.9853408531850625 0.17481606441905023
2805071 -0.986379998109933 0.17647148183108152
2805649 -0.9860768784125258 0.17675173303427727
2806226 -0.9862849055921525 0.1760937666052555
2806803 -0.9859510110220979 0.17709792965600624
2807381 -0.9856453313240517 0.17605307674865214
2807958 -0.9866508436419694 0.17686656358768826
2808535 -0.9859052297924876 0.1770410245817994
2809112 -0.985513607070962 0.1754584384613507
2809690 -0.9858811575132534 0.17724317377255674
2810267 -0.9860550948970108 0.17641267962349952
2810844 -0.9867543674773556 0.1766779677337486
2811422 -0.9861916027467411 0.17729009165609955
2811999 -0.9852394890690654 0.1759772814709066
2812576 -0.9860462993309003 0.17741790252164769
2813154 -0.9861844749169851 0.17664980300232092
2813731 -0.9865463790475701 0.176852269062606
2814308 -0.9858374303997618 0.1773524084599048
2814885 -0.9857140261998882 0.17656402721657888
2815463 -0.9863537967572477 0.17735626573441843
2816040 -0.9862656926587602 0.17757664129266681
2816617 -0.9854233365534727 0.1763279006743623
2817195 -0.9857241083664163 0.17787517597356878
2817772 -0.9857497527003483 0.17733167947048384
2818349 -0.9862903492595737 0.17748511697127695
2818926 -0.9857760399797791 0.17675413893211706
2819504 -0.9860647181669796 0.17805721634038565
2820081 -0.985123796362439 0.17658869735322164
2820658 -0.9859578422316233 0.17714234695753747
2821236 -0.9858266562604451 0.17821629764168487
2821813 -0.9865015154491904 0.1762517374132115
2822390 -0.9862342219630776 0.17764083834639444
2822967 -0.9847686717552501 0.17700811777067166
2823545 -0.985910527119827 0.17698557225957848
2824122 -0.9859460584860547 0.17905622400021967
2824699 -0.9852379580338444 0.1762662897207983
2825277 -0.9858605812050577 0.1780970413264824
2825854 -0.9855998233555326 0.17850446468548317
2826431 -0.9865562370957991 0.17654783099797489
2827008 -0.985971578954994 0.17800329323726338
2827586 -0.9853751365619214 0.1770923908388772
2828163 -0.9858706775893215 0.17770970510865633
2828740 -0.9857287558050506 0.17867231413534088
2829318 -0.9862235045748085 0.17649368346940525
2829895 -0.9859710263511589 0.17861941073779553
2830472 -0.9852551299595154 0.17773802890683155
2831050 -0.9857866351310154 0.17711754456998371
2831627 -0.9856782302420218 0.17891070141852125
2832204 -0.9850275753741389 0.17725481780506333
2832781 -0.986119579022154 0.17864750741023078
2833359 -0.9862057473554754 0.17792579549853063
2833936 -0.9861566924748921 0.17761246496038538
2834513 -0.9855189387687856 0.17889700916200565
2835091 -0.9848394341940643 0.1773944662129254
2835668 -0.9860207133242791 0.17859177656294864
2836245 -0.9860971231993714 0.17865711861533967
2836822 -0.9856882791052669 0.17696473501910395
2837400 -0.986357471215589 0.1790858924852758
2837977 -0.9854562676054371 0.178784460832205
2838554 -0.9863823560633224 0.17806766593345633
2839132 -0.9852360497841252 0.17956426909009943
2839709 -0.9851095900141181 0.17744054348931323
2840286 -0.9859936274685578 0.17901079967794456
2840863 -0.9861066499860256 0.17948411140611198
2841441 -0.9860863032656 0.17746578401735688
2842018 -0.9854900280100085 0.17875680595971605
2842595 -0.9852874721507084 0.17888879252841275
2843173 -0.9856709866140942 0.17846765912372822
2843750 -0.9856745210830682 0.17963666143601267
2844327 -0.9858449036112547 0.1778464438374976
2844904 -0.9861863876740578 0.1791950706741924
2845482 -0.9856242920548124 0.17891948815793246
2846059 -0.9858717581245662 0.1784433128223626
2846636 -0.9854803126707796 0.17958748380793668
2847214 -0.9852874223595623 0.17829887671589964
2847791 -0.985884424811301 0.17884331378025065
2848368 -0.985308760047117 0.17980175233967033
2848946 -0.9850213833553941 0.1777148614158269
2848946 -0.986000504386621 0.1783189180681581
2849535 -0.9848968380428315 0.1790316848325645
2850124 -0.9850853619833696 0.17880057708062103
2850713 -0.9856450079062898 0.17884739776644
2851302 -0.9857851342265951 0.17904590003547788
2851892 -0.9861010793974739 0.17881027729468002
2852481 -0.9862250787478674 0.17915232285702648
2853070 -0.9854118241412593 0.1798053227576575
2853659 -0.9856743546357642 0.1788535907679495
2854249 -0.9844815529683664 0.17992858422045366
2854838 -0.984640590710494 0.17953968140839474
2855427 -0.9863173833386025 0.179146412272755
2856016 -0.9848662211028352 0.18003392655551595
2856606 -0.9855269591057166 0.17961476941876062
2857195 -0.9865645902859237 0.17952636653003917
2857784 -0.9851017127296613 0.17948451282745184
2858373 -0.984853432961868 0.17953312251511946
2858963 -0.9856636326927344 0.17959262495081396
2859552 -0.9849183556118098 0.18039743577745276
2860141 -0.9862544819671646 0.17940231518752822
2860730 -0.9851303503375982 0.17938944986459607
2861320 -0.985024240767472 0.17987337655782365
2861909 -0.9859595550712758 0.1794934282604226
2862498 -0.9851431151416772 0.17966761151372576
2863087 -0.9847332836610532 0.1806398889074128
2863677 -0.9860312926563809 0.17990558315665342
2864266 -0.9858367073399019 0.18020258789693117
2864855 -0.9857651987706891 0.18035595329963347
2865444 -0.9850044164725649 0.17887479051920196
2866033 -0.9852785067556098 0.18047356297248413
2866623 -0.9852328340067352 0.18059842614057578
2867212 -0.9851388134113962 0.17924438284931496
2867801 -0.9853106177689643 0.1809002728844761
2868390 -0.9856658485128673 0.17949765313307772
2868980 -0.9857100133396874 0.18023211688401516
2869569 -0.9849059024577355 0.18112138662218985
2870158 -0.984418909396387 0.17956108127537657
2870747 -0.9857873205018841 0.18068789748108252
2871337 -0.9853420134279147 0.1805654831200202
2871926 -0.9851571527055976 0.17964169305076086
2872515 -0.984957775298449 0.18055788253636937
2873104 -0.9851391567774984 0.1805121947512122
2873694 -0.9854056770268732 0.17970077928288775
2874283 -0.9851498899026696 0.181576827291366
2874872 -0.984792345752482 0.1800740692973967
2875461 -0.9854209924410658 0.18046156640880773
2876051 -0.9849395738733915 0.18152976100293305
2876640 -0.9847568065185021 0.17944510231836178
2877229 -0.985425933187517 0.18073469394960778
2877818 -0.9851533621721629 0.18144865909926888
2878408 -0.9847328934187269 0.18008316079770034
2878997 -0.9852734675005211 0.1815482699950969
2879586 -0.9855994327339005 0.1820459918979358
2880175 -0.9849682741679218 0.17972653733408808
2880764 -0.9852844920139274 0.18148598631662116
2881354 -0.9850520311580329 0.1814139779335785
2881943 -0.9860410304410728 0.1803497023645856
2882532 -0.9846465183092613 0.18160246705983651
2883121 -0.9845287891414333 0.18019435624493477
2883711 -0.985206318397194 0.18121124346156908
2884300 -0.9849079206749003 0.18228604145448699
2884889 -0.9845453754507142 0.18037413451892143
2885478 -0.9849699199902777 0.18186891680027567
2886068 -0.9848490805368685 0.18158487332319337
2886657 -0.9853847203715796 0.18020913859850482
2887246 -0.9846385140543538 0.18211106884582437
2887835 -0.984251413877494 0.18061268453863236
2888425 -0.9850247031758644 0.1814837246787557
2889014 -0.9851247052621912 0.18227854339205712
2889603 -0.9846448626493711 0.18067678193340947
2890192 -0.9851994008002668 0.18232891990421246
2890782 -0.9845242673088909 0.18189303978203084
2891371 -0.9852806620315486 0.18059321534110584
2891960 -0.9849694609639639 0.18229285976573595
2892549 -0.9845185034580566 0.18092333852360892
2893139 -0.9855843667386951 0.18160929144263746
2893728 -0.9850768609410656 0.18296552369608685
2894317 -0.9848979848167088 0.18049424560053584
2894906 -0.9852930970286811 0.1825518550727379
2895495 -0.9848198468025046 0.1819892872119746
2896085 -0.9850505373766634 0.18102674777827224
2896674 -0.9843865045163872 0.18255231925798138
2897263 -0.9843042768307793 0.182318481226361
2897852 -0.9850452464822473 0.1812304150705124
2898442 -0.9850083985349107 0.18240222502396577
2899031 -0.9844022901294787 0.18067465868101662
2899620 -0.984892750238034 0.18253488632079887
2900209 -0.9851093562315857 0.18359426756648944
2900799 -0.9848994920438053 0.18091724511103954
2901388 -0.9847910244471707 0.1828597728236901
2901977 -0.9849024644881843 0.181950699175522
2902566 -0.9854846107768301 0.18165585246237137
2903156 -0.9846775357552607 0.1834574307001138
2903745 -0.9842526301802623 0.1820636303010434
2904334 -0.9850619265499989 0.18258565397032836
2904923 -0.9848596035029089 0.18359406550426013
2905513 -0.9850793955713961 0.18126721670924756
2906102 -0.9845359687134113 0.18319835634903064
2906691 -0.984577411726659 0.1828535204811594
2907280 -0.9856006464569788 0.18151300704584386
2907870 -0.9848993147465889 0.18372629311916652
2907870 -0.9853186803111896 0.18220740440974634
2908471 -0.9846686648638098 0.1830843657847301
2909072 -0.9845052137380518 0.18289683296560313
2909674 -0.9855059744826099 0.18273475462275487
2910275 -0.9845258269812697 0.18320730828827603
2910877 -0.9849310982628205 0.1830267498933369
2911478 -0.9854955989051254 0.18267956886399747
2912080 -0.9842232644176944 0.1828615058192755
2912681 -0.9846930743784359 0.18253332295806277
2913282 -0.9853620207507402 0.1837838894131152
2913884 -0.9845321066066708 0.18327851250480548
2914485 -0.9850053144060575 0.18268549434553066
2915087 -0.9851408311793434 0.18310890908594507
2915688 -0.9841214435862139 0.18317185191608684
2916290 -0.9849894911201327 0.18284555684794707
2916891 -0.9840402826902486 0.1834533526853571
2917492 -0.9844278308060365 0.18325797821703793
2918094 -0.985352404651126 0.18276615376167418
2918695 -0.9844011286836877 0.18340826453938022
2919297 -0.9841366294019571 0.18372089651401974
2919898 -0.9850739280104919 0.18328656905749702
2920500 -0.9838077321257462 0.18392283514987648
2921101 -0.9843975641974099 0.18331784220936098
2921702 -0.9856382766457503 0.18385043523954703
2922304 -0.9840366518368399 0.18368567571088695
2922905 -0.9845523422917729 0.183446038976837
2923507 -0.9849696601251757 0.1840484267925576
2924108 -0.9843082313341909 0.1838154916961542
2924710 -0.9850431570567592 0.18303618530844668
2925311 -0.9840293309220187 0.18390387744213157
2925912 -0.9841461037470433 0.18383659508785616
2926514 -0.9854432965955259 0.18351605585546416
2927115 -0.9835344126705889 0.18441636661140562
2927717 -0.9844363151543204 0.18352580341223215
2928318 -0.9848404262704399 0.18357349959855707
2928920 -0.9835675127862916 0.18405395329997296
2929521 -0.9846775582060504 0.18433706643309244
2930122 -0.9855090243377356 0.18421483601673225
2930724 -0.9842422406744092 0.18420662523296427
2931325 -0.9850655867707035 0.1838059752729064
2931927 -0.9849339694897096 0.18454284402306798
2932528 -0.9842691937647058 0.18429420445047257
2933130 -0.9844475670504245 0.18337394750875352
2933731 -0.9843038795336198 0.18454756060672037
2934332 -0.9841481236510251 0.18432959675120053
2934934 -0.9850714869479198 0.18429222329431752
2935535 -0.9837191054102177 0.18493113587296117
2936137 -0.9840276849419843 0.18465325388905582
2936738 -0.9841253493639257 0.1841404831149555
2937340 -0.9843944588078832 0.1849053432333618
2937941 -0.9849505671462481 0.18470859457217337
2938542 -0.9835434821350939 0.18457568799152246
2939144 -0.9843406284488295 0.1842561847416036
2939745 -0.9852325807283993 0.1845957624983373
2940347 -0.984103634945824 0.1843633558872279
2940948 -0.9844016673574775 0.18417577068669114
2941550 -0.9851169135364273 0.18468839072582136
2942151 -0.9837564624305178 0.1843097120530147
2942752 -0.984997560391867 0.18411869854712226
2943354 -0.9838551613307895 0.1846840871026162
2943955 -0.9838902963219978 0.18506811300774767
2944557 -0.9852156029685899 0.18472278808250708
2945158 -0.9837266705460965 0.18520235258225717
2945760 -0.9839697769637642 0.18487484223051856
2946361 -0.9853403795930127 0.18480489351214255
2946962 -0.9837226262928505 0.1853000072563134
2947564 -0.983938603777305 0.1849785135449525
2948165 -0.984942833195795 0.18504474648076116
2948767 -0.9837810752366497 0.18538629326559147
2949368 -0.9842808430917525 0.18525884415465882
2949970 -0.9848228151747724 0.18554189608427457
2950571 -0.9836308951261036 0.18535550779914964
2951172 -0.9847403309165998 0.18506992780143106
2951774 -0.984155318557552 0.1855187699034175
2952375 -0.9842846030424308 0.18541689495906535
2952977 -0.9850250521019523 0.18462863850392774
2953578 -0.9835419209837172 0.18551603657828242
2954180 -0.9840085981985354 0.18526655842001027
2954781 -0.984768030972521 0.1857460920571769
2955382 -0.9832857272254668 0.18541303352164196
2955984 -0.9842249907018954 0.1857410657043278
2956585 -0.9843901928106278 0.18590748016996653
2957187 -0.9834723089562257 0.18567774543867474
2957788 -0.9845613731744475 0.18477371134181733
2958390 -0.9845225603213287 0.18574565450092095
2958991 -0.9838917305300989 0.18542610048705035
2959592 -0.9852100658950114 0.18529732739457222
2960194 -0.9836842037181088 0.1859302539881247
2960795 -0.9835465548657039 0.18531143258348076
2961397 -0.9851687160162363 0.1859096863782473
2961998 -0.9829691382900314 0.18623565204965795
2962600 -0.9835858284391034 0.18580065554805372
2963201 -0.9853062126528478 0.18621289308594943
2963802 -0.9837379183123883 0.18644864223655916
2964404 -0.9836559306590508 0.18591906954177945
2965005 -0.9846110042632289 0.1865013150305236
2965607 -0.9836714040455903 0.1865059094067585
2966208 -0.9842506377775808 0.18530274736111696
2966810 -0.9839464194652494 0.18644647097360187
2967411 -0.9834229985775937 0.18653013798519416
2968013 -0.9844321308687638 0.18521598586239377
2968013 -0.9838220655529496 0.18648986670897544
2968626 -0.9847040763479683 0.18620529781445305
2969240 -0.9832025833548103 0.186567778939788
2969854 -0.9840346893078773 0.1868888951419814
2970468 -0.9849108149647302 0.18614999025561513
2971082 -0.983741805253173 0.1865845754853473
2971696 -0.9836795724490138 0.18637357917446024
2972310 -0.9843538408190423 0.18628866670367084
2972923 -0.9831092204834144 0.1865379363387817
2973537 -0.9836429091633665 0.18674143678118266
2974151 -0.9850038928745867 0.18672832782985702
2974765 -0.9832996071052235 0.1871916569716582
2975379 -0.9836401514284162 0.18684535046051162
2975993 -0.9845079682720309 0.1868255239966542
2976607 -0.9833346251064471 0.1874344811215217
2977221 -0.9835221502293338 0.18676388285926268
2977834 -0.9850079328437313 0.1868207230241421
2978448 -0.9836101333077828 0.1869136177804784
2979062 -0.9841062410990328 0.18708340678736432
2979676 -0.9849017850863014 0.18704559320814793
2980290 -0.9833325496618401 0.18704278634226126
2980904 -0.9837546326839927 0.18640771660747482
2981518 -0.9844994152235189 0.1874800066273619
2982132 -0.9832485509992728 0.1869828247520317
2982745 -0.9843481818586568 0.18664170146556083
2983359 -0.9840717824087304 0.18711884608863733
2983973 -0.9834831003593913 0.1874433518552577
2984587 -0.9841915004548257 0.18625428499385
2985201 -0.9846416795514418 0.18772716820301433
2985815 -0.983822239334116 0.1876897681873389
2986429 -0.9847560871151544 0.18701453623483383
2987042 -0.9839577250462616 0.18750009810748505
2987656 -0.9834776529207874 0.18713864129629354
2988270 -0.9840078396329054 0.18712358062343
2988884 -0.9834170685543295 0.1880355043111705
2989498 -0.9828808441931389 0.1871661673822569
2990112 -0.9845812256643919 0.18735194110542897
2990726 -0.9837979060942434 0.18786245358299744
2991340 -0.9835994560324819 0.18703020631216757
2991953 -0.9846451234256461 0.18755630935241654
2992567 -0.9828249905110585 0.18798179480422306
2993181 -0.9837657322259624 0.18787216300172968
2993795 -0.9837906010940478 0.18755798988881114
2994409 -0.9829782545761541 0.18846824447530025
2995023 -0.9825929557587242 0.18787318045300333
2995637 -0.9847354364183294 0.1883818151816414
2996251 -0.9825681926249403 0.18854083756667864
2996864 -0.9830079554643233 0.1873689197503177
2997478 -0.9842317923952395 0.18951527419066216
2998092 -0.9816775435692799 0.18723738072246401
2998706 -0.9840072045513502 0.18852341458092775
2999320 -0.984107201030478 0.18907130520277035
2999934 -0.9835688519698754 0.1884791768814114
3000548 -0.9849843242748887 0.18854328495380848
3001161 -0.9848196012934082 0.18976094455701847
3001775 -0.9830016481347167 0.18779056424139431
3002389 -0.9850051877246991 0.18862636310828818
3003003 -0.9829682111251277 0.1894034284281579
3003617 -0.9830355848271652 0.1877737237903346
3004231 -0.9841201785718576 0.1886986303178756
3004845 -0.983216826919612 0.18902975618208565
3005459 -0.9831133589641451 0.1876766740314609
3006072 -0.9842261515767381 0.18882736665295077
3006686 -0.9829071920547946 0.18910617881090908
3007300 -0.9835369817543016 0.18852526152180266
3007914 -0.9844206684015248 0.18815458129308069
3008528 -0.9826106195234715 0.18909492283159868
3009142 -0.983291946220888 0.18881366093818897
3009756 -0.984124246291794 0.18936295295444094
3010370 -0.9829881017628933 0.18921466957140526
3010983 -0.9833901124346334 0.18862871814929377
3011597 -0.9843615693031127 0.18852853902927802
3012211 -0.982746745515627 0.1890410489455989
3012825 -0.9830070462890751 0.18864483994828893
3013439 -0.9839781083756766 0.18875481855217846
3014053 -0.9824954394078402 0.18982259155213585
3014667 -0.9833590691446215 0.1890825075456712
3015280 -0.9848260426682348 0.1891788722526634
3015894 -0.982828332446704 0.18919111707765562
3016508 -0.9827583324035728 0.1891700333778432
3017122 -0.984114139608918 0.1895188538013569
3017736 -0.98314191809496 0.18993798387071748
3018350 -0.9833989300825304 0.1896795977237612
3018964 -0.9844260268684243 0.18943065878649198
3019578 -0.9834301935972939 0.1896460125282971
3020191 -0.9833200355322015 0.18947097369853957
3020805 -0.9831267947581684 0.18927642393664845
3021419 -0.9837171587703822 0.18946445742113963
3022033 -0.9835930339506981 0.19003229590271387
3022647 -0.9837408255734178 0.1887399652618173
3023261 -0.9831865120964864 0.189101041841689
3023875 -0.9835245365755215 0.1901308498214461
3024489 -0.9834362980292644 0.18949243971675628
3025102 -0.9832097112307702 0.1903445007363423
3025716 -0.9833417652252116 0.19078068695327274
3026330 -0.983834150431004 0.18964825528315535
3026944 -0.9831776837059532 0.18995409467149604
3027558 -0.9831395119105245 0.1900241723448571
3028172 -0.9834780374365747 0.18953951619514645
3028786 -0.9836328208645801 0.19024268883306486
3029400 -0.9830882914358336 0.1902848404143021
3029400 -0.982753342530084 0.1905502624470023
3030026 -0.9834482639328793 0.18810312298520784
3030653 -0.9838027847060272 0.19075771267287445
3031279 -0.982836504202234 0.18997523758843002
3031906 -0.9832839436485242 0.18850125949629543
3032532 -0.9837187585929018 0.19104308286410535
3033159 -0.98243614810787 0.19110122458293874
3033785 -0.9835875567605874 0.18900903040542144
3034412 -0.9834944904738211 0.190800444641138
3035039 -0.9827695163874445 0.19092682575663172
3035665 -0.9830312405785354 0.1892777321536409
3036292 -0.9833812058351127 0.19107043843606814
3036918 -0.9825508722675472 0.19168498242727658
3037545 -0.9837696564807581 0.18988497900558932
3038171 -0.9838656726665345 0.19075676950678191
3038798 -0.9828422590693475 0.19157961335865645
3039424 -0.9832426330743368 0.18944267527031772
3040051 -0.9835782685512757 0.1912457066552481
3040678 -0.982679130107236 0.19236505833678227
3041304 -0.9829999973029802 0.18935224232186487
3041931 -0.9840541093634902 0.1907088324240527
3042557 -0.9824732160947124 0.19162718962501757
3043184 -0.982849377132037 0.18971512719208714
3043810 -0.983838741762353 0.19136390658153002
3044437 -0.9833288890682365 0.19198107608835857
3045064 -0.9825202435749991 0.1898305327951159
3045690 -0.9841138979308179 0.1910634544068418
3046317 -0.9828827795167784 0.19192806499823967
3046943 -0.9826357434408223 0.189528860016612
3047570 -0.9836653490081491 0.19126232656636188
3048196 -0.9833677083772053 0.19207730780421708
3048823 -0.9826928091755399 0.1902960625675991
3049449 -0.9839791002668413 0.19156115005987204
3050076 -0.9828893304352235 0.19212155632314792
3050703 -0.9823690250816302 0.19035148001973803
3051329 -0.98367162466633 0.1913147573329793
3051956 -0.9828687724197959 0.19214133713188783
3052582 -0.9821150514445588 0.19015736860121604
3053209 -0.9841309172302712 0.19166205064672612
3053835 -0.983248885003555 0.19231136629151563
3054462 -0.9817574491614026 0.19030969292459948
3055088 -0.9833285879518283 0.1918918771736085
3055715 -0.9829273641520749 0.19283101020240262
3056342 -0.9824024101269972 0.19049901674124603
3056968 -0.9832931812114868 0.1911909814837043
3057595 -0.9827040801397552 0.19236523433677186
3058221 -0.9829887882185131 0.19189346300675184
3058848 -0.9826533662862111 0.1911346780999816
3059474 -0.9826080057854321 0.19232835979914656
3060101 -0.9834107421448091 0.19183070268034985
3060728 -0.982640466764761 0.19130241034983106
3061354 -0.9828296287110918 0.19230849822766924
3061981 -0.9832266879153005 0.19229179005921226
3062607 -0.9821227408534373 0.192023427605369
3063234 -0.9827627656626171 0.1922349515263971
3063860 -0.98338096154798 0.19214953378636335
3064487 -0.982156879797725 0.19217020853570313
3065113 -0.9821636968587174 0.1920101469270851
3065740 -0.9834406857370775 0.1924567254448694
3066367 -0.9821288935472524 0.19242202732044134
3066993 -0.9823077444181283 0.19261837680582372
3067620 -0.9836216864353236 0.19226228290635294
3068246 -0.9819510301694655 0.1924276313443225
3068873 -0.9827196731659651 0.1925662335250642
3069499 -0.9832008142448347 0.192538643864563
3070126 -0.9819979961003432 0.19283782966952706
3070752 -0.9824979487029021 0.1920621939575164
3071379 -0.9835551036579945 0.1921319946166979
3072006 -0.9822508143556032 0.1926521580403072
3072632 -0.9824345884264215 0.19248155350412588
3073259 -0.9834148607272862 0.19223136088324264
3073885 -0.9820802779612035 0.19322320246181504
3074512 -0.9829444381560931 0.1932035761952408
3075138 -0.9839140334205415 0.19246151882039292
3075765 -0.9820638757219962 0.19275096923417748
3076392 -0.9826474688150805 0.1927738023816454
3077018 -0.982852207163603 0.19239579292631562
3077645 -0.9817302429454292 0.19303622190971112
3078271 -0.982577006357685 0.1930212488520819
3078898 -0.9835835011544016 0.19288991485323978
3079524 -0.9815812036477015 0.19312505560977336
3080151 -0.9821166890387931 0.1928925223224532
3080777 -0.9830008855214258 0.1927669944773537
3081404 -0.9819736997150301 0.1932034601586898
3082031 -0.9821469209187081 0.19358298990659412
3082657 -0.9828717056976757 0.192594485260762
3083284 -0.9821834229446698 0.1934497829594549
3083910 -0.9821194754846594 0.19342009697405121
3084537 -0.9828633551665626 0.19300660320088656
3085163 -0.9819418432715012 0.19363236074032217
3085790 -0.9817568610968785 0.19405050189234643
3086416 -0.9828856147288277 0.1927474423267357
3087043 -0.9822396056127487 0.19369898914536005
3087670 -0.9821979238273665 0.1939310144683379
3088296 -0.983294183205315 0.19372082549655725
3088923 -0.9821488091251704 0.19379083279491202
3089549 -0.9821498337445844 0.19375006147907364
3090176 -0.9831040735468185 0.19380289041825105
3090802 -0.9820168060044775 0.19380981384356363
3091429 -0.98205873364609 0.1938005414782655
3092056 -0.9824089714882777 0.19361735252015155
3092056 -0.9821874432292191 0.19381406867577217
3092695 -0.9821865750461622 0.19341532933337818
3093335 -0.9824990116226434 0.1947650005429752
3093974 -0.9824630194925295 0.19370837688517029
3094614 -0.9825468769143892 0.19267962128810262
3095253 -0.982803777421391 0.1942868217333535
3095893 -0.9822170449526398 0.19399328946392422
3096532 -0.9816461073016649 0.19333751582161784
3097172 -0.9821465033113385 0.1943170871920191
3097811 -0.9827917354947301 0.19483529683402262
3098451 -0.9822232116417011 0.19332582316561364
3099090 -0.9820764510071947 0.19367201349683094
3099730 -0.9821912404498405 0.1947953899919705
3100369 -0.9822422899566797 0.19349743399495203
3101009 -0.9823750263402322 0.19433634389312684
3101648 -0.9833710103900054 0.1954524559286706
3102288 -0.982351703904689 0.1939993416825046
3102927 -0.9824141088110458 0.19398799557757648
3103567 -0.981827279702468 0.19515688535951506
3104206 -0.9823675100931063 0.194044844987151
3104846 -0.9826542629556363 0.19431990253055048
3105485 -0.9825447097696995 0.19534743918502256
3106125 -0.9823206390214532 0.1943910548876818
3106764 -0.9824142769118218 0.19389128777975156
3107404 -0.9816331884194864 0.1949193043188333
3108044 -0.9820648854049023 0.19544129190624288
3108683 -0.9821647087586055 0.1941930046487857
3109323 -0.9824654747089313 0.19535503233745763
3109962 -0.9822085002995876 0.19480577898424814
3110602 -0.9821677855474836 0.1940186907133999
3111241 -0.9820210035783682 0.19480420769042037
3111881 -0.9822436996519925 0.1960150339957047
3112520 -0.9821562430921272 0.19453965625642194
3113160 -0.98218476202961 0.1948414154326873
3113799 -0.9827617381701571 0.19535457892361419
3114439 -0.9821320227657739 0.19403552914154112
3115078 -0.9820677797087952 0.1947178097885843
3115718 -0.9823599483276821 0.19620648481768002
3116357 -0.9819448974952945 0.19501784878546852
3116997 -0.9821730555632372 0.19494897985887874
3117636 -0.9819818714483626 0.19532942754423455
3118276 -0.9817302784053425 0.19517841390525412
3118915 -0.9819849325477872 0.194708561796937
3119555 -0.9820976135392795 0.19631380679212684
3120194 -0.9827813835912536 0.1958728079069449
3120834 -0.9819887868600953 0.19501601280569575
3121473 -0.9822573623242006 0.1958314691019932
3122113 -0.9818907752183398 0.1958618750792765
3122752 -0.9822073024413187 0.19494846753679504
3123392 -0.9825826240388205 0.19499990184860191
3124032 -0.9820449023566585 0.196529285120421
3124671 -0.9818511230742855 0.1958436503444315
3125311 -0.9819752253938354 0.19470126143447902
3125950 -0.9821671663636451 0.19635827564191052
3126590 -0.9813854417945457 0.19643162596933517
3127229 -0.9819409061089759 0.19566619063835888
3127869 -0.9820077292713462 0.1964471165512475
3128508 -0.9820971858383484 0.19662246296487781
3129148 -0.981550699709267 0.1957942159928222
3129787 -0.9819758588331488 0.19607002265400278
3130427 -0.9822175859440698 0.19708347098235518
3131066 -0.9820350857938773 0.19552549034186995
3131706 -0.9824742548060471 0.19567587070582093
3132345 -0.9813979959555674 0.1968803864886052
3132985 -0.9815101646287725 0.19569094180811386
3133624 -0.9819900317528883 0.19557108716044425
3134264 -0.9821962572377513 0.19693491963570442
3134903 -0.9823311073989166 0.19658596158713587
3135543 -0.9820055859972168 0.19565549433294266
3136182 -0.9813415809528022 0.19677233806529662
3136822 -0.9813158366873772 0.19649453490338328
3137461 -0.9818054545263235 0.19592145647445816
3138101 -0.9821112321563867 0.19616807642660428
3138740 -0.9822100476105354 0.1969339510163227
3139380 -0.9818968564336158 0.19608656728057744
3140020 -0.9817479323910319 0.1963820866244309
3140659 -0.9814084420894758 0.19694209898894713
3141299 -0.9821198151669385 0.19639230319631412
3141938 -0.9814613513436731 0.1971183250970421
3142578 -0.9817531871430003 0.1970384955972351
3143217 -0.9819356251667398 0.19671272733237496
3143857 -0.9810774522568321 0.1966009105823476
3144496 -0.981683175128027 0.19684344937929737
3145136 -0.981772980300748 0.19702166466394277
3145775 -0.9820602125662369 0.19627250408522207
3146415 -0.9815614655958823 0.19702547871104853
3147054 -0.9820900401889063 0.19727911073929774
3147694 -0.9817330008857159 0.19631367061190436
3148333 -0.9812164220178868 0.1975524930834532
3148973 -0.9829315241550785 0.1977017763209451
3149612 -0.9823750901781568 0.19682312069727775
3150252 -0.9815929506810246 0.19718267399339437
3150891 -0.9810701124783151 0.19697415725380765
3151531 -0.9820890690752393 0.19748802835679208
3152170 -0.9801088202866058 0.1977151835518422
3152810 -0.9816749318519773 0.19704628004115698
3153449 -0.9822556637321184 0.19704318559129128
3154089 -0.9809137798862556 0.19697041707414084
3154728 -0.9810548338283575 0.19705212882838133
3155368 -0.9817893290231684 0.1973783256088966
3156008 -0.9818041148066392 0.197618723253315
3156008 -0.9812057688764368 0.19842681839340762
3156660 -0.9813297264310499 0.1982757771358988
3157313 -0.9812024928852023 0.19740728041808547
3157966 -0.9819331304400392 0.19747386324381655
3158619 -0.9821782467158158 0.1987427816374409
3159271 -0.9815146675364382 0.19683898293179433
3159924 -0.9817245266597242 0.1969603225801561
3160577 -0.9816655807763319 0.19876609995130035
3161230 -0.9813111459741047 0.19839246632545277
3161882 -0.9817793779116701 0.1969110910286503
3162535 -0.9818321630596037 0.1981182198152763
3163188 -0.9813754183042998 0.19867551105833905
3163841 -0.9805066113843579 0.19758918896310063
3164493 -0.9817947993566211 0.19732641529322614
3165146 -0.9821392454290744 0.19932149674322308
3165799 -0.9809652483190391 0.1977677147276788
3166452 -0.9816242282541734 0.19685111611815884
3167104 -0.9814582626903939 0.19911302456461163
3167757 -0.9809650481181168 0.1986763242757934
3168410 -0.9811874178024396 0.19775787823398444
3169063 -0.9825293273288201 0.1985538661788902
3169715 -0.9813344662633969 0.19927506055974817
3170368 -0.9807646859428516 0.19750577887887616
3171021 -0.9813899812194496 0.19740967318988908
3171674 -0.9820557431406819 0.20027995910476346
3172326 -0.9808612045592092 0.19864696259902137
3172979 -0.9818645376458627 0.19741879802475568
3173632 -0.982182315909017 0.19912340014009813
3174285 -0.9807434952237719 0.19852501463645206
3174937 -0.9807536559946579 0.1981767019203206
3175590 -0.9815587807726757 0.19904324283295916
3176243 -0.9814379543411257 0.20020735236157053
3176896 -0.9810001225101814 0.19862212521462744
3177548 -0.9814534532225438 0.19828139083122343
3178201 -0.9815976616937746 0.19957233049027956
3178854 -0.9802714444703239 0.1989100893877654
3179507 -0.981536249955318 0.19803874203627517
3180159 -0.9820219404418634 0.19966196550775867
3180812 -0.9810070074313656 0.1992319239643965
3181465 -0.9809430420808016 0.19819438656224939
3182118 -0.98151345812143 0.1988944611173102
3182770 -0.9810869941826962 0.1998524834375532
3183423 -0.9812496750807098 0.19915332988399004
3184076 -0.9821334851033454 0.19858603372628916
3184729 -0.9819107438081036 0.20003069007809965
3185381 -0.9805887637863642 0.199428382632155
3186034 -0.9814085281846867 0.1997562401607682
3186687 -0.9810290804697437 0.19928193063983665
3187340 -0.9808223757623359 0.19962012367519244
3187992 -0.9811781857369373 0.20042797393276282
3188645 -0.9812329392186525 0.1990024205593882
3189298 -0.9811558222684612 0.1989612184760322
3189951 -0.9812845503718057 0.20005747300990434
3190603 -0.981025056497508 0.20036776885313795
3191256 -0.9809145382511545 0.1992262889626951
3191909 -0.981239664457613 0.199786090336371
3192562 -0.981367898699272 0.20051662319655408
3193214 -0.9809184883861296 0.19880376020706908
3193867 -0.9808784990409809 0.19944438487866353
3194520 -0.9812990254534677 0.20109803894600453
3195173 -0.9806656880753383 0.19956008680570156
3195825 -0.9811328803613355 0.19950589002989944
3196478 -0.9818100785229978 0.20085961386502058
3197131 -0.9803493735059706 0.19984228430574677
3197784 -0.9803936653241868 0.19975841486523707
3198436 -0.9816885411922276 0.20108957134782846
3199089 -0.9812573863474621 0.2007418874460591
3199742 -0.981123215848909 0.19929903736329735
3200395 -0.980801676609325 0.19978070356907363
3201047 -0.9815183653119578 0.20113272459953366
3201700 -0.9806485669474901 0.1992725400160425
3202353 -0.9811099228285229 0.19990377790912442
3203006 -0.981668585221341 0.20143130268531528
3203658 -0.9811120123232516 0.19972939629381992
3204311 -0.9812453471948103 0.19940172002664283
3204964 -0.981233860339408 0.20135076652908201
3205617 -0.9803940816347542 0.2001266821111755
3206269 -0.9809180189757695 0.19999853736439482
3206922 -0.9813104366874509 0.2012011274134827
3207575 -0.980843893710824 0.20135499895030448
3208228 -0.9805285446963328 0.20020694543564443
3208880 -0.9808825968957369 0.20033666756270527
3209533 -0.9814494469168666 0.20196549070702233
3210186 -0.9806970446811074 0.2000649158602694
3210839 -0.9816849442348997 0.20046139617071915
3211491 -0.9812713546454255 0.2017178161064898
3212144 -0.9803034398083829 0.20035967303441013
3212797 -0.9803839924471787 0.20026100018221146
3213450 -0.9810032787227507 0.20191233348619794
3214102 -0.9810857723051313 0.2022475517879019
3214755 -0.9810241328093705 0.2002110909889259
3215408 -0.9811214133384909 0.20071063171080245
3216061 -0.9809717186627781 0.2016781792562423
3216713 -0.9803076373136627 0.2008920334950323
3217366 -0.9813525410227314 0.20066255975804737
3218019 -0.9813980278031291 0.20262330010442337
3218672 -0.9810503140335027 0.20097210675152444
3219324 -0.9807548874834107 0.2003222344384467
3219977 -0.9807316681645645 0.20237208852437438
3220630 -0.9807407403721153 0.20180963968475235
3221283 -0.9817899948679297 0.2006981643305957
3221283 -0.9813700550856586 0.20173975231186708
3221949 -0.9807309073032234 0.20219190309369708
3222615 -0.9798804279934635 0.20170432698234267
3223281 -0.9803119479319778 0.20089087663756003
3223947 -0.9813732716797184 0.20312461070306842
3224614 -0.9805250006466907 0.20144318735334474
3225280 -0.9807106192113211 0.20079120864359293
3225946 -0.9812059155114881 0.2015907143734353
3226612 -0.9800094851268 0.20285520832071866
3227279 -0.979995946184904 0.2013303110762637
3227945 -0.9811198376253732 0.20128694323439886
3228611 -0.9812832367580705 0.20297798345169787
3229277 -0.9803506246054037 0.2017197454975462
3229944 -0.9803129401277584 0.20110362171258997
3230610 -0.9809648898451487 0.20252220794828754
3231276 -0.9808376874892201 0.20296732311726104
3231942 -0.9802780433229965 0.20160759737249528
3232609 -0.9808965807400649 0.2015693257010709
3233275 -0.9810436422037496 0.2024253032044017
3233941 -0.9796665558299299 0.20199532670824538
3234607 -0.980811891919237 0.20143502652398063
3235274 -0.9812903190138237 0.20306582721965435
3235940 -0.980804097985846 0.20274990472911933
3236606 -0.9801480727919534 0.20185456267170984
3237272 -0.980720998204495 0.20165683711780535
3237939 -0.9808293051391672 0.20318484585715813
3238605 -0.9799383574763548 0.20262961885124606
3239271 -0.9805740655979966 0.20156472025114006
3239937 -0.981320137119192 0.20293495889136834
3240603 -0.9802551510583113 0.20265174459650795
3241270 -0.9800771770728217 0.20194807010229668
3241936 -0.9802413141653898 0.20224700164838816
3242602 -0.9811353457509561 0.2042051341733118
3243268 -0.9803402794294568 0.20272985259746334
3243935 -0.9806607823113056 0.2013917587457298
3244601 -0.9807078312324221 0.20348568167113004
3245267 -0.9798954908441502 0.20332591381753415
3245933 -0.9798074758634571 0.20251661878522437
3246600 -0.980873079718692 0.2025777034111923
3247266 -0.9810959643954753 0.20388112014041926
3247932 -0.9798290480971005 0.20274437967643977
3248598 -0.9800634228839923 0.20221976481451662
3249265 -0.9810537592484715 0.20415452094193476
3249931 -0.9803761024415103 0.20294561936634717
3250597 -0.9801966957609353 0.20376748567226705
3251263 -0.9807035187980992 0.2026057990539468
3251930 -0.9806719724070191 0.20324823820544238
3252596 -0.9799179591509889 0.20283530974017822
3253262 -0.9795369453814866 0.20370286803195004
3253928 -0.9806243037632913 0.203611789908179
3254595 -0.9807334067678855 0.20348337920413015
3255261 -0.9801560876721227 0.20350039310522114
3255927 -0.9798583144080857 0.20322224416506757
3256593 -0.9795626050826748 0.2026897403627117
3257259 -0.9803287817106946 0.2040011200257323
3257926 -0.9803616810008366 0.2051695840858586
3258592 -0.9798858105102917 0.2035277950799162
3259258 -0.9805760051095003 0.20269298400495298
3259924 -0.9809385428051222 0.20484023616827043
3260591 -0.9796001132418349 0.20376802804598662
3261257 -0.9799773629922695 0.2027986832035518
3261923 -0.980673086001264 0.20468240297117382
3262589 -0.9800758670890026 0.2043817595288989
3263256 -0.9793925105856561 0.20353295260658838
3263922 -0.9804628135730338 0.20292565290173115
3264588 -0.9798953661870916 0.20510007207332076
3265254 -0.9793850133063099 0.20394916169390498
3265921 -0.9803650468356913 0.20350509611612075
3266587 -0.9813798415817614 0.20523330380485724
3267253 -0.9802010481427255 0.20442968452219884
3267919 -0.9795481405809341 0.2035169346857235
3268586 -0.9796350050363589 0.20393202181899822
3269252 -0.9806498418173764 0.2056808962149377
3269918 -0.9799438596561018 0.20444888773897657
3270584 -0.9804632845739173 0.20337373866674271
3271251 -0.9802979641564842 0.20503581236447552
3271917 -0.9799179806124142 0.20464316015662165
3272583 -0.97981767279331 0.20419112356011235
3273249 -0.9804003453240768 0.20433641592428203
3273915 -0.9807863113997449 0.20589273863361574
3274582 -0.9798962609529832 0.20440083687048421
3275248 -0.9800320079992999 0.20359181385454592
3275914 -0.9803922541814496 0.20544724891687258
3276580 -0.9798081221744709 0.20476821063653447
3277247 -0.9797231309699033 0.20424973598618051
3277913 -0.9808349047640897 0.204475378324125
3278579 -0.9803993066978712 0.20605018614096274
3279245 -0.9796444880184693 0.2044694805026682
3279912 -0.9797187257841017 0.20411007473574488
3280578 -0.9804861639147198 0.2066843908668034
3281244 -0.9797249340132593 0.20500276205714774
3281910 -0.980041795482351 0.20439557772715755
3282577 -0.9804229499224524 0.20440912420320537
3283243 -0.9802262618132934 0.20652473329420065
3283909 -0.9794702964223868 0.2047163629117009
3284575 -0.9798595670280934 0.20465603348286285
3285242 -0.9804599392257856 0.2063101389296732
3285908 -0.9796553050306566 0.20522689994042137
3286574 -0.9794446881020994 0.20453250202605122
3287240 -0.9799205868368572 0.20589703560837333
3287907 -0.9793396009259234 0.2060569191639996
3287907 -0.9792571977731215 0.2055087417479782
3288587 -0.9798584789519931 0.20455523930192726
3289267 -0.9802789243723053 0.20628436520729657
3289947 -0.9794600321256288 0.20585038219092608
3290627 -0.9792988203256761 0.20553542459829446
3291307 -0.9800198624005009 0.2049882780033706
3291987 -0.9801066120898492 0.2065564659667989
3292667 -0.9794000892670292 0.206002861260334
3293347 -0.9795206472482926 0.2051039139264326
3294027 -0.9801807514806298 0.20582193052300066
3294707 -0.979996766949782 0.20686197890447575
3295387 -0.9795875538443143 0.20569710134082247
3296067 -0.9795462022148386 0.20551031781213397
3296747 -0.9801009302508478 0.20634639421487333
3297427 -0.9795723741693554 0.20692314095900285
3298107 -0.9793644048860466 0.20638272165657975
3298787 -0.9794279664908878 0.20539314890131835
3299467 -0.980912481848938 0.20699295089486336
3300147 -0.979833345336375 0.20612179765944302
3300827 -0.9786754081888699 0.2057314318389196
3301507 -0.9797010051626072 0.20578793741356174
3302187 -0.9795787385921492 0.2070297279685324
3302867 -0.9797708678770028 0.2060722899913245
3303547 -0.9793035724058607 0.2057103583754581
3304227 -0.9797025759088966 0.2059277745435989
3304907 -0.9793095242294639 0.20694090618274066
3305587 -0.9795088785893167 0.20696481305162065
3306267 -0.979592115058378 0.20668692286104476
3306947 -0.9799020390591788 0.20683415750411568
3307627 -0.9804081990027457 0.20704870488529092
3308307 -0.9792633554822866 0.2063645080526548
3308987 -0.9795231570847902 0.2061833357149842
3309667 -0.9798703637842734 0.20745495265527922
3310347 -0.9792223626493396 0.20658577980463494
3311028 -0.9794965212075518 0.20623336395009909
3311708 -0.9797270333798356 0.20647946983513424
3312388 -0.9798470990482189 0.20719955138840598
3313068 -0.9797119658656933 0.207247506900667
3313748 -0.9791527186357076 0.2069625590969033
3314428 -0.9797171259263212 0.20658150293400868
3315108 -0.9800373600595226 0.20776578711685056
3315788 -0.9789339764241949 0.2065405243088545
3316468 -0.979215241507711 0.20714691710379995
3317148 -0.9797792907917758 0.20758562636178537
3317828 -0.9797335330906407 0.20801831007983906
3318508 -0.9795528387465534 0.20712288794238656
3319188 -0.978967873400576 0.20734934201181304
3319868 -0.979149178612252 0.20690775621565125
3320548 -0.9798866865203943 0.20761657863273403
3321228 -0.9793363491556032 0.2076375375588069
3321908 -0.9791134516151085 0.20737164766476068
3322588 -0.9796591995530064 0.2070849003765279
3323268 -0.9797033503646936 0.20819632558830162
3323948 -0.9792260819565461 0.2073038955286996
3324628 -0.9787347195400636 0.20783187708308645
3325308 -0.980016897484363 0.20743746890717898
3325988 -0.9800498773506927 0.20803094733020555
3326668 -0.9791248482145217 0.20702345420095355
3327348 -0.9787061647261334 0.20747979660379032
3328028 -0.9799661516148386 0.2085059534866668
3328708 -0.9792732954010162 0.2082883518336323
3329388 -0.9790994816876171 0.20770985226329725
3330068 -0.9792120065531382 0.20754738482776958
3330748 -0.9797517712874367 0.20837727226596506
3331428 -0.9788481315282836 0.20835158479472915
3332108 -0.97891238948228 0.2077518478747189
3332788 -0.9795868134781454 0.20841373867597235
3333469 -0.9800227444604898 0.20871429813430833
3334149 -0.9788724090252129 0.20828457565421418
3334829 -0.9784215297075501 0.2076402527415821
3335509 -0.9797516320141165 0.20940649654646196
3336189 -0.9794494278423171 0.2091133434835835
3336869 -0.9792441574524181 0.2077545577935563
3337549 -0.9793817416310924 0.20785017475207096
3338229 -0.9794387081290532 0.20868752188599268
3338909 -0.979285649641657 0.20868309156369483
3339589 -0.9790017490121172 0.20814142206709987
3340269 -0.9797767534300081 0.2086850600869565
3340949 -0.9796034662556912 0.20962846368285842
3341629 -0.9785290623688639 0.20863410319706974
3342309 -0.9786442129296923 0.20812116137989287
3342989 -0.9798190641085267 0.2093848279652392
3343669 -0.9793815758724813 0.20921424360786015
3344349 -0.9787736083965656 0.2084567908320824
3345029 -0.9792928991157356 0.20814011540160496
3345709 -0.9794137848105672 0.2097406601769568
3346389 -0.9788156605748045 0.20905121082123462
3347069 -0.9783911603542278 0.2089292126947539
3347749 -0.979308997276406 0.20881948395018876
3348429 -0.9793720212693072 0.210639567483277
3349109 -0.9791362592658386 0.2087126035908816
3349789 -0.9787811559454055 0.20816154333870782
3350469 -0.9795193611592932 0.20956845311737418
3351149 -0.9790695138422139 0.2102885845098606
3351829 -0.9790254905089679 0.20862722490318858
3352509 -0.9787168775992253 0.2084688086552313
3353189 -0.9793005168994544 0.20962069336050276
3353869 -0.9784426946433475 0.21000176616272026
3354549 -0.9792999942758038 0.20889348295065693
3355229 -0.9796283018867035 0.2087233130345153
3355910 -0.9795048296120731 0.20930753171426886
3355910 -0.9794235325432364 0.20892526070863238
3356604 -0.9788632722768532 0.20979120750008595
3357298 -0.9786413802651868 0.20992151220875097
3357992 -0.9785649006038291 0.20937878071376909
3358686 -0.9792672828379567 0.21001933969420739
3359380 -0.9792530015976847 0.21010362665280255
3360074 -0.9787458632596489 0.209829249216122
3360768 -0.9782295155138939 0.20972562453260113
3361462 -0.979314535566977 0.20921279302263557
3362156 -0.9787733322422706 0.2103945228870901
3362851 -0.9787913449781154 0.2102058999510055
3363545 -0.9783010795390616 0.20911776433150261
3364239 -0.9790700774086242 0.21028742600516037
3364933 -0.9786709626831898 0.2104921771608871
3365627 -0.9781221780168721 0.21067102480777974
3366321 -0.9790509750138796 0.2100094360840818
3367015 -0.9796478200624236 0.21058835206284385
3367709 -0.9789600093048013 0.20975292391531694
3368403 -0.978408611951865 0.21121613704027037
3369097 -0.9788183362541174 0.20991525085029078
3369792 -0.9792899219267255 0.21099150672156342
3370486 -0.9789893351724772 0.2102948571297872
3371180 -0.9786004770755423 0.21043477470773375
3371874 -0.9787640516951018 0.21039516014982818
3372568 -0.9788488896890477 0.2111809876839571
3373262 -0.9785325474874025 0.2111427609377099
3373956 -0.9784254345145856 0.21083704249365876
3374650 -0.9794714627729063 0.2101540961157768
3375344 -0.9793019346707139 0.21122137532477167
3376038 -0.978146945624606 0.21060689572985
3376733 -0.9782793243311583 0.2108237806929998
3377427 -0.9791882574697481 0.21061741704444692
3378121 -0.9793037606413667 0.21111528616552006
3378815 -0.9785489317306856 0.21108975877765235
3379509 -0.978228623842545 0.21062797338621547
3380203 -0.978919885490399 0.2108547287103674
3380897 -0.9786782147804467 0.21192738689774138
3381591 -0.978423077906167 0.21112533572057407
3382285 -0.978488607031858 0.21057336422878867
3382979 -0.978504611070174 0.21158943138416286
3383674 -0.9787441145019362 0.21143711611535426
3384368 -0.9780559663944055 0.21099110973454294
3385062 -0.9784673449226319 0.2110246741363388
3385756 -0.9788473754728625 0.21127051288404813
3386450 -0.9784240078524259 0.21130179377191144
3387144 -0.978964950985197 0.21240818333717087
3387838 -0.9785673767408989 0.2119489895717681
3388532 -0.9780288502926608 0.2108759988912408
3389226 -0.9784232506652977 0.21132008403002622
3389920 -0.9789165127270025 0.2119897149076563
3390615 -0.9778360239084177 0.21179407856926022
3391309 -0.9782737486819724 0.2119780816574109
3392003 -0.9788179131688415 0.21189163618279203
3392697 -0.9786560350030692 0.21253417300383692
3393391 -0.9787207197330678 0.21139925466372042
3394085 -0.9778770200111365 0.21125016332030283
3394779 -0.9776888307881096 0.21210313292885705
3395473 -0.9787442879841978 0.2127123918725978
3396167 -0.9783425806614082 0.21187351054391432
3396861 -0.9780312322433379 0.2114781562129278
3397556 -0.9789622820436976 0.21205154954866925
3398250 -0.9784957769817648 0.21363139295325603
3398944 -0.9779849735447627 0.2121971888204095
3399638 -0.978202525512025 0.2114539758219258
3400332 -0.9788255315008851 0.21280909575104734
3401026 -0.9785118507757784 0.21238094958677908
3401720 -0.9776753340799466 0.21203011838184418
3402414 -0.9781501468360266 0.21191183656210386
3403108 -0.9788410180180606 0.21292054110559594
3403802 -0.9783768374237245 0.21279828103088252
3404497 -0.9779538882179524 0.2120121626950415
3405191 -0.9779248752574614 0.21179301761757902
3405885 -0.978725712741594 0.21293026761978318
3406579 -0.9783260307025495 0.21325391104562777
3407273 -0.9787529300436291 0.211858541613346
3407967 -0.9783429814313506 0.21178427843901013
3408661 -0.9788466416131089 0.21314466090711184
3409355 -0.9780296980333547 0.21287029338901603
3410049 -0.9774368660050394 0.21220955704487154
3410743 -0.9784573795428494 0.21249853633669746
3411438 -0.9792122567760259 0.2135808422760103
3412132 -0.9777283847622009 0.21269203010427074
3412826 -0.9776446259053229 0.21242306212869969
3413520 -0.9787783635505609 0.21260581350188426
3414214 -0.9784126698652723 0.21401138516720383
3414908 -0.9781826328766313 0.2128576378885951
3415602 -0.9778397660635204 0.21270165438354807
3416296 -0.9779450873768725 0.2128704595172769
3416990 -0.978193239534976 0.2132542237721646
3417684 -0.9778281439339693 0.2136257076041229
3418379 -0.9778335409025928 0.2132784870288669
3419073 -0.9789054000697514 0.21307307059397615
3419767 -0.9785659774204467 0.2144618082270349
3420461 -0.977966573760553 0.21335827407089833
3421155 -0.9775055166101358 0.21306112240660516
3421849 -0.978482478637865 0.21365846264154012
3422543 -0.9785643074343476 0.21399835645030107
3423237 -0.9776897429975198 0.2132030480736625
3423931 -0.9775962806709847 0.21283573821354965
3424625 -0.9779566537335761 0.21434311946852305
3425320 -0.9780215336102706 0.2137697428884657
3425320 -0.9776544754618459 0.2134630057042884
3426028 -0.9787456528910711 0.21415746534731542
3426736 -0.9781318719958524 0.21398903343565717
3427445 -0.977449584241454 0.21354568844973998
3428153 -0.9780132661263796 0.2140469215704917
3428862 -0.978471321850281 0.2144471167099218
3429570 -0.9783706392055724 0.2139136562735339
3430279 -0.9779822941381864 0.21374192557102045
3430987 -0.9771945464573234 0.21398988241642505
3431695 -0.9781506104211772 0.21455337850852182
3432404 -0.9779721073282334 0.21438123576906468
3433112 -0.9775423346259338 0.21357956955062032
3433821 -0.9775726275491164 0.21360120067031554
3434529 -0.9782210403777873 0.21444078996178864
3435238 -0.9777762023966033 0.21410288122445992
3435946 -0.9781399674733963 0.21416449511184862
3436655 -0.9780160006603807 0.21387310687576502
3437363 -0.9783283293824413 0.2144997890511376
3438071 -0.9783565830057006 0.21480149421698755
3438780 -0.9775137411995883 0.2142669156881248
3439488 -0.9774272697166606 0.2141555543920352
3440197 -0.9780779839679276 0.2146678607168824
3440905 -0.9785719445470529 0.21420497461068308
3441614 -0.9774922936901281 0.21440318490693117
3442322 -0.9770512771333041 0.2142740123694624
3443031 -0.9780890628475081 0.21523409428625237
3443739 -0.9780934664592054 0.2149125637185922
3444447 -0.9779866653654122 0.21514909871863472
3445156 -0.9774306755965159 0.2146928502950249
3445864 -0.9779717999685594 0.21506184601689746
3446573 -0.9778662486076719 0.21521559786655325
3447281 -0.9771827841894982 0.2157093292853959
3447990 -0.9767630179599525 0.2148196695647109
3448698 -0.9779840764143 0.2145439123853458
3449406 -0.9782254073164123 0.2157725686275694
3450115 -0.977992273485281 0.21524668708758427
3450823 -0.9769239150066876 0.2151235683749285
3451532 -0.977730984071944 0.21494979168784684
3452240 -0.9778671713381513 0.21569968373251247
3452949 -0.9776379489177405 0.21514909668157356
3453657 -0.9774044630850693 0.2151475925502358
3454366 -0.9774362514756588 0.21503390821552162
3455074 -0.9780146372227672 0.2162989774813152
3455782 -0.9778898117833535 0.216253105838115
3456491 -0.9771973828047151 0.21509792012644505
3457199 -0.9775570193567693 0.21539196219899892
3457908 -0.978144142378783 0.21576354405638912
3458616 -0.9779566838050855 0.21635782256833824
3459325 -0.9774188233666931 0.21588158822292028
3460033 -0.9777260681893469 0.2159786960054159
3460742 -0.9774654045389259 0.2154724876880173
3461450 -0.977576185820018 0.2155116089014299
3462158 -0.9777218165067039 0.21666360349431626
3462867 -0.9774198111904838 0.2162471789389425
3463575 -0.9777805192369412 0.21557926256033053
3464284 -0.9776414327528731 0.21530517214806244
3464992 -0.9777250360932717 0.2164134948580791
3465701 -0.9772322442166069 0.21617792021279877
3466409 -0.9777436710101398 0.21554300392235803
3467117 -0.9776068467502183 0.21617570895299212
3467826 -0.9779128763048752 0.21625319492101647
3468534 -0.9771319026769871 0.2166890838287272
3469243 -0.9773082566139235 0.2160277178113003
3469951 -0.9768923329581154 0.21605318692484182
3470660 -0.9774985108329528 0.21649535128053402
3471368 -0.9777577007888072 0.21716417019261808
3472077 -0.9773896028558655 0.21661062737322498
3472785 -0.9770614958283144 0.21671814733347972
3473493 -0.9770814607375291 0.21675253903637137
3474202 -0.9774853310639184 0.21762348029670048
3474910 -0.9777801040842621 0.2168431411727933
3475619 -0.9774727765829623 0.21623230195941856
3476327 -0.9767185183216416 0.21657421470520377
3477036 -0.9775843460170408 0.21692216977690454
3477744 -0.9774352271616391 0.2175260089162077
3478453 -0.9772772636504204 0.21693518197575937
3479161 -0.9768781360361203 0.21655111329089433
3479869 -0.97768763158549 0.21708594288193786
3480578 -0.977665020459897 0.21717000664945574
3481286 -0.9770888966144662 0.21720626220226175
3481995 -0.9770865110765367 0.2172143381734677
3482703 -0.9775685360468653 0.21673802404011702
3483412 -0.9772064456459202 0.21776456287156165
3484120 -0.9772778409038143 0.21717655632205837
3484828 -0.9764625917352909 0.21708650688390652
3485537 -0.9769971893258537 0.21688953585579826
3486245 -0.9775868845309778 0.21790227606815812
3486954 -0.9774544948861666 0.21713220979755576
3487662 -0.9770666015361061 0.21681159569904856
3488371 -0.9768963901594524 0.2174798604463244
3489079 -0.9770870374420726 0.21718066772046973
3489788 -0.9775529573204906 0.21780071347483437
3490496 -0.9772577830841302 0.21743326454457695
3491204 -0.9767425613426481 0.2175186084513017
3491913 -0.9773140050843643 0.21826523389318736
3492621 -0.9772985876529255 0.21800652015886635
3493330 -0.9769696957393449 0.21779096987890117
3494038 -0.97638401272733 0.21807698210604076
3494747 -0.9773287671632946 0.2179662351490444
3495455 -0.9774800229620489 0.2179827712082183
3496164 -0.9768878191858608 0.21798096690941574
3496164 -0.9769371200853026 0.21834556332065608
3496887 -0.9777216770260885 0.2172840064657447
3497610 -0.9770303435986425 0.21784088055342124
3498333 -0.9768896875181555 0.21816846323928257
3499056 -0.977234597881783 0.218052868062284
3499779 -0.9769626488872143 0.21810415916380246
3500502 -0.9773010641688218 0.21787603763558447
3501225 -0.9771163193717373 0.2183895972948667
3501948 -0.9770336751194619 0.21875952645118543
3502671 -0.9767716172481026 0.2184985614960704
3503395 -0.9770676382097275 0.21773708402832928
3504118 -0.9770980048094321 0.2184607883353977
3504841 -0.9767899134140637 0.21859577081409565
3505564 -0.976853562365074 0.2185152884640222
3506287 -0.976774558604339 0.21860523778863447
3507010 -0.976637803365794 0.2182784513960804
3507733 -0.9773935874218526 0.21854178042637792
3508456 -0.9773455872907517 0.21931987591349658
3509179 -0.97652646667402 0.2185610631701034
3509903 -0.9767809044401399 0.21833113534066728
3510626 -0.9766788943337251 0.21842714930394072
3511349 -0.9771178828417415 0.2190814944248761
3512072 -0.9768203925521632 0.21933322428996818
3512795 -0.9764268040214172 0.21869518101856306
3513518 -0.9770508645341827 0.21825577491796874
3514241 -0.9771671469760419 0.21942010097106918
3514964 -0.9770470177686758 0.21935327350110664
3515687 -0.9767948183859515 0.2193811910658916
3516411 -0.9766308178466464 0.2184317296053751
3517134 -0.9772960997029171 0.2183000040945077
3517857 -0.9767199658681951 0.22022059768878302
3518580 -0.9763301400417488 0.2197799685380588
3519303 -0.9768539040951909 0.21920329818375095
3520026 -0.9764192503448944 0.21907139751221782
3520749 -0.9772363945331449 0.21895083663637427
3521472 -0.9761289332143303 0.22025826461847745
3522195 -0.9761821649248207 0.21938426463532334
3522919 -0.9764480131941417 0.21921518148712674
3523642 -0.9776820151459532 0.2196213702883044
3524365 -0.9767008283046813 0.2201977415537107
3525088 -0.9764217789875008 0.22042111067226103
3525811 -0.976281852831978 0.21976213332924846
3526534 -0.9766448427827154 0.21920068013362617
3527257 -0.9771221924104085 0.2194930902696719
3527980 -0.9762027893456956 0.22028577108208652
3528703 -0.9763961316141938 0.21938618563309312
3529427 -0.9761312725908067 0.21939770407658787
3530150 -0.9774141258500842 0.22006939516522794
3530873 -0.9768478585393463 0.22059794578859906
3531596 -0.9773387596961756 0.22025101066805783
3532319 -0.9763135404612698 0.2196542867979993
3533042 -0.9763117369742236 0.22018055689912172
3533765 -0.9771558405578875 0.22027481356205736
3534488 -0.976650484127032 0.2208332049331263
3535211 -0.9768454201650334 0.21978492511990844
3535935 -0.9764311481614893 0.22001583071048883
3536658 -0.9764927415275904 0.22063688173464527
3537381 -0.976687824788556 0.22066194408097337
3538104 -0.9767277719535613 0.2205619977946404
3538827 -0.9763794090347883 0.22051290883997354
3539550 -0.976561383058932 0.22032240146169524
3540273 -0.9764442186957738 0.22117834095309866
3540996 -0.9766261863245704 0.2207311151705607
3541719 -0.9764298845097779 0.22068257653655665
3542443 -0.9761281794244037 0.22080018536613935
3543166 -0.9769039221175355 0.22109324878079975
3543889 -0.9762327724140779 0.2211265493999892
3544612 -0.9763079835493175 0.2207146522479802
3545335 -0.976434178574245 0.22130373846576812
3546058 -0.976344372384586 0.220719907209538
3546781 -0.9766781517623041 0.22101341382134684
3547504 -0.9764545930105604 0.22070941383648346
3548227 -0.9759112359346516 0.2215207774081293
3548951 -0.9761989797574143 0.22114412221786295
3549674 -0.9768209057524787 0.22140183860504564
3550397 -0.9767402177937701 0.2212399843514148
3551120 -0.9760979716500252 0.2209375483445489
3551843 -0.9756190406279083 0.2213596775710704
3552566 -0.9767001080325192 0.22132388705140102
3553289 -0.9771843258602305 0.22158096032778832
3554012 -0.976316294305819 0.22127775436385894
3554735 -0.9755106337578862 0.2217172672648059
3555459 -0.9756940131878007 0.22143375873141155
3556182 -0.9760829344877547 0.2218703487378576
3556905 -0.9768016896538442 0.2214876202048864
3557628 -0.9757225761209485 0.22158727451352106
3558351 -0.9765356203836129 0.22196995776136205
3559074 -0.9760755574395483 0.2221646660055625
3559797 -0.9762143711058568 0.22180990153273908
3560520 -0.9760432671321875 0.22138407920909756
3561243 -0.9763905966978396 0.22171027304002852
3561967 -0.9765397683557906 0.22190732865834323
3562690 -0.976177859934035 0.22234855816111038
3563413 -0.976355843553883 0.22127925508503332
3564136 -0.9756272279943142 0.2217638300197966
3564859 -0.9758440004756771 0.22238095757654155
3565582 -0.9758565703306422 0.22218849762396745
3566305 -0.9765461337980341 0.22223174645740756
3567028 -0.9754482720460748 0.2222898094674051
3567751 -0.9758301228213644 0.2224258847861424
3568475 -0.9765678312034023 0.22179316015994524
3568475 -0.9762270407480519 0.2226079603628331
3569213 -0.9762526759760397 0.22345231172610078
3569951 -0.9759078761581633 0.22260827057403862
3570689 -0.975832666870155 0.2222097070402372
3571427 -0.9758978321851289 0.222221093682886
3572165 -0.9758160154811946 0.22233636565430082
3572903 -0.9755733276453344 0.22320339494098748
3573641 -0.9754878738262243 0.22232141548396045
3574379 -0.9757081657487698 0.2228289170839154
3575117 -0.9759953735601841 0.22258278438618384
3575855 -0.9757747427356919 0.22320736579904465
3576593 -0.9760236519448424 0.22295477563608473
3577331 -0.9759551115622705 0.2224977497191799
3578069 -0.9759262995828712 0.22272452627404932
3578807 -0.9762791124207525 0.22282162573082576
3579545 -0.9761662091392473 0.22296396061453683
3580283 -0.9754485267235766 0.2233599262039503
3581021 -0.9759541663071152 0.2229504654415992
3581759 -0.9758235321243495 0.22293073468097988
3582497 -0.9759203287871526 0.22240997796280454
3583236 -0.9752897845829188 0.22340727154287546
3583974 -0.9759186760886049 0.2225742934116612
3584712 -0.9759465310942838 0.22284452292157786
3585450 -0.9756298759119298 0.2234549991628631
3586188 -0.9756078261745453 0.2234569354786349
3586926 -0.9756485824122837 0.22357568333034974
3587664 -0.9758652888972897 0.22322708080843195
3588402 -0.9759599897128909 0.2228536639829446
3589140 -0.9758857066396621 0.2235719276548626
3589878 -0.9758860393410248 0.22395178336917854
3590616 -0.9754906951510027 0.22382307192056636
3591354 -0.9756299472118536 0.22369148862920005
3592092 -0.9764574870312474 0.22306429774446754
3592830 -0.9759997030840283 0.22343978801934886
3593568 -0.976134221024806 0.22455764700195233
3594306 -0.9755169130130391 0.22392666864570138
3595044 -0.9760563051918272 0.22356384508114516
3595782 -0.9750999624326027 0.2236801503950528
3596520 -0.9759115858922185 0.2241082535767997
3597258 -0.9751371273400513 0.22462528169319282
3597997 -0.9757927651476938 0.2238853819260515
3598735 -0.9759542126894071 0.22360938880189132
3599473 -0.9755648011037406 0.2241138050100761
3600211 -0.9748871472884781 0.22363250586023306
3600949 -0.9754381316700188 0.22448901880501224
3601687 -0.9760978035518054 0.22416052802653236
3602425 -0.9757188276390202 0.22384583570423705
3603163 -0.9764501387410183 0.22447353681528917
3603901 -0.9756849272727521 0.22503444541991482
3604639 -0.9753724705703725 0.2245790318259384
3605377 -0.9755308251187206 0.2239551954215194
3606115 -0.9758530046995519 0.22428546672750957
3606853 -0.9761127440063039 0.22480169879140116
3607591 -0.9755030086712683 0.22535916174444223
3608329 -0.9750468984998507 0.22516616707003542
3609067 -0.9758868030816367 0.22408322508584058
3609805 -0.9756213150232493 0.22439051241518135
3610543 -0.9753809572182489 0.22532068471938835
3611281 -0.9752841771880623 0.22496699772348097
3612019 -0.9749264932229821 0.22483196570398783
3612758 -0.9756797991835328 0.22484209844182626
3613496 -0.9753912627510155 0.22514281410262577
3614234 -0.9755149058688101 0.22532610820978377
3614972 -0.9746926476995842 0.22535400647520917
3615710 -0.9751151575208842 0.2248669920134847
3616448 -0.9751799165763645 0.22446254052336814
3617186 -0.9755815610037042 0.22514023869007513
3617924 -0.9750652215084697 0.22586072790771253
3618662 -0.9750851054354209 0.22514854109690616
3619400 -0.9754296176748332 0.22494972287712453
3620138 -0.9755820460572251 0.22531866732167027
3620876 -0.9755546979608024 0.2257817380127653
3621614 -0.9749877081337021 0.22628675233351422
3622352 -0.9748934784619196 0.22555258371754702
3623090 -0.9753954275348243 0.22483919512591563
3623828 -0.9755506396262469 0.22552339605673025
3624566 -0.974749117324677 0.22534593268251385
3625304 -0.9749099250471835 0.22610084055612417
3626042 -0.9750066622471371 0.2254911817609922
3626780 -0.9755070025386117 0.22513987582859185
3627519 -0.9754346786216831 0.2256055079417004
3628257 -0.9750737351542896 0.22637516522596357
3628995 -0.9753342279181112 0.22577199746336563
3629733 -0.9750577255064283 0.2255830875228239
3630471 -0.9758042986139708 0.22573518400163303
3631209 -0.9752843611554844 0.2262038935273772
3631947 -0.975638972911668 0.22640684497751415
3632685 -0.9746103455623849 0.22604048090701973
3633423 -0.9750826447940677 0.22569999082933778
3634161 -0.9753860359499862 0.22524538845582007
3634899 -0.9755678216431595 0.22597788892492118
3635637 -0.9748696236861341 0.22687156714566495
3636375 -0.9750337998045919 0.22680723111637724
3637113 -0.9754828208756479 0.22578334259078325
3637851 -0.9752461740992349 0.22645982067784753
3638589 -0.9747363142388696 0.2269714101836567
3639327 -0.9746709624067444 0.22736961456109614
3640065 -0.974928237014183 0.2264243587177304
3640803 -0.9749054039600423 0.22594969434519976
3641541 -0.9753115559060075 0.22639919720381252
3642280 -0.9744613569152981 0.22688029642340424
3642280 -0.9748510142233914 0.2266227169053461
3643033 -0.9751740804058482 0.2264818830845247
3643786 -0.9744656174018285 0.22706095279813537
3644539 -0.9747050838087785 0.22689891268247367
3645293 -0.9748199268759187 0.22629524455396963
3646046 -0.9750210784962905 0.2266571998539533
3646799 -0.9755235618386118 0.22695336262538945
3647553 -0.9746661632906154 0.22702394823137673
3648306 -0.9747129908360077 0.22683139007521616
3649059 -0.9755110222128649 0.22688468919225488
3649813 -0.9752638551727575 0.22682688543559745
3650566 -0.9755736796305616 0.22723097951231602
3651319 -0.9750543217900851 0.2277687936800683
3652073 -0.974624414277428 0.22725694592106596
3652826 -0.9752130479081845 0.22703243884171342
3653579 -0.9750415359721062 0.22712600697042842
3654333 -0.9747784968164845 0.22704226448588888
3655086 -0.9750767233171814 0.22778530907650113
3655839 -0.974160785101027 0.22781942081877735
3656593 -0.9747061408150011 0.22693027070605215
3657346 -0.9745807433111726 0.22655144916079228
3658099 -0.9747533819797124 0.22797200794191858
3658853 -0.9747479665559811 0.22804941324272732
3659606 -0.9739279733579296 0.22793391341567423
3660359 -0.9747047553312842 0.22789725785118597
3661113 -0.975275486330896 0.22725920255494886
3661866 -0.9751695520137985 0.22760206203835326
3662619 -0.9746183055628782 0.22840403487693553
3663372 -0.9747661471443118 0.22822187838358252
3664126 -0.9744424517541507 0.22849697611915368
3664879 -0.9747890651292003 0.22737570286644418
3665632 -0.9746120813403847 0.22754079700662758
3666386 -0.9750250291520158 0.22857514160071485
3667139 -0.9747189748683038 0.22902128826344365
3667892 -0.9744904141254802 0.22823893438336842
3668646 -0.974851436035862 0.2279409252665243
3669399 -0.9750980613250774 0.22796399204559298
3670152 -0.9746694908909151 0.22849586607002473
3670906 -0.9744553810182214 0.22868932302292463
3671659 -0.9741172252635968 0.22835003552661848
3672412 -0.9744466491543883 0.2282787386131493
3673166 -0.9754038005319451 0.22787682713764756
3673919 -0.9742964000676683 0.2288036648977372
3674672 -0.9741532368056608 0.22898245137608253
3675426 -0.9742192629971862 0.22856823850099367
3676179 -0.9751046899714229 0.22753552294723253
3676932 -0.974318934514125 0.22852878184463712
3677686 -0.9750745955578698 0.22926070397324785
3678439 -0.9747332862149777 0.22885751845223806
3679192 -0.9736481128884845 0.22938974734174647
3679946 -0.9740213900776579 0.22895649535501275
3680699 -0.9743173991246007 0.22846687050809603
3681452 -0.9753229690844541 0.22914261904016348
3682205 -0.9751373410960166 0.22861113843245062
3682959 -0.9744991195579752 0.22956462029841723
3683712 -0.9738628262882113 0.22937408142494578
3684465 -0.9739248983320556 0.229309448104497
3685219 -0.9743629620862356 0.22892805788984716
3685972 -0.9749160411821629 0.2288764299955631
3686725 -0.9742622998619878 0.22940730628866643
3687479 -0.9744616397225463 0.22971524311155944
3688232 -0.9737600630565487 0.22969102733790395
3688985 -0.9742389915873668 0.22920533183468106
3689739 -0.9746363694108021 0.22899679463807657
3690492 -0.9746073562379659 0.22959806466075083
3691245 -0.9743031857950372 0.23021950053970594
3691999 -0.9740090096540845 0.22965121383819245
3692752 -0.9743561478157597 0.2297366812369383
3693505 -0.9743544585241588 0.22903621907498747
3694259 -0.9738810298495182 0.22955611807510307
3695012 -0.9745974837371559 0.23017749858755387
3695765 -0.9742291581173826 0.23017992327733758
3696519 -0.9741240349792594 0.23001272872740466
3697272 -0.9744029824744297 0.22896791484150586
3698025 -0.9742431214950448 0.22938952430728715
3698779 -0.9745637516387027 0.22974654739515052
3699532 -0.974368320464927 0.2305897195523053
3700285 -0.974102222530151 0.23020256936592406
3701038 -0.9741932097701184 0.22966591831687802
3701792 -0.9739110333580454 0.22953197703455008
3702545 -0.974728889458417 0.22997983543490141
3703298 -0.9747899304835959 0.23036916290966003
3704052 -0.9738563210861225 0.23083821989177022
3704805 -0.9736409762592149 0.23001439782412642
3705558 -0.9732596975050283 0.2298128879326334
3706312 -0.9745051154164313 0.23061754217286476
3707065 -0.9748467670628629 0.2312535574105596
3707818 -0.9741540548645731 0.2306441378213536
3708572 -0.9737438280934928 0.2309856633196217
3709325 -0.9735976501589876 0.2302664388806114
3710078 -0.9736954436125118 0.23061874592036427
3710832 -0.9748742296735406 0.2302822586444431
3711585 -0.9742344464965693 0.23074198885063485
3712338 -0.9739119010286286 0.23135035214032185
3713092 -0.9735689660848245 0.23131265945817486
3713845 -0.9735371323119842 0.23113159757232776
3714598 -0.9749046555098637 0.2312427061687081
3715352 -0.9745059275165942 0.23118992397361415
3716105 -0.974373521277315 0.23100527936704476
3716858 -0.9730379209309982 0.23113407920117873
3717612 -0.9736522008120441 0.23079877422133294
3717612 -0.9736577384792523 0.23169958365982865
3718380 -0.9736618549015726 0.23158612479111046
3719149 -0.9739093109412611 0.23064678721420043
3719918 -0.9740020896847068 0.23107750874805033
3720687 -0.9747647720983584 0.23089925901277183
3721456 -0.9735352815295055 0.23151751158463138
3722225 -0.9733114596764136 0.23234886560215406
3722994 -0.974138026023806 0.23149278349042549
3723763 -0.973946208854427 0.23096983902263327
3724532 -0.9745419965750368 0.23131777088930577
3725301 -0.9741342424889313 0.23228304200763542
3726070 -0.973610483458622 0.23208337546550084
3726838 -0.9734660086782019 0.2322465736828533
3727607 -0.9737259135225164 0.231283907731903
3728376 -0.9741589631492598 0.23094429104359682
3729145 -0.9739734035271994 0.23169962207124237
3729914 -0.9733349478246907 0.23175819825485672
3730683 -0.9731321136611722 0.2321271501268001
3731452 -0.973587358675957 0.23156711283763423
3732221 -0.9730132178459389 0.2312418693737196
3732990 -0.9743340268586945 0.23192646205610282
3733759 -0.9739954059503577 0.23228193686183404
3734528 -0.9733001797696947 0.232136047034943
3735296 -0.9734920639802486 0.2321485407309192
3736065 -0.9735062145230352 0.23167955085418407
3736834 -0.9731784570066934 0.2315122694925489
3737603 -0.974388442685805 0.23257616783435547
3738372 -0.9738703305965666 0.23236873545153178
3739141 -0.9735747167538199 0.2329645507762511
3739910 -0.9736813894650047 0.23268340226426945
3740679 -0.9733714158402296 0.2316968265977473
3741448 -0.9738227771150817 0.23253221932558493
3742217 -0.9745303596809217 0.23252688991011344
3742986 -0.9733271991507177 0.23307066475406535
3743754 -0.9730352738810102 0.23314174636331567
3744523 -0.9729075890410382 0.23273470906064495
3745292 -0.9733902339643925 0.23267743585594103
3746061 -0.9740899563188546 0.23226454476823655
3746830 -0.9735971631917278 0.232828492999132
3747599 -0.9728093129694724 0.23293362393842937
3748368 -0.973218782039115 0.23333436351033765
3749137 -0.97318357135212 0.2324526143091544
3749906 -0.974031079589207 0.23260540444460207
3750675 -0.9734815341631674 0.23288821444434574
3751444 -0.9731151853732141 0.23334762517907945
3752212 -0.9727198304932005 0.23387123765863851
3752981 -0.9732599318407452 0.23364085487482691
3753750 -0.9737326209189581 0.2327386880113986
3754519 -0.9739718615499788 0.23273562504326883
3755288 -0.9739758247954754 0.23319321267901008
3756057 -0.9732403850278225 0.23399169453520996
3756826 -0.9730461402562837 0.2341780745637667
3757595 -0.9731479402587399 0.23300077972962185
3758364 -0.9735446892761753 0.23308319987538448
3759133 -0.9738580075134329 0.2342408113446444
3759902 -0.9735042247331335 0.23361816180132944
3760670 -0.9732346519524648 0.2339011754212881
3761439 -0.9733100349160504 0.23400186418298488
3762208 -0.9735553530796394 0.2335636619109066
3762977 -0.973359304586119 0.23291714596609364
3763746 -0.9737572893301767 0.23421518133271632
3764515 -0.9731086148905167 0.23436025709664735
3765284 -0.9727552435048664 0.23453344351218863
3766053 -0.9733577970586355 0.23404767925695255
3766822 -0.9729823560534724 0.23344968532875565
3767591 -0.9731622791004763 0.23404867615919836
3768360 -0.9737818784691434 0.23436274324155165
3769128 -0.9730966057204062 0.23449342026607942
3769897 -0.973090757948497 0.23430859958707367
3770666 -0.97291410464197 0.23413584347968638
3771435 -0.9729961845438589 0.23365779777013074
3772204 -0.9736228660464178 0.2345418127667518
3772973 -0.9734639842525716 0.2344474244178543
3773742 -0.9725406208835563 0.23469546899277066
3774511 -0.9726831074795562 0.23460879682558683
3775280 -0.9731272914898318 0.23445485325619958
3776049 -0.9735441721403497 0.23394554056581018
3776818 -0.9734137721978903 0.2342853341361375
3777586 -0.9730735237989085 0.23528121718726425
3778355 -0.9724795798231857 0.2350130124069799
3779124 -0.973010527156624 0.23439441626273416
3779893 -0.9733066725642553 0.2343286234237089
3780662 -0.9733371232318931 0.23451078662430727
3781431 -0.9736213592253844 0.23493525016667538
3782200 -0.9723569025433505 0.23538393500865404
3782969 -0.9725610705675578 0.23509905829713434
3783738 -0.9729453538383147 0.23451328152277465
3784507 -0.9730864656033648 0.2340278697145846
3785276 -0.9735451474214463 0.2353261562402938
3786044 -0.973307378405817 0.23548149781073774
3786813 -0.9723205397414209 0.2355109077870441
3787582 -0.9726887108420226 0.2356931367396345
3788351 -0.9729678139839347 0.23427387093326146
3789120 -0.972299125807434 0.23493119484794386
3789889 -0.9731685113709172 0.23577060023762636
3790658 -0.9723365790667429 0.23602674861060285
3791427 -0.9722009815188595 0.2360034217678581
3792196 -0.9729752802139144 0.23475778461391014
3792965 -0.9730727008704203 0.23482060643619923
3793734 -0.9733294071542928 0.23635157004607102
3794503 -0.9732038781421684 0.2357114853374234
3794503 -0.9728090954198104 0.2358754229066194
3795287 -0.9722380494291734 0.2355015262022851
3796072 -0.9726376743443358 0.23522155618835439
3796857 -0.9731282182742649 0.23536975639959587
3797642 -0.9732604283235112 0.2361901442664143
3798427 -0.9726840638662475 0.23651037066398528
3799211 -0.9723954902311135 0.23635651454472
3799996 -0.9728046937410689 0.23563512852344384
3800781 -0.9727294916431827 0.23571006747076137
3801566 -0.9728770082168908 0.23572727894806111
3802351 -0.9736255241773617 0.23602986539602383
3803135 -0.9730955471087055 0.23665593596489903
3803920 -0.9724242776393528 0.23703798016514874
3804705 -0.9724709349572206 0.23607443641535134
3805490 -0.9726340422655035 0.23565709409500504
3806275 -0.9731881062423285 0.23561274063587234
3807059 -0.9727511584341354 0.23626183941457338
3807844 -0.9725194877606876 0.23695837305048856
3808629 -0.9726564015864358 0.23712018673254712
3809414 -0.9722569967230233 0.23648344106595598
3810199 -0.9719427958431056 0.23616320891875983
3810983 -0.97287058686956 0.23584826426848884
3811768 -0.9725233488552055 0.23624904311797415
3812553 -0.9728010775683267 0.23661821989753304
3813338 -0.9723429952682969 0.23754332241261922
3814123 -0.9717726280679897 0.23677971999203873
3814907 -0.9713277000828288 0.23648007384934247
3815692 -0.9725258665811087 0.2361476469356419
3816477 -0.9733331188411681 0.23655833201110693
3817262 -0.973249913516448 0.23727699535679833
3818047 -0.9721915356057448 0.23782506412165144
3818831 -0.9716926260931156 0.2370638202484419
3819616 -0.97169668879555 0.2372745073029627
3820401 -0.9724658961139411 0.23646925630840424
3821186 -0.973253213160008 0.2368510494326672
3821971 -0.9725374611910493 0.2370228875724983
3822755 -0.9722153802020116 0.2380991869315902
3823540 -0.9723361162436824 0.23772889696246413
3824325 -0.9721433944162939 0.2371604859907683
3825110 -0.9726341551289502 0.23693114191001136
3825895 -0.9728174290649406 0.23716232585338531
3826679 -0.9729824877145251 0.23753134170695966
3827464 -0.9726255852741116 0.23837469177765114
3828249 -0.9724595026639816 0.23809953557116886
3829034 -0.9720908945669811 0.23716100235335955
3829819 -0.971993070259256 0.23690813535928879
3830603 -0.9726514335416385 0.23686439422331085
3831388 -0.9731775440494275 0.2379862633315545
3832173 -0.9723717600110826 0.2380518503021807
3832958 -0.9720502794056506 0.23934421616666884
3833743 -0.9719490281905616 0.23883441095127336
3834527 -0.9713364207603165 0.23797727508140865
3835312 -0.9719258121541119 0.2375875949534259
3836097 -0.9728599044992053 0.23763151906841223
3836882 -0.9731494763493708 0.23768807891003846
3837667 -0.9719910757067911 0.23898111455681345
3838451 -0.9720252116537288 0.23927278768673504
3839236 -0.9719587755516499 0.2385523427756716
3840021 -0.9723392061142528 0.2379593069443682
3840806 -0.9730210489008356 0.23803591191657705
3841591 -0.9726881470537831 0.23842476473625784
3842375 -0.9719689406901665 0.23951821304340296
3843160 -0.9718501900353884 0.23881238946307318
3843945 -0.9717233449469375 0.23802298139979308
3844730 -0.9716304790804204 0.23782829631029925
3845515 -0.9723362318444522 0.2376237317116904
3846299 -0.9724938035829152 0.23905974219096235
3847084 -0.9717214426909107 0.23912786217163678
3847869 -0.9715606042967253 0.23995830107334282
3848654 -0.9718572350729114 0.2394367956459699
3849439 -0.971587658734958 0.23799682095831134
3850223 -0.9721512416676178 0.23837825589425565
3851008 -0.9726765798084042 0.23889172831101427
3851793 -0.9719492195522043 0.23973218985518047
3852578 -0.9716738459230028 0.24025022327009912
3853363 -0.9716226165107482 0.23927955659535147
3854147 -0.9717340728232157 0.23865328779723377
3854932 -0.9724161759034452 0.2388837169859546
3855717 -0.9726341036486678 0.23903118251268746
3856502 -0.9719506230995375 0.23985036256614242
3857287 -0.9713339682460828 0.24051715095289097
3858071 -0.9718619598173034 0.23962843153499702
3858856 -0.9714354821199437 0.2388843229766254
3859641 -0.9718349732940386 0.23857084576673246
3860426 -0.9722887474463048 0.2389761240399849
3861211 -0.9724563600934865 0.24015596653829027
3861995 -0.9719095615184553 0.24025699963776695
3862780 -0.9716064463561404 0.2405169577324138
3863565 -0.9714264937752367 0.2396909352040432
3864350 -0.9714384174904279 0.23902558239674476
3865135 -0.9721437843252395 0.23935655506750675
3865919 -0.9728584816845154 0.23971070795923421
3866704 -0.9718620278378329 0.24059015752840127
3867489 -0.9711487151509067 0.24061205319137124
3868274 -0.9706570311548369 0.24001961653445095
3869059 -0.9710528986170576 0.23988684766018617
3869843 -0.9721757521464763 0.23889732958769752
3870628 -0.9723051668668106 0.24018032523836522
3871413 -0.9720240851838481 0.24098403730863086
3872198 -0.9719250646006969 0.2410022417091999
3872983 -0.9716211587644904 0.2403604659414296
3872983 -0.9717762532971159 0.24060996409755825
3873784 -0.9715537223993643 0.2410023103008659
3874585 -0.9710086934771557 0.24082874428996143
3875386 -0.9717290188208103 0.2396936356903874
3876187 -0.9715471036402252 0.23967676256150866
3876988 -0.9717199878290345 0.23974261404354144
3877789 -0.9720012176577318 0.24060877579402423
3878590 -0.9716652899030827 0.2411723875844684
3879391 -0.9717324230792392 0.24121505679027508
3880192 -0.9708447337930157 0.2411899283579785
3880993 -0.971071740843068 0.24057965970979275
3881794 -0.9713244232145409 0.24015654511439544
3882595 -0.9716527096248565 0.24031272203202467
3883396 -0.9723452904725832 0.2404355564780847
3884197 -0.9724271277118061 0.24079933735550701
3884998 -0.9715812621363126 0.24150083767903335
3885799 -0.970949394799774 0.2421809602564698
3886600 -0.970802375176839 0.24133718384098604
3887401 -0.9709167950636873 0.24099304497625793
3888202 -0.9714497927704466 0.24075104560559557
3889003 -0.9717387666701282 0.2409667905506876
3889804 -0.9717813913620907 0.24139751508802168
3890605 -0.9725160750778934 0.24147887696113857
3891406 -0.9715998846867414 0.24198161590249742
3892207 -0.9709252652728431 0.241744123402286
3893009 -0.9705149195444739 0.24142560921273298
3893810 -0.9714646212605581 0.24154152951515478
3894611 -0.9716818780434197 0.24135007988978693
3895412 -0.9716546983559241 0.24092264065996738
3896213 -0.9725526307243484 0.24195108712873825
3897014 -0.9715913610162148 0.24236487724012895
3897815 -0.9708999202737295 0.24170133073736788
3898616 -0.9706747752542707 0.24179476321416254
3899417 -0.9704300792597047 0.24220940358511947
3900218 -0.9703282648914572 0.24148805553948882
3901019 -0.9714784599532235 0.24138180912876625
3901820 -0.9716593512828737 0.24119907672600385
3902621 -0.9722571308046952 0.2420907968620787
3903422 -0.9712840552888403 0.2419916623203859
3904223 -0.9707737121530469 0.24248454344832457
3905024 -0.971091915621722 0.2429103298271879
3905825 -0.9709502556713406 0.24298138766186086
3906626 -0.9709485720255674 0.24188429451860888
3907427 -0.9707760428736044 0.24172620346189186
3908228 -0.9709586201798698 0.24240094652384517
3909029 -0.9713407793216055 0.24239872087231049
3909830 -0.9712120521812098 0.24250495080730705
3910631 -0.9711054939701571 0.24238820204078043
3911432 -0.970673464418632 0.24269046432463542
3912233 -0.9706349397592541 0.2426545727433104
3913035 -0.9714280902007925 0.24268863265389265
3913836 -0.9719327194620478 0.24227870497772877
3914637 -0.9719620339546843 0.24290649669838787
3915438 -0.9710809885084635 0.24388948831966742
3916239 -0.9700723200285404 0.24323538501011888
3917040 -0.9705938402205739 0.24256784983526766
3917841 -0.9714597754908498 0.24253318990817663
3918642 -0.9714201072653061 0.2425629326932964
3919443 -0.9716918417206396 0.24283544790283268
3920244 -0.9716543186627385 0.24306566729733356
3921045 -0.9712612765500866 0.24434581188332632
3921846 -0.9702678539479234 0.24321229116617235
3922647 -0.9704849813355502 0.24292505051604357
3923448 -0.9706986716627626 0.24271756482677442
3924249 -0.9715290650392387 0.2427597969006688
3925050 -0.9714604711748348 0.24310786646858423
3925851 -0.9714920950426421 0.24392668903249534
3926652 -0.9705094203661127 0.24409672737104005
3927453 -0.9701901921079965 0.2441321596438556
3928254 -0.9703156441133388 0.24344930195010944
3929055 -0.9706100040971468 0.24303411921483292
3929856 -0.9710428743803887 0.2428350072378293
3930657 -0.9713317879955414 0.24354575797230524
3931458 -0.9709807993444138 0.24431390926851856
3932259 -0.9705853956411192 0.24445432997539995
3933061 -0.9702307460778345 0.24477532644977926
3933862 -0.970500448962326 0.24367407809375488
3934663 -0.9700559131645737 0.24366000668233231
3935464 -0.9710283389209249 0.2429820706813528
3936265 -0.9713917929165533 0.24364568320731964
3937066 -0.9714186020857909 0.24425025534712874
3937867 -0.9706086183052506 0.24475820715029398
3938668 -0.9700573664228624 0.24516352941792904
3939469 -0.9697460351079971 0.24400890996207103
3940270 -0.9703440214086777 0.24370225102582993
3941071 -0.9712597848587128 0.24355211962934128
3941872 -0.9710830712506857 0.24417604642296556
3942673 -0.9714926871378857 0.2448269475096547
3943474 -0.9707130854471868 0.24518760354437655
3944275 -0.9703771685877495 0.24564561248268182
3945076 -0.970109983026259 0.24466502087266734
3945877 -0.9702825400411625 0.2437549121196977
3946678 -0.9706039220606528 0.24390156830120838
3947479 -0.9714333076895972 0.244586557426007
3948280 -0.9716315222723164 0.2452482389400015
3949081 -0.9704275191385383 0.245938579337021
3949882 -0.9705817357279162 0.24572942062738393
3950683 -0.9705065101669272 0.24534659292460465
3951484 -0.9703850944486965 0.24380154154151204
3952285 -0.9702850042072924 0.24368928155913666
3953087 -0.9706891137242254 0.24446668243042993
3953087 -0.970909163867886 0.24459539489980633
3953904 -0.9707103101149672 0.24592472126941994
3954722 -0.9704947669836606 0.2458330620774102
3955539 -0.9706480444118251 0.24626986242428658
3956357 -0.9699132042508033 0.24565874957369713
3957175 -0.9698454600563362 0.24530859667068775
3957992 -0.9701541682918816 0.24450130451110264
3958810 -0.9705706836502351 0.2448189099169923
3959627 -0.9706621520023004 0.2451379834110071
3960445 -0.9711772793769093 0.24536640404759216
3961263 -0.9703740266957288 0.2459866774856423
3962080 -0.9700783327963903 0.24621747740920097
3962898 -0.9702294018291077 0.24619506880337472
3963715 -0.9699492865246941 0.24543973125429647
3964533 -0.9701647694919094 0.24542977432132673
3965351 -0.9696609344143924 0.24454290570883183
3966168 -0.9702047823616079 0.24495689954192565
3966986 -0.9710852761483876 0.245424387012867
3967803 -0.9711850524408856 0.2458873239578227
3968621 -0.9707273959740957 0.2468412614284313
3969439 -0.9704754515359016 0.2470739298759454
3970256 -0.9699611112752385 0.2469410520734964
3971074 -0.9700945303028563 0.24641395186576398
3971892 -0.9695934510836293 0.24519677210668397
3972709 -0.9695545907233734 0.2448701125162607
3973527 -0.9709129624642394 0.24572088187863114
3974344 -0.9707733402770106 0.24595047199726683
3975162 -0.9706329473605585 0.24666636805124095
3975980 -0.9708043968814968 0.2476211703495073
3976797 -0.9699025465162502 0.24718950324279187
3977615 -0.9695745681560504 0.24725822100716444
3978432 -0.9695783845250123 0.24598590820596275
3979250 -0.9696550387401457 0.2457212593634288
3980068 -0.9701423111389876 0.2451077594513258
3980885 -0.9703991820963228 0.2455392287364882
3981703 -0.9710196503212757 0.24675339279963565
3982520 -0.9706811038075245 0.24745942942431967
3983338 -0.9703642059091367 0.24803050457610235
3984156 -0.9698110177531752 0.24781947871528578
3984973 -0.9692848530404289 0.2470279875634269
3985791 -0.969801097321453 0.2467607276511873
3986609 -0.9701118161178132 0.24621973841698605
3987426 -0.9697820151000005 0.24582115721890796
3988244 -0.9702347585236141 0.24644618209653818
3989061 -0.9706966453626743 0.24702116311571307
3989879 -0.9707210912310296 0.24768339919052904
3990697 -0.970064017504023 0.2484114487705419
3991514 -0.9697442352257677 0.24900734242533568
3992332 -0.9693488593902357 0.24748595928351846
3993149 -0.9689435182545864 0.2467625346926272
3993967 -0.9689203124592919 0.24790548760044318
3994785 -0.9699044405334761 0.2477438988202953
3995602 -0.9699216470210891 0.24712717164871642
3996420 -0.970339893991714 0.2469400485619536
3997237 -0.970176795700746 0.24777791600902935
3998055 -0.970448326412206 0.24811679197339212
3998873 -0.9700441778685597 0.24796197368389766
3999690 -0.9698193588536218 0.24802912393963192
4000508 -0.9690272797518032 0.24792645658243506
4001325 -0.9695746599797461 0.24801304148124648
4002143 -0.9703756304040055 0.24747193960976085
4002961 -0.9705273016723293 0.24743293436994304
4003778 -0.9699744998746361 0.2482544843508692
4004596 -0.969916379259601 0.24869283530227404
4005414 -0.9694237500719253 0.24882102218202745
4006231 -0.9689026786767554 0.24827026344113068
4007049 -0.9691440451115709 0.24836567794440073
4007866 -0.9692940781350209 0.24737852463793128
4008684 -0.9696015056613906 0.24698911226564133
4009502 -0.9699327608648675 0.2478652430780975
4010319 -0.9706286855933131 0.24855697219368816
4011137 -0.9699192158144679 0.248504219131538
4011954 -0.9694766909466733 0.25006829735433694
4012772 -0.9690876488875396 0.2491006216178764
4013590 -0.9691052966431272 0.24816186373945912
4014407 -0.9693021402407243 0.24778192336242172
4015225 -0.9697223533182713 0.24786094451199558
4016042 -0.9698491063192501 0.24835946958639932
4016860 -0.9703384113382251 0.24875264961752916
4017678 -0.9705329087118354 0.2492540148922285
4018495 -0.9700661541311502 0.24953363060064082
4019313 -0.968898845254346 0.24958943015038618
4020131 -0.9684593892868638 0.24866964159405927
4020948 -0.9693941756022726 0.2487045901495355
4021766 -0.9696893065176523 0.2479172220648031
4022583 -0.9690826383348145 0.2480695449326694
4023401 -0.9699343846607335 0.24903268088096803
4024219 -0.9704194428032833 0.24949672081932003
4025036 -0.9698761847710899 0.2504572356578738
4025854 -0.9688062537339189 0.24975700066226547
4026671 -0.9690095172733499 0.2491372923581985
4027489 -0.9684225728804708 0.24911083768786954
4028307 -0.9697725393134952 0.24842892816222573
4029124 -0.9698619894027546 0.24827075878863403
4029942 -0.9698633654105888 0.2491304869580414
4030759 -0.969934456113056 0.25016374389160567
4031577 -0.9696491836236303 0.2507200267431801
4032395 -0.9691257453387182 0.2509409513039586
4033212 -0.9688209781566305 0.24949945306918556
4034030 -0.9685493390403462 0.2496844704877062
4034848 -0.9694481315800935 0.2492229886758086
4034848 -0.9693657262111139 0.24889158319231805
4035682 -0.9699183769538092 0.24890048775980367
4036517 -0.9698936271850496 0.2494626227594615
4037351 -0.9698328780076177 0.24980347963512614
4038186 -0.9697333167935416 0.25153485825312777
4039020 -0.9692056185937741 0.2514126515717403
4039855 -0.968628972899943 0.25155386131871477
4040689 -0.9682994642755308 0.2496629993605009
4041524 -0.9686506416086305 0.24956650459926494
4042358 -0.9689391440210885 0.2495974073483605
4043193 -0.9699148143342482 0.24924088401024425
4044027 -0.9696765904957415 0.24964571241729835
4044862 -0.969710851451217 0.2508468303977894
4045696 -0.9700662137998087 0.25156377706829136
4046531 -0.9694100584613962 0.2517369730894348
4047365 -0.9687475614064303 0.25201409749610826
4048200 -0.9678481413087556 0.25032710526755714
4049034 -0.9684744317325887 0.2497628779383297
4049869 -0.9696018321870856 0.2502449701455695
4050703 -0.9696227955987453 0.24935199644935022
4051538 -0.9694845156426499 0.24954387410536
4052372 -0.9694282348303942 0.25093379428898827
4053207 -0.9691840391527524 0.2514739994868324
4054041 -0.9689005326009603 0.25170976113735394
4054876 -0.9688505928885691 0.2518457271372653
4055710 -0.9681535032610618 0.2512911618305378
4056545 -0.9680078910467786 0.2508785775287693
4057379 -0.9688668216408128 0.2506112308261148
4058214 -0.9692046131378269 0.2501574746213953
4059048 -0.9696452171398642 0.25023212441325354
4059883 -0.9690774195951023 0.2507701671564202
4060717 -0.9694625132543025 0.2518957793256417
4061552 -0.969109056158501 0.25192982863883073
4062386 -0.9689530366335215 0.25233931570310597
4063221 -0.9677155697707133 0.2517955491112359
4064055 -0.9679637710611866 0.25132958290242163
4064890 -0.9683278036658093 0.2507333819392555
4065724 -0.9688452646722061 0.25040319510856357
4066559 -0.969292489885867 0.25095930029474706
4067393 -0.9694651096757717 0.2512448192307744
4068228 -0.9690287239608436 0.2519563694034196
4069062 -0.9684185527712327 0.25260869223576604
4069897 -0.968047736134578 0.2530892678285243
4070731 -0.9675870087557766 0.25146589940160907
4071566 -0.9676976114808777 0.2513000066896941
4072400 -0.9680503444968491 0.2512487188787833
4073235 -0.9689896656270613 0.25092758549948635
4074069 -0.9692571035313453 0.2514600142940879
4074904 -0.9690423641867367 0.25239318568200697
4075738 -0.9696803978745427 0.25284007037445466
4076573 -0.9683366481633287 0.2530492480956848
4077408 -0.9685694859903522 0.2530849945395831
4078242 -0.9678497242152301 0.25254802608533045
4079077 -0.9677129895365298 0.25201644928100975
4079911 -0.9677877924208121 0.2518286193328561
4080746 -0.9687369197285679 0.25118325724296764
4081580 -0.9693298135436896 0.2517128525343509
4082415 -0.9685288276323153 0.2519251559620348
4083249 -0.9683327888515323 0.252664434440847
4084084 -0.9688729639755934 0.25394130946893617
4084918 -0.9683263491648276 0.2538484477603483
4085753 -0.9678336312208177 0.2534707994117946
4086587 -0.9672866094433463 0.2527203378054783
4087422 -0.9678206390517785 0.2520113028951505
4088256 -0.9687780132593412 0.25217830820283044
4089091 -0.9690089666644854 0.25208710949374874
4089925 -0.9688201800815406 0.2526534325962194
4090760 -0.9686113671034141 0.25290116209999997
4091594 -0.9688412511649616 0.2543111109576045
4092429 -0.9688474424765686 0.2543082908272944
4093263 -0.9679294135767913 0.25394020623781044
4094098 -0.9675068194911041 0.2534240475162947
4094932 -0.9675676752158597 0.25336950095202676
4095767 -0.9680542231249692 0.25287898197651004
4096601 -0.9687176393321151 0.2525151006845607
4097436 -0.9687001390148265 0.25226418290665037
4098270 -0.9682807753616561 0.2534238312255979
4099105 -0.9685621919925793 0.2541407026657826
4099939 -0.9682076272881198 0.25437406634248355
4100774 -0.9685444015346175 0.25472732333767356
4101608 -0.9671725676890345 0.25416823959343293
4102443 -0.9674503388019635 0.2531364558562014
4103277 -0.9677052230919352 0.2531427932773944
4104112 -0.9685149353539189 0.2530539548123604
4104946 -0.9687405201151359 0.253119833066727
4105781 -0.9682968563101868 0.2534534091959252
4106615 -0.9690464686615456 0.2540504963123958
4107450 -0.9679951277333125 0.25509520071336605
4108284 -0.9681076970196985 0.25499447232205075
4109119 -0.9673827858850753 0.25441930034330734
4109953 -0.9670789698848355 0.25388340119058267
4110788 -0.9679574824212726 0.25329459763251544
4111622 -0.9682047712389891 0.25349975084821513
4112457 -0.9683217141123185 0.25292397027762287
4113291 -0.9682492466691613 0.2534314133660631
4114126 -0.9684035768003195 0.2547771408255468
4114960 -0.968300060993177 0.25532119208283527
4115795 -0.9679651052095869 0.25576976951966285
4116629 -0.9670781181392665 0.2556755421350444
4117464 -0.9669167610543905 0.25467668979761154
4118299 -0.9675371144128845 0.2553227244013173
4118299 -0.9680683949245071 0.2560838367864144
4119150 -0.9673689711945572 0.255212892457078
4120002 -0.9670570474034313 0.25527449233110117
4120854 -0.9671588482463089 0.2544390284259093
4121706 -0.9676306148220944 0.25462907746354013
4122557 -0.967631487518348 0.254027640416039
4123409 -0.9678933671143318 0.25416007128939067
4124261 -0.967836396639698 0.2538851226141326
4125113 -0.9680018759243909 0.2547533341780436
4125965 -0.9684137137950513 0.25557614627772207
4126816 -0.968522174361066 0.2553992090567394
4127668 -0.9683920516279315 0.25586021981931123
4128520 -0.9675657858793107 0.2560779349508601
4129372 -0.9678651985816625 0.25543403433339534
4130223 -0.9678202107541607 0.2560188578081339
4131075 -0.9674409275491377 0.2556014002671247
4131927 -0.9674102046426649 0.25523220087635556
4132779 -0.9674790173023691 0.25479709706744885
4133631 -0.9672638159940592 0.25493019376690795
4134482 -0.9674965578401336 0.25526488004484393
4135334 -0.9677091869112303 0.2552737140119446
4136186 -0.9671504439480417 0.254942150039999
4137038 -0.9681532299648364 0.25576758954400536
4137889 -0.9681969139311487 0.25563188536245296
4138741 -0.9676220198473352 0.2557331361347855
4139593 -0.9676838284518045 0.25620369580373814
4140445 -0.9677493990009989 0.2557376305722025
4141297 -0.9682198145853315 0.25580190899658717
4142148 -0.9677423452532905 0.25642096220631644
4143000 -0.9674580716094757 0.25672390941123796
4143852 -0.967020622893265 0.2565552444671622
4144704 -0.9679177353299512 0.25619407882024736
4145555 -0.9673935105404968 0.2560504394797225
4146407 -0.9676661359258664 0.2559129922548245
4147259 -0.9672587936738546 0.25580194012120494
4148111 -0.9670926129126469 0.2556039007907734
4148963 -0.9671506392796723 0.2555616786888248
4149814 -0.9675980217102713 0.25564578911965113
4150666 -0.9681678512409738 0.25598500327779455
4151518 -0.9680561117286082 0.25706150719948545
4152370 -0.9673921369758882 0.25694576669399355
4153221 -0.9676732577326203 0.25735254206938396
4154073 -0.9665808133655563 0.2574212914688266
4154925 -0.966699516858894 0.2574242624979692
4155777 -0.9672020998711689 0.25771465087892603
4156629 -0.9671448002908068 0.256885035176542
4157480 -0.9671006252587435 0.25644318527254223
4158332 -0.9666019748591221 0.2561465416915953
4159184 -0.9673735535710751 0.25612968768423783
4160036 -0.9673737111829768 0.25640615230313607
4160888 -0.9673653805990138 0.2565103013213834
4161739 -0.9674854843112561 0.2563588447265869
4162591 -0.9676815672791198 0.256724183845254
4163443 -0.9679073278521242 0.25759606316802597
4164295 -0.9673605986961759 0.25773316306439176
4165146 -0.966399600366292 0.25772143816649334
4165998 -0.9670570761760463 0.2581187372101054
4166850 -0.9666878439579729 0.25763146831975814
4167702 -0.9668380091216041 0.25768853042066914
4168554 -0.9667383387764846 0.2571756484109831
4169405 -0.9667870245686059 0.2573065262091963
4170257 -0.9669876948514966 0.2570005161272257
4171109 -0.9669351359023796 0.2566815402211053
4171961 -0.9676578643754401 0.25734772820336865
4172812 -0.9677600328558587 0.25802986210375994
4173664 -0.9675532932760628 0.25832251857632743
4174516 -0.9667549356351919 0.2584493739780882
4175368 -0.9661619496714628 0.25808434485780374
4176220 -0.9663395117558206 0.25860179106560044
4177071 -0.9663604417957233 0.25870109770385297
4177923 -0.9668570271111956 0.25804340786935476
4178775 -0.9672324095857681 0.25768574363696645
4179627 -0.9669102405871292 0.2576749132298331
4180478 -0.9671786601241964 0.25783793522469817
4181330 -0.9669515709843634 0.2576221985565115
4182182 -0.9674830553383652 0.25779196588722403
4183034 -0.9667915200560004 0.2583621369625823
4183886 -0.9666863536303568 0.25875016494175657
4184737 -0.9664429926172562 0.2588692067479807
4185589 -0.9664193183194553 0.25832928381701736
4186441 -0.9670289681980069 0.2587066253728795
4187293 -0.9667269926193858 0.25861714093084043
4188144 -0.9664984367438124 0.25832631437685677
4188996 -0.9672470789319468 0.25869090189555616
4189848 -0.9673368794073782 0.25846155642275387
4190700 -0.9667754074740665 0.25855127831442204
4191552 -0.9658987292730193 0.2588117905518461
4192403 -0.9667350328131371 0.2592416476741535
4193255 -0.9668323979564745 0.25918192607989465
4194107 -0.9665661962832595 0.25904191226491635
4194959 -0.9665154246958502 0.2592489895474987
4195810 -0.9658844885752946 0.25884673634539945
4196662 -0.9664710068086386 0.25825214629115534
4197514 -0.9670088058584274 0.25858906228396067
4198366 -0.966807359831963 0.25912017199616344
4199218 -0.9667870438307524 0.25923433505634935
4200069 -0.9666956635590539 0.2593827391573528
4200921 -0.9667305113320969 0.25988284640455034
4201773 -0.9666069979627692 0.25980753905395604
4202625 -0.9663673465266711 0.2600354728588533
4203477 -0.9655504556995964 0.26053672444382103
4203477 -0.9660243923440383 0.25982575022458154
4204346 -0.9666461489069462 0.25944710595065335
4205215 -0.9659806413504134 0.25918275611967684
4206085 -0.9658621404174166 0.25881142310336464
4206954 -0.9664017036343993 0.2588262431648854
4207823 -0.966974369764678 0.25932509882859883
4208693 -0.9670133932196944 0.258945959703092
4209562 -0.9670928742614183 0.2595752270735599
4210432 -0.9666998044071212 0.25982483266971246
4211301 -0.9667781728723576 0.2602324586210504
4212170 -0.966363708920043 0.26072424237441527
4213040 -0.9660340156600804 0.2608170154837145
4213909 -0.9660532435446973 0.26041414359066706
4214779 -0.9660491004505232 0.260940613260542
4215648 -0.9659260993116862 0.260291186328268
4216517 -0.9664164254148339 0.26013000962164035
4217387 -0.9660577266376603 0.2603681442839219
4218256 -0.9661792171694028 0.25962708289762154
4219126 -0.9658565362581661 0.2597226968221951
4219995 -0.9663739061764087 0.2598756759205335
4220864 -0.9669998197549434 0.2596601873756967
4221734 -0.966645307275892 0.26030978076631345
4222603 -0.9667279813269787 0.2612164003687989
4223472 -0.9667912082215848 0.26142629880800855
4224342 -0.9662467101473469 0.26135630348114514
4225211 -0.9661962922508847 0.2616023932709117
4226081 -0.9663346543137755 0.2618980706587843
4226950 -0.9654960947103957 0.2614327365495594
4227819 -0.9655945766088064 0.2615375931466539
4228689 -0.9661284974856852 0.26091799458963544
4229558 -0.9659138836195574 0.2608606565941761
4230428 -0.9657664664361194 0.2605962660798199
4231297 -0.9662727204050507 0.2602829461956407
4232166 -0.9657951104196894 0.26050523707985057
4233036 -0.9660600423885336 0.2604778209523918
4233905 -0.9669382374696893 0.2606622047679323
4234775 -0.966878448127027 0.2610137208855916
4235644 -0.9662624692760231 0.2614407912863232
4236513 -0.9662231217633053 0.2617956364011827
4237383 -0.9662154535616405 0.26274519657655965
4238252 -0.9661675274570144 0.26231992860023473
4239121 -0.9654468410831383 0.2621628148298079
4239991 -0.9656195789617984 0.2623308415356304
4240860 -0.9654637647608458 0.26195783864589567
4241730 -0.9660479137200758 0.26144873083784514
4242599 -0.9653138596667097 0.26134498369949327
4243468 -0.9660745190528155 0.26141492894572615
4244338 -0.9665668105755859 0.26159596087270254
4245207 -0.9660480098308125 0.26221170557906376
4246077 -0.96586429446392 0.2626589653158001
4246946 -0.9661407258267363 0.26141140554739545
4247815 -0.9663336155416953 0.26186697060998276
4248685 -0.965870961101692 0.26203206064791695
4249554 -0.9659035682184296 0.2622769532063063
4250424 -0.9659040829964745 0.2614945200588045
4251293 -0.9664056996354982 0.2620135755244759
4252162 -0.9663511529866444 0.26273521335054334
4253032 -0.9657758895273825 0.26313390212163923
4253901 -0.9659778394601356 0.26316357852412453
4254771 -0.9654125280658651 0.26291292287259854
4255640 -0.9655696277728177 0.26297125538340327
4256509 -0.9660795512737071 0.26305183382227854
4257379 -0.9653779645707209 0.26229031233944494
4258248 -0.9655261800428515 0.2625314166418312
4259117 -0.9652739429251921 0.26240965585535464
4259987 -0.9658393999848093 0.2621102655638261
4260856 -0.9657534164345144 0.2627764454360042
4261726 -0.9659346928286675 0.26264512042986216
4262595 -0.965445684706298 0.2626209192191257
4263464 -0.9658633513691947 0.26281284621976186
4264334 -0.9660471695103418 0.263553757888404
4265203 -0.9657710106032609 0.2635391691105978
4266073 -0.9655415201576798 0.264084567089774
4266942 -0.9652007079010839 0.26409467756986976
4267811 -0.9654394968577902 0.2637551511221875
4268681 -0.9655510693201472 0.26444056800668925
4269550 -0.9652576458452314 0.26350287327327093
4270420 -0.9654449143342674 0.26334298684977275
4271289 -0.96509727215579 0.26283129621091195
4272158 -0.9657265153311864 0.2628483572889088
4273028 -0.9652768852959259 0.2635102919947035
4273897 -0.9650889805759604 0.2638405226334154
4274766 -0.9657083293962807 0.2635830435032559
4275636 -0.966077005796016 0.2633693090984631
4276505 -0.965455451090349 0.26427879017716566
4277375 -0.9656892510982699 0.26439162136969613
4278244 -0.965314964827761 0.2642280431943781
4279113 -0.9647075670394647 0.26428333062128717
4279983 -0.9652411028944362 0.26473052592212637
4280852 -0.965267288318003 0.26468938893923655
4281722 -0.9648457343405581 0.26430482161523944
4282591 -0.9650357665697864 0.26378611819299086
4283460 -0.9650316613603309 0.26370582318065416
4284330 -0.9648263782959745 0.26366710677679017
4285199 -0.9653281306921694 0.2637277989956382
4286069 -0.9653261953993713 0.2637088968001333
4286938 -0.9653956733337459 0.26398056530680003
4287807 -0.9652112696958387 0.26414809120770427
4288677 -0.9652430328651168 0.26495191002254503
4289546 -0.9657058488242706 0.2653732810540669
4290416 -0.96503880511815 0.2653928061814531
4290416 -0.9652186401585802 0.2646699182345018
4291303 -0.9656454828706764 0.2651694567706901
4292190 -0.9650285473943747 0.26503469373096217
4293078 -0.9651397077111293 0.26494096008645385
4293965 -0.9649373880405501 0.26474707584726637
4294852 -0.9648744917969541 0.26453761695633754
4295740 -0.9647308352147825 0.26411514230455185
4296627 -0.9650748396704414 0.26486521450063655
4297514 -0.9651912009675417 0.2644400800163435
4298402 -0.9650126970019972 0.2652991628114204
4299289 -0.9651040044259475 0.2649091015043185
4300177 -0.9651784309120246 0.26491323863257377
4301064 -0.9653740034715249 0.2647999745924907
4301951 -0.9656283114151131 0.26463332607208756
4302839 -0.9652270473214827 0.2653087789254039
4303726 -0.9650722063196309 0.26517173260963073
4304613 -0.9653311410971777 0.2658619797838281
4305501 -0.9655240469225366 0.26582173927439845
4306388 -0.9647395787158725 0.266157375335037
4307276 -0.96467562613232 0.2660624296654004
4308163 -0.9646543281551699 0.26576521086201027
4309050 -0.9650984240505542 0.2668676367587028
4309938 -0.964745903842741 0.26653397195180556
4310825 -0.9645940547050095 0.2664535846494261
4311712 -0.9644468642348382 0.2661098440939844
4312600 -0.964113242832193 0.26534260150660094
4313487 -0.9648472504158574 0.2653248150717497
4314374 -0.9650217628768378 0.2659499786592177
4315262 -0.9645820722116153 0.265670228972082
4316149 -0.9648999823854673 0.2656709460157994
4317037 -0.9642877592470463 0.26612906187244245
4317924 -0.9648964261892001 0.2657220647720972
4318811 -0.9651314576828811 0.26564709158660677
4319699 -0.965373161329314 0.26628627641081287
4320586 -0.9651721236051292 0.2662981738675763
4321473 -0.964939078138704 0.2664159280475451
4322361 -0.9651064915556217 0.2672007683188309
4323248 -0.9644996423963311 0.26685258447085924
4324136 -0.9645426131942503 0.2673072183448406
4325023 -0.9649316314452516 0.2673537344294848
4325910 -0.9646523733110153 0.2674591496036488
4326798 -0.9641461072529572 0.2677418222914592
4327685 -0.9642862870573461 0.26739366125091174
4328572 -0.9640042667827619 0.26705426220710743
4329460 -0.9639707279544075 0.2664341962074553
4330347 -0.9638396540444428 0.26743573544744853
4331235 -0.9644199609778942 0.26690339576494326
4332122 -0.9642633074271427 0.26713100548707064
4333009 -0.9639728498984763 0.2678783463575739
4333897 -0.9642587175831228 0.26761295055341555
4334784 -0.9646191732883258 0.26770537935421906
4335671 -0.964226057252408 0.2675984206368874
4336559 -0.9640206364293227 0.267909955486031
4337446 -0.9645283948169082 0.26745545306939106
4338333 -0.9637556322311464 0.26680057408008334
4339221 -0.9640462547537451 0.26669847952362613
4340108 -0.9643621776587709 0.26728988182970126
4340996 -0.9640086184369414 0.2672144681121033
4341883 -0.9644722915130108 0.267291188601437
4342770 -0.9643768508762218 0.26743020966378733
4343658 -0.9645624616071321 0.2675691679359609
4344545 -0.9643361245308679 0.267032658892879
4345432 -0.9647327061467723 0.26729067010369656
4346320 -0.9645009010381806 0.2679785570305054
4347207 -0.9643209003000518 0.2674456363753174
4348095 -0.9645802480727683 0.26810607783844337
4348982 -0.9648145383674392 0.26836131392839646
4349869 -0.9638001695889247 0.2683415574847065
4350757 -0.9643101654872814 0.26869054396365105
4351644 -0.9648527139421272 0.26882033681653683
4352531 -0.9644048526276637 0.26925403814979754
4353419 -0.9644084671318566 0.2690393987720825
4354306 -0.9638536857373593 0.2693062544852098
4355194 -0.9636856556282338 0.2694417915859327
4356081 -0.963521590064504 0.26846087242061556
4356968 -0.96337904058622 0.26800178383322754
4357856 -0.9633463595402489 0.26883302130808256
4358743 -0.9634248643573803 0.2691627731327399
4359630 -0.9639444068935733 0.26834078610902456
4360518 -0.9640698748447025 0.268443582791582
4361405 -0.9645265440133229 0.2676032839436234
4362292 -0.9640960489756538 0.2679799001012547
4363180 -0.9645340010665024 0.26767701345555206
4364067 -0.964414628075071 0.2677529366493341
4364955 -0.9644458256289485 0.2683297970118913
4365842 -0.9642636742938656 0.2686764960696638
4366729 -0.9638100176157354 0.2687312332721887
4367617 -0.9644471614492264 0.26914592269680937
4368504 -0.9640675980118545 0.269008105723425
4369391 -0.9637979304771728 0.26883672832622446
4370279 -0.9644396099153882 0.27041633751675326
4371166 -0.9637209565772972 0.26996555774198605
4372054 -0.963454088836269 0.2695242253234474
4372941 -0.9633820036772592 0.2696769878651776
4373828 -0.9630316813683392 0.26943243823516605
4374716 -0.963551148490386 0.269806886902639
4375603 -0.963219437363328 0.26974851503068387
4376490 -0.9636074215486857 0.27056628992322235
4377378 -0.9637180335750875 0.2701088670081006
4378265 -0.9636470818147443 0.2697302997547353
4379153 -0.9639537986380863 0.27022466585900273
4379153 -0.9636649633623391 0.2704889264398753
4380058 -0.9640139509724854 0.2702186757405991
4380964 -0.9636292981686132 0.27017190121641976
4381870 -0.9638720674264716 0.27016181921818555
4382775 -0.9635249848700967 0.2703026079114909
4383681 -0.9638198284439925 0.2708863257550165
4384587 -0.9639706708346354 0.2707498522564384
4385493 -0.9633129445394684 0.27040743598717876
4386398 -0.9630651285778029 0.2704767097079046
4387304 -0.9639072625198538 0.27072907725319045
4388210 -0.9641142541249363 0.27079398507609276
4389116 -0.9635658961387444 0.2710742457047719
4390021 -0.9631834344961687 0.27123018429327617
4390927 -0.9636687630785717 0.27069858110581585
4391833 -0.9638576855507197 0.27081207850438604
4392738 -0.9632474681720355 0.27033156641978007
4393644 -0.9633111971956129 0.2701555111456813
4394550 -0.9633825514028193 0.2708080387757126
4395456 -0.9633013425800193 0.2707019711167451
4396361 -0.9633779133205946 0.2703137149548608
4397267 -0.9628879881610211 0.270627998220876
4398173 -0.962626761500718 0.27035848976656857
4399079 -0.9628487520386048 0.27027475904255954
4399984 -0.9628987331936867 0.27108086978401796
4400890 -0.9631053828367845 0.27114189194625476
4401796 -0.963206653781735 0.27109547585113464
4402701 -0.9631666030956728 0.2711491219275817
4403607 -0.9633707858382276 0.27130864325584664
4404513 -0.9632452604964094 0.2721700049318967
4405419 -0.9631887922170875 0.2721065089667885
4406324 -0.9635736329729109 0.27192480549980874
4407230 -0.963363220668177 0.2718795306409745
4408136 -0.9632212464130586 0.27204168964718045
4409042 -0.9632877019542764 0.27193213750251594
4409947 -0.9633743323687881 0.2716284491949749
4410853 -0.9637462662342371 0.27147861369358356
4411759 -0.9630899675199438 0.2713415252408629
4412665 -0.9629903762738031 0.2712034261266238
4413570 -0.9632281645922096 0.271734479164885
4414476 -0.9631986100507528 0.2712081483338452
4415382 -0.9631222868758381 0.2714543091303335
4416287 -0.9629656743970149 0.27167839271171024
4417193 -0.9635499465853541 0.27204874900506276
4418099 -0.9635183229612649 0.2716706599535496
4419005 -0.9629859940541288 0.27143601619753027
4419910 -0.9632097696598807 0.27187225190069025
4420816 -0.9625481782103534 0.2725403240970387
4421722 -0.9628527227434807 0.27233110785364983
4422628 -0.9628859143906727 0.2727508231121932
4423533 -0.9632689846406152 0.2719252877923984
4424439 -0.9627157678797337 0.27169003572110484
4425345 -0.9632816327736952 0.27164912558024557
4426250 -0.963393427503122 0.2726106381740327
4427156 -0.9631878804110086 0.27244646561635644
4428062 -0.9630603822658151 0.2730260728270224
4428968 -0.9634240867633511 0.27257124880919015
4429873 -0.963380214558345 0.2728265309654529
4430779 -0.9633267137754141 0.273034647847232
4431685 -0.9631885174810448 0.273197276651365
4432591 -0.9633397173956888 0.2734494230210664
4433496 -0.963281531887679 0.27308468531006147
4434402 -0.9624338532213287 0.27318778371475516
4435308 -0.9629916772794221 0.2733460479432291
4436213 -0.9631052537917345 0.27327025960866214
4437119 -0.962657273795444 0.2731394146037351
4438025 -0.9625386159513877 0.2736679168749978
4438931 -0.9627161407643405 0.2736739580238754
4439836 -0.9631782927538041 0.27388569768118926
4440742 -0.96333729179468 0.2742756078013564
4441648 -0.9628315356987494 0.2736364987550308
4442554 -0.962345164425171 0.27350324585327396
4443459 -0.9624174836550276 0.2736104482305316
4444365 -0.9620988653889057 0.2735730265620437
4445271 -0.9625421961952715 0.2727922499505572
4446177 -0.9616424443180198 0.273483123522145
4447082 -0.9626189837765147 0.2735164740946783
4447988 -0.9622204723008938 0.2733292879581742
4448894 -0.9621437325692339 0.2738629886691823
4449799 -0.9626844597259714 0.27389768221793803
4450705 -0.9624711023670757 0.2739708925339458
4451611 -0.9623440852036722 0.27428755314903497
4452517 -0.9622893986386432 0.27411329006079305
4453422 -0.9627399812160249 0.2741374107067824
4454328 -0.962394106548202 0.2745096517043149
4455234 -0.9626999690954157 0.2742256934481766
4456140 -0.9626083116835255 0.27436174169205096
4457045 -0.9623960205746422 0.2743625804270077
4457951 -0.9622854711754796 0.2744447403766502
4458857 -0.9629608806210598 0.27492835892938644
4459762 -0.9625264512309037 0.27467569497354005
4460668 -0.96297698310455 0.2749639084960367
4461574 -0.9625459516997035 0.2750329865663076
4462480 -0.9626166183197253 0.27532641403402663
4463385 -0.9621488202184458 0.27476247070301396
4464291 -0.9625762600210886 0.27516515093826266
4465197 -0.9622015416238793 0.2748018610503606
4466103 -0.9623779953335514 0.27465327504182374
4467008 -0.9626396913914101 0.2754893979980334
4467914 -0.9626262071038141 0.2751687455940024
4468820 -0.9626384713007627 0.27601204124044865
4469726 -0.9627446605314824 0.2745262330859696
4469726 -0.962843804827724 0.27516019077513304
4470650 -0.9625898722883344 0.2756659409163169
4471574 -0.9627895411797854 0.2758128867877535
4472499 -0.9630256738948001 0.2757226364240764
4473423 -0.9627748519296009 0.27562940970296923
4474348 -0.9627029893580472 0.2751359639399308
4475272 -0.9627039096772975 0.2758953659975607
4476197 -0.9627507613227199 0.2759698415317956
4477121 -0.9625850289176818 0.2761550788282282
4478046 -0.9625669385713779 0.27596606671964463
4478970 -0.9620829741915602 0.27621853423056175
4479895 -0.962108153977649 0.2758585885358203
4480819 -0.9618683597359099 0.2758673903237959
4481743 -0.9621588960055434 0.27600691846608644
4482668 -0.9623058769341236 0.27637885822021196
4483592 -0.9621958189985045 0.2764510277549523
4484517 -0.9626427704302976 0.27639422815555603
4485441 -0.9621482624689505 0.2762937125621947
4486366 -0.961525052335017 0.27619726091178637
4487290 -0.9621438944706951 0.2766827605615754
4488215 -0.9618885115245323 0.27596929916833535
4489139 -0.961797162267885 0.27644421443520817
4490064 -0.9619127302257993 0.2766626186025661
4490988 -0.9619456615577875 0.2768650883988472
4491913 -0.9620161421340204 0.27674908315469066
4492837 -0.9618102288908739 0.27681875409309226
4493761 -0.9620651292690877 0.27701179397959147
4494686 -0.9617747106393116 0.2773255035263963
4495610 -0.9620031692720018 0.2771060827937118
4496535 -0.9618919724066751 0.27688474259760487
4497459 -0.961573108957043 0.2774092941416489
4498384 -0.9618555654099916 0.27779231259581094
4499308 -0.96189598905038 0.277601365028472
4500233 -0.9612160705554286 0.2768495488384366
4501157 -0.9613860688711452 0.2771611424269693
4502082 -0.9613253915507559 0.2774270796945679
4503006 -0.9619887438657122 0.27710402375192184
4503931 -0.9615144693450028 0.2771863467155966
4504855 -0.9613293431242049 0.2775415416840868
4505779 -0.9609549016228021 0.27786858195623615
4506704 -0.9616230811690066 0.27733738606985747
4507628 -0.961571362087013 0.27743228757849353
4508553 -0.9607232570504469 0.27740342566915865
4509477 -0.9607590677189337 0.27788175940551474
4510402 -0.960864449760179 0.2776443928335504
4511326 -0.9617496913268366 0.2781806224399244
4512251 -0.9617262284045259 0.2782393017343236
4513175 -0.9617015884595713 0.27812158913054436
4514100 -0.9617386347103136 0.2784198525394127
4515024 -0.9616115768872974 0.27821466450293925
4515949 -0.9612534794467342 0.27789632633651173
4516873 -0.9612498477024225 0.27886502455903267
4517797 -0.9618557646579371 0.27890370448529767
4518722 -0.9616065235937519 0.27798038207530645
4519646 -0.9609904356247752 0.27837662777597794
4520571 -0.9613759406037067 0.2784636754375966
4521495 -0.9614152472633871 0.27862485849872387
4522420 -0.9611818746952268 0.2784451064526769
4523344 -0.9606512526741311 0.27900962999276796
4524269 -0.9606308866030423 0.27906146713499863
4525193 -0.9613501853576064 0.27820868242447994
4526118 -0.9611960261243622 0.2783163525705866
4527042 -0.9610060755866476 0.2779126326138929
4527966 -0.9610585535898913 0.27861418850459313
4528891 -0.961064438023297 0.278750626391686
4529815 -0.9605730778708863 0.2784595428489892
4530740 -0.9602444744153605 0.2785252159220218
4531664 -0.960190874273201 0.2790746672267545
4532589 -0.9607479612703141 0.2786602551953366
4533513 -0.9604937025243032 0.2787423019949482
4534438 -0.9600745243367754 0.2783321666188992
4535362 -0.9599379013121212 0.27835047804449936
4536287 -0.9603550513063017 0.2791046259792527
4537211 -0.9605510150383598 0.2785692463635998
4538136 -0.9610373559278839 0.2791175885116192
4539060 -0.9607933656828501 0.27909602109844195
4539984 -0.9607938975883578 0.2787303226696213
4540909 -0.9606916137996737 0.27898668781889857
4541833 -0.9599944274042299 0.27879911527704154
4542758 -0.9605863253671768 0.27927717791216045
4543682 -0.9610431026898021 0.2796760425212487
4544607 -0.9613250000875528 0.27970870959572197
4545531 -0.960869174610669 0.27960143224838435
4546456 -0.960918742756079 0.2794735849526888
4547380 -0.9609712515499146 0.2794609960843026
4548305 -0.9607976237898632 0.27976878007333267
4549229 -0.9605685767536549 0.27991104476571943
4550154 -0.960631365060197 0.27990486668403053
4551078 -0.9607282689835215 0.27999684804665453
4552002 -0.9609797258344184 0.2795844369703714
4552927 -0.9608008313134679 0.27967071231199186
4553851 -0.9604620215761164 0.2802934810769349
4554776 -0.9610574645419083 0.28013196915729177
4555700 -0.9613205281985898 0.2799085588124342
4556625 -0.9610345308942422 0.28005495055128604
4557549 -0.9603746073177312 0.2800435565976142
4558474 -0.9606671358749861 0.28042985498227624
4559398 -0.9604127430026207 0.27992660288135773
4560323 -0.9608793819174131 0.28051636767829774
4561247 -0.9603934599895055 0.28028322351667856
4562172 -0.961133439424943 0.28117974414158553
4562172 -0.9609013210808547 0.28125210783494436
4563115 -0.960948462270249 0.28080614098386897
4564059 -0.9610771280647153 0.28086453739548245
4565002 -0.9607845366535207 0.28089671016408646
4565946 -0.9615432687883675 0.2817510667376032
4566889 -0.9608345436585679 0.2817534886263115
4567833 -0.960573842785283 0.2815234089246287
4568777 -0.9607983443945797 0.28179983438031636
4569720 -0.9607737588172829 0.2820345518528294
4570664 -0.9605415640068695 0.28171573233940755
4571607 -0.9604127866373099 0.2816994248138195
4572551 -0.9606274658430128 0.2820457866410838
4573494 -0.9607618809934269 0.2823843856845051
4574438 -0.9608631661574467 0.2817232723005711
4575382 -0.9606110925512434 0.2816015511789787
4576325 -0.9608771063640463 0.2814735150594783
4577269 -0.960727216601294 0.28200118157723836
4578212 -0.9604138129914509 0.28166295399237395
4579156 -0.9604217314709397 0.2816167036902017
4580100 -0.9601913711783566 0.2824299140056678
4581043 -0.9603659514950611 0.2827238402576197
4581987 -0.9606957055579199 0.2819493501784036
4582930 -0.9597940531024473 0.2821787268928646
4583874 -0.9603862912517585 0.2819690569720856
4584817 -0.9603313471935763 0.2822649475254932
4585761 -0.9605274346295068 0.282038301159597
4586705 -0.9602440559490085 0.28198220156170956
4587648 -0.9609154019815029 0.28274875099926117
4588592 -0.9605402576330939 0.2824749906513238
4589535 -0.9610167830581058 0.2827279687170485
4590479 -0.9609539604108697 0.2820819430215796
4591422 -0.9611284644188172 0.28218400030169105
4592366 -0.960659980655912 0.28268184794462753
4593310 -0.960619196179157 0.28275046251034924
4594253 -0.9605603752279435 0.28259554778384766
4595197 -0.9604085521301022 0.282902166813663
4596140 -0.9605509798527848 0.2827736642345912
4597084 -0.9607180063847762 0.2824395779804873
4598028 -0.9603804557954281 0.28243190917240535
4598971 -0.9601323256674165 0.2825419729404318
4599915 -0.9605612356270922 0.2826440670719372
4600858 -0.9608432113618448 0.2824486941953516
4601802 -0.9603685207553785 0.28248496688159924
4602745 -0.9601710258061145 0.2832894916605481
4603689 -0.9602902044737556 0.28312611158319484
4604633 -0.9601255795069809 0.2831070772607107
4605576 -0.9598064307001477 0.2840207622651331
4606520 -0.9596995449373791 0.28461540703373117
4607463 -0.959977727350566 0.2843716697392664
4608407 -0.9595335929953085 0.28430637537247777
4609351 -0.9598245302221294 0.2839375998113862
4610294 -0.9595205558807905 0.2843180392867332
4611238 -0.959639716008086 0.28399438355673884
4612181 -0.9598143817327147 0.2837140115055963
4613125 -0.9594554694063996 0.2840756447556927
4614068 -0.9598122474053455 0.28453823506241877
4615012 -0.9601553495906225 0.2843163943441646
4615956 -0.9603817732795212 0.2840737218211008
4616899 -0.9600375341707648 0.2839957510149823
4617843 -0.9603802853500593 0.2843608448014044
4618786 -0.960295380048204 0.284718704947063
4619730 -0.9606336838028139 0.2844769189375513
4620673 -0.95952852409718 0.28447365735531266
4621617 -0.9601601841189152 0.28456824725455476
4622561 -0.960041932791167 0.284244949141091
4623504 -0.9597406742387761 0.2842319694759065
4624448 -0.9593832527939811 0.284090551645819
4625391 -0.9597499929456793 0.28465213846019816
4626335 -0.9598645015970406 0.2845647310866273
4627279 -0.9597594591317045 0.28453561826468887
4628222 -0.9594424297717166 0.2842780390555329
4629166 -0.9599042157148001 0.2845654606276425
4630109 -0.9599382966932157 0.28444996890453134
4631053 -0.9595369531954397 0.2851186741045656
4631996 -0.9593890766875155 0.28481827249183905
4632940 -0.9593326306199587 0.28540544399947065
4633884 -0.9593046623377746 0.28485515663402095
4634827 -0.9592991277496629 0.28530361946095273
4635771 -0.9593552631132769 0.2855990600340974
4636714 -0.9592210585120926 0.28600978648855946
4637658 -0.9591577267369275 0.2854831912350643
4638601 -0.9592158130482062 0.2847571631830927
4639545 -0.9589782265811762 0.28483485671707703
4640489 -0.9587457949521659 0.28510430889625105
4641432 -0.9586472325970367 0.2850744263020654
4642376 -0.9589817379769138 0.28519719813059763
4643319 -0.9586357191223289 0.2850450858223539
4644263 -0.9585413638388548 0.28561062459590336
4645207 -0.958432848993618 0.28550354810992795
4646150 -0.9586675950314234 0.28557942859133517
4647094 -0.9584449130023365 0.28587223391432426
4648037 -0.9584804648860231 0.2859588302946878
4648981 -0.9585640971930276 0.2858550434826036
4649924 -0.9586802770106563 0.2859072204812914
4650868 -0.95845494849421 0.28594406335890693
4651812 -0.9586052279024513 0.2859510043712436
4652755 -0.9590466619904066 0.28643618528318293
4653699 -0.9588018751700768 0.2860246489410694
4654642 -0.9586245173626085 0.28637113332632547
4655586 -0.9586852436072911 0.2864334965261378
4656530 -0.9592964886211403 0.2863712403577597
4656530 -0.9589885585001443 0.28664795748988603
4657493 -0.9586847127083068 0.2865097095537181
4658456 -0.9586773047106815 0.28722374748393265
4659419 -0.9593582909070393 0.2872745961701688
4660382 -0.9591618248790127 0.28721365834500356
4661345 -0.9591242921783051 0.28741877802643623
4662308 -0.959261610964096 0.28728842142499017
4663271 -0.958828170868745 0.28731609137687447
4664234 -0.9593558244676382 0.28714067987084546
4665197 -0.9592193009274148 0.28766210106727097
4666161 -0.9597772780872393 0.2867453919760435
4667124 -0.9598069854137767 0.28699847160586706
4668087 -0.959201714729878 0.28671376801585635
4669050 -0.9592998414361622 0.28719573303450757
4670013 -0.9590336420571026 0.2871545882020336
4670976 -0.9592487693553141 0.2877294405496161
4671939 -0.9584639607814119 0.2869303457402223
4672902 -0.9583492537477017 0.2872898495975305
4673865 -0.9586216051847108 0.2877623905899199
4674828 -0.958223177358017 0.287688650777522
4675792 -0.9580650552066003 0.2873002839581576
4676755 -0.9580393287673621 0.2875164319773938
4677718 -0.9581906329043105 0.28683447109189225
4678681 -0.9584277045310347 0.2874258508439781
4679644 -0.957393459249795 0.2877132714058183
4680607 -0.9574570916444298 0.28796390859056853
4681570 -0.9578625359223898 0.28832237139826483
4682533 -0.9574801401450541 0.28831766364200084
4683496 -0.9576440813192532 0.28833065675783814
4684459 -0.9576374213292483 0.28886110291503597
4685423 -0.9582756686854278 0.28897175925522695
4686386 -0.9579012122498083 0.2885205999990328
4687349 -0.9578902167199377 0.2886911128349298
4688312 -0.957857813682189 0.28913186588429624
4689275 -0.9580476325626403 0.28922777908298236
4690238 -0.9578447130168796 0.28899387034129465
4691201 -0.9584211194101678 0.2894042678624247
4692164 -0.9582081400908375 0.2892930180587622
4693127 -0.9583600868013851 0.2892804387663079
4694090 -0.9578945963020434 0.2884156412458499
4695054 -0.9582853680216703 0.28889264463870884
4696017 -0.9591825816322993 0.2894676831510212
4696980 -0.9593042010021153 0.28877733119074456
4697943 -0.9584909853291109 0.2887217047780239
4698906 -0.9586843081558322 0.28905152471893175
4699869 -0.9588844675822438 0.28893692262758774
4700832 -0.9591526629749919 0.2893844088921053
4701795 -0.9587188536018273 0.2887528758536352
4702758 -0.9582761790308324 0.2891928156794587
4703721 -0.9587031950552962 0.2891733293891958
4704685 -0.958106424508808 0.2894275794462618
4705648 -0.9578413374852877 0.28947515782501004
4706611 -0.9573619747393738 0.28946122018908355
4707574 -0.9578007724496808 0.28945703529688616
4708537 -0.9577280495018644 0.2897872431003178
4709500 -0.9576219931005697 0.2894592571654062
4710463 -0.9570145823335325 0.2896589470977548
4711426 -0.9574370494632732 0.2894127231085577
4712389 -0.9572934526920783 0.28953914244806644
4713352 -0.9571440482257559 0.28956952034282424
4714316 -0.9570473801768887 0.2890575419451884
4715279 -0.9569349115553185 0.2902589513835805
4716242 -0.9572049620958208 0.2899878635517628
4717205 -0.957082224330175 0.29015222777893585
4718168 -0.9570276447103402 0.2906318617554413
4719131 -0.9569750460085672 0.2907585562995736
4720094 -0.9565980031744141 0.2905911823216452
4721057 -0.9567753721394304 0.29048325080361104
4722020 -0.9573854975201976 0.29097365837210964
4722983 -0.9576549290405539 0.2910319756214401
4723947 -0.9575592752350991 0.2906916738129442
4724910 -0.9566979160275805 0.2911742349617683
4725873 -0.9573868571140718 0.2912283803170213
4726836 -0.9571673284256967 0.290712792085318
4727799 -0.9578832812407783 0.29139268128567497
4728762 -0.9578306585162096 0.29112533019160824
4729725 -0.9578458654941838 0.291385476528735
4730688 -0.957917887215147 0.2913865238612188
4731651 -0.9579084261663658 0.2908931011983901
4732614 -0.95776603704692 0.29063514637132937
4733578 -0.9583767426385157 0.29121274902111566
4734541 -0.9583901706142204 0.2912088496595284
4735504 -0.958010270927382 0.2908282409305066
4736467 -0.957595196492282 0.29069478862161524
4737430 -0.9578180407912184 0.29124049331075375
4738393 -0.957810590176801 0.29101632325103205
4739356 -0.9574238811376381 0.2906139417913451
4740319 -0.9575064723601897 0.2906534478969124
4741282 -0.9573795818300173 0.2913312807369837
4742245 -0.957389710265524 0.2917536560878477
4743209 -0.9570675320927206 0.2911613266560482
4744172 -0.9565407058422013 0.29102510322484615
4745135 -0.9569709478156143 0.29124057857012053
4746098 -0.9569247689364313 0.29123550207953924
4747061 -0.956585366627173 0.29111118499932115
4748024 -0.9558435482571437 0.2916211789129415
4748987 -0.9566683882506727 0.2913104204120635
4749950 -0.956366976002539 0.29196377742672697
4750913 -0.9561189539947804 0.29231673858128226
4751876 -0.9564464415369816 0.29240552799990305
4752840 -0.95660205085278 0.2926151831663133
4752840 -0.9569512864994317 0.2922808053520694
4753823 -0.9568108502590001 0.2928612221548317
4754806 -0.9565557597308789 0.2926280999459053
4755789 -0.9563014841865289 0.2931428707292762
4756772 -0.9573761956800884 0.2929807432549359
4757755 -0.9577659696662681 0.29266512344257634
4758738 -0.9577042561780563 0.29289604624845533
4759721 -0.9581764487663332 0.2923711052998336
4760704 -0.9579100340605718 0.29290748027305985
4761687 -0.9573609409043178 0.29220971582097116
4762670 -0.9573145920871485 0.29216723546646706
4763653 -0.9571473604954355 0.29295439294914005
4764636 -0.9566140445819723 0.29200350422362076
4765619 -0.9560798801850408 0.29204186872651805
4766602 -0.9565215961873733 0.2923178927889326
4767585 -0.9563649536659085 0.2928516314322393
4768568 -0.9565068728998144 0.29308452028864396
4769551 -0.9563826557144776 0.2931017955743284
4770534 -0.9560184130814221 0.2937867532664251
4771517 -0.9565048381566218 0.2937303894893869
4772500 -0.9559223903476497 0.29340653246647524
4773483 -0.9561071582121686 0.29366171405636865
4774466 -0.9561418854126927 0.2939740717690257
4775449 -0.9575050798449772 0.29425455783687443
4776432 -0.956772270693424 0.29412388719161925
4777415 -0.9575348857098528 0.29472661829188584
4778398 -0.9572522660260955 0.29360242963826466
4779381 -0.9576798163509266 0.2936225972246045
4780364 -0.9568018941585973 0.293508193006507
4781347 -0.95707038064661 0.2933740701451509
4782330 -0.9565729467284514 0.29424033755603046
4783313 -0.9557167341770438 0.2934771036460177
4784296 -0.9560601946630061 0.2930027691286457
4785279 -0.956000886300606 0.29352636938398674
4786262 -0.956395591276289 0.2942074746856515
4787245 -0.9557936943016394 0.29412475715908376
4788228 -0.9561040262845764 0.2948235889507123
4789211 -0.9558496279800415 0.2951605869884352
4790194 -0.9559358011426345 0.2949819295614682
4791177 -0.9559635102311613 0.29479275836227964
4792160 -0.9562748943524622 0.2948795716772334
4793143 -0.9561079477695257 0.29531378396648095
4794126 -0.9566828013775341 0.2951924515064995
4795109 -0.9570857885735271 0.2951608508519601
4796092 -0.9572373672043186 0.29531155081943794
4797075 -0.956072683880909 0.2943292057252526
4798058 -0.9569328551163787 0.2945535135149626
4799041 -0.9560024287895106 0.29471077433262055
4800024 -0.9557589058831331 0.29476569299557576
4801007 -0.9558072464557721 0.2951435555326576
4801991 -0.9558979134671183 0.29498515853063195
4802974 -0.9558621942292191 0.294820487974766
4803957 -0.9557349971481376 0.29568737960840513
4804940 -0.9561318227530025 0.29592826204282113
4805923 -0.9554272996700706 0.29580860213750204
4806906 -0.9560073200765165 0.2965112959846669
4807889 -0.9566679628315037 0.29620137783368544
4808872 -0.9569147564471016 0.29547321795094916
4809855 -0.9570576833480637 0.29592548309519096
4810838 -0.9570841455817146 0.2957850585385764
4811821 -0.9562041196975842 0.29558513852511686
4812804 -0.9565116272969847 0.2954639289380918
4813787 -0.9558714259753508 0.2959272991119979
4814770 -0.9553701129246613 0.2958675889544141
4815753 -0.9554531222530097 0.29566038765060104
4816736 -0.9551290651054813 0.29596047589989577
4817719 -0.9553563692667372 0.29650578758765883
4818702 -0.9553597265459932 0.2969043659174873
4819685 -0.9556590893496678 0.2972701614551137
4820668 -0.9556148951963063 0.29761536506106556
4821651 -0.955392891500989 0.296442369929264
4822634 -0.9560495082826044 0.29682263386871777
4823617 -0.9560012031264213 0.29628941055220964
4824600 -0.956155022404897 0.2970100525206776
4825583 -0.9558771488812418 0.2969011225110793
4826566 -0.9557350626538453 0.29697966294256173
4827549 -0.956093017102941 0.2965787175666279
4828532 -0.9555509444212992 0.2966199561778292
4829515 -0.9561076750921661 0.2969738256830241
4830498 -0.9558639778066059 0.2972891313078453
4831481 -0.9552526896261674 0.29763671570981615
4832464 -0.9551253096856929 0.2984860481752297
4833447 -0.9552202214597598 0.29740246197876447
4834430 -0.9551523366950705 0.29763464285210717
4835413 -0.9550815805220367 0.2973853593382526
4836396 -0.955481606019017 0.2976776203575077
4837379 -0.9557127030614772 0.2975865183164012
4838362 -0.956077768745703 0.2975309670109421
4839345 -0.9553239281676801 0.29756591662898835
4840328 -0.9550814531198686 0.29768018956104747
4841311 -0.9550501446623857 0.2979349727590793
4842294 -0.954960956429026 0.2975708534277276
4843277 -0.9546434690816002 0.29803259154944584
4844260 -0.955277186106532 0.29844805563792054
4845243 -0.9555377784947456 0.29887336897860356
4846226 -0.955674269073811 0.29902430346438874
4847209 -0.9556970332525864 0.29888361813636805
4848192 -0.955972936487346 0.29913932169555846
4849175 -0.956073346664905 0.2989191578225585
4850158 -0.955763552798987 0.2988422965682579
4851142 -0.9560423363654009 0.29952689227067497
4851142 -0.9557248206442779 0.2988937480552499
4852145 -0.9551363890544639 0.2984641556537917
4853148 -0.9554754775893921 0.2988380376444216
4854152 -0.9548296803572197 0.2992844228858072
4855155 -0.9543348874795137 0.2987377767272317
4856158 -0.9540019905697902 0.29910685874002574
4857162 -0.9547475079829578 0.29948425499064313
4858165 -0.955202839679269 0.29943840344397205
4859168 -0.9550371386909247 0.2990812804254102
4860172 -0.9548901292112232 0.29949057494119297
4861175 -0.9556465752558075 0.2990588906669301
4862178 -0.9550041388642655 0.29929582711293384
4863182 -0.9557868789319808 0.2994029734906154
4864185 -0.9551958691227965 0.2994994433474754
4865188 -0.9554728874899865 0.2995767510353183
4866192 -0.9550765056852457 0.2992887077274493
4867195 -0.9539518502805023 0.2998789618868501
4868198 -0.9537669530284777 0.2995357266040842
4869202 -0.9541035994037868 0.2993676564584027
4870205 -0.9543483520339624 0.3003238257180597
4871208 -0.9542928589382836 0.30066150540687964
4872212 -0.9544326838303604 0.3004528625719395
4873215 -0.9550655857955278 0.2998583547128874
4874218 -0.955038730674208 0.2998532488408447
4875222 -0.9560774588684725 0.3005297108962529
4876225 -0.9552950167109068 0.2993683731050995
4877228 -0.9550224782560972 0.29968543223367455
4878232 -0.9547186446209244 0.30052205795235204
4879235 -0.9543755792831355 0.29965500979188003
4880238 -0.9544097883917301 0.2999867068787651
4881242 -0.954152637386306 0.3003818687145521
4882245 -0.9541634254515263 0.301555946757586
4883248 -0.9535706918303914 0.3013346304736191
4884252 -0.9542665759198008 0.3012345729979529
4885255 -0.9542111836593132 0.30150377597700984
4886258 -0.9545945784762213 0.30151677889422795
4887262 -0.9558060155264335 0.30152817105170193
4888265 -0.9557087836410574 0.3011002719360616
4889268 -0.9550907162121492 0.3010964249643746
4890272 -0.9551198050659343 0.30089975568622335
4891275 -0.9543236019099391 0.30046310211933136
4892278 -0.9537893845198238 0.30112545381751477
4893282 -0.9538956873837727 0.30125469786156917
4894285 -0.9546291503307079 0.30203686869299523
4895288 -0.9550412371096624 0.3006382482730899
4896292 -0.9540949720235578 0.3011760158242501
4897295 -0.954215261608754 0.3006162410411653
4898298 -0.954006837582506 0.3015381909695108
4899302 -0.9541627872313893 0.3012980269373531
4900305 -0.9542557842663993 0.30210588092805024
4901309 -0.9536008443897283 0.30292181396226286
4902312 -0.9545870217860378 0.30281647182101795
4903315 -0.9530051757193823 0.30242686913333594
4904319 -0.9538203004810077 0.3027891979256082
4905322 -0.9538562432872297 0.3031099579799658
4906325 -0.9536191908829763 0.30298291605109023
4907329 -0.9540395483890034 0.30220585659485333
4908332 -0.9539642279223021 0.3023227849953305
4909335 -0.9545242078434772 0.301755336609445
4910339 -0.9549892276900229 0.3021163586159427
4911342 -0.9539484557050546 0.301562819754619
4912345 -0.9543518360445704 0.3024781347853141
4913349 -0.954036680226771 0.30261488093249317
4914352 -0.9536890122373326 0.3024795388719338
4915355 -0.9531932909900936 0.3025814925732991
4916359 -0.9530977608497678 0.303118637363716
4917362 -0.9537885906114656 0.303674728592788
4918365 -0.953760277839731 0.30369161040897696
4919369 -0.9538001531547977 0.30370968280946636
4920372 -0.9535673165158234 0.30314288080040164
4921375 -0.9539271674102971 0.30325795546175066
4922379 -0.953595019362152 0.3032895312121802
4923382 -0.9543674570782025 0.3032229126534296
4924385 -0.9545808706910353 0.3033690633069471
4925389 -0.9539809119873219 0.3029613906460027
4926392 -0.953587094382418 0.3029190693474276
4927395 -0.9533769595327264 0.303084563167488
4928399 -0.953453380810655 0.30323504010118385
4929402 -0.9529006423933749 0.30340129895990414
4930405 -0.952763091932888 0.3038799863450733
4931409 -0.9530421050455308 0.30454710152987075
4932412 -0.9534137165152136 0.3042479177929459
4933415 -0.9532282784508258 0.30400053877253536
4934419 -0.9535068817699957 0.3033961506774394
4935422 -0.9537275690332081 0.30419134037155626
4936425 -0.954355835295612 0.3041751471873859
4937429 -0.95399604394493 0.3038306170252315
4938432 -0.9535348320214788 0.3035089648979641
4939435 -0.9540871095101892 0.30393258905988974
4940439 -0.9535715042790168 0.3043085536993182
4941442 -0.9528698744108381 0.30388652837766206
4942445 -0.9530316455628147 0.30438605200765534
4943449 -0.9525364657547849 0.3048035362982114
4944452 -0.953226805502313 0.304973476639486
4945455 -0.9538355408595682 0.304997580423487
4946459 -0.9530620982637108 0.30544223456809794
4947462 -0.9530749465925659 0.3048417187474823
4948465 -0.953931116949832 0.3047498217045246
4949469 -0.9531159166020394 0.3047810258849855
4950472 -0.9540368950306042 0.30494259705706456
4951476 -0.9534460963511424 0.3047617476821057
4951476 -0.952707149605799 0.305241426436835
4952500 -0.9524654725623565 0.30567835206089045
4953524 -0.9529791771465104 0.30562370360329977
4954548 -0.9530577693659374 0.3053017638542081
4955572 -0.953536382536947 0.304893655254114
4956596 -0.9534872651976632 0.305049871905146
4957620 -0.9531993611899805 0.3048572814402407
4958644 -0.9530119022849971 0.3042742519525078
4959668 -0.9534818717957287 0.30470700494881997
4960692 -0.9536761156969643 0.3055887244676826
4961717 -0.9533349091116815 0.3061758834180604
4962741 -0.9524036550209033 0.3061093175658383
4963765 -0.952453457320712 0.30597942856151844
4964789 -0.9528706993827959 0.30600740676495475
4965813 -0.9531098684064119 0.3064983839059286
4966837 -0.9534713689974542 0.3056871754895566
4967861 -0.9528255537678783 0.30535509978612124
4968885 -0.9531385032362705 0.30535733829628475
4969909 -0.9526857961906047 0.3047374658657087
4970933 -0.9528341859985938 0.30587368274169524
4971958 -0.9526604823858822 0.306212890385452
4972982 -0.9528818478066563 0.3070350657802078
4974006 -0.9524245555745244 0.30635007481705206
4975030 -0.9524741095644056 0.307304730383108
4976054 -0.9526490690725483 0.30727611715671355
4977078 -0.9534733381093531 0.30666894402013056
4978102 -0.9534853807066644 0.30643782423414856
4979126 -0.9524731266000981 0.30575410198312863
4980150 -0.9527900374173058 0.30557323878343307
4981174 -0.9528764372889347 0.3057363181255918
4982199 -0.9533434582158904 0.30659764469492273
4983223 -0.9531071197090267 0.30711506010690215
4984247 -0.9525197459197566 0.3077461293962597
4985271 -0.9517589565272937 0.3067309332629004
4986295 -0.9519861463611743 0.30718760063664186
4987319 -0.9529370474784832 0.307437086675305
4988343 -0.9532523776352534 0.3067687497603205
4989367 -0.9527076883771063 0.3069391490610106
4990391 -0.9527010437825485 0.306559570590352
4991415 -0.9522679629610497 0.3065463819499984
4992440 -0.9528051522976579 0.30642336199966214
4993464 -0.9522159503203371 0.30695200411874873
4994488 -0.9525015388051982 0.307631601026346
4995512 -0.9520134607024658 0.3075039197518868
4996536 -0.9520156098082642 0.30756340911006
4997560 -0.9523184174287525 0.308349060118347
4998584 -0.9526357723378681 0.30740665065801653
4999608 -0.9529558547342305 0.3072561902949985
5000632 -0.9530118372026251 0.30710066575993344
5001656 -0.9524345381272338 0.3081659327832918
5002681 -0.9516329687384838 0.3079218947273584
5003705 -0.9522173945643007 0.3081482161784783
5004729 -0.9521090024217703 0.3083273343616726
5005753 -0.9521631403889793 0.30843823491206324
5006777 -0.9526228788632257 0.3085190366150802
5007801 -0.9522389479596789 0.308125740579968
5008825 -0.9525297129767898 0.3077484549253097
5009849 -0.9532200897078676 0.30744831641303094
5010873 -0.9526860705218401 0.30817053101720016
5011897 -0.952493002398574 0.30802001926269507
5012922 -0.9514257567699652 0.3083210505982437
5013946 -0.951542153946249 0.3085594937361196
5014970 -0.9520260281970483 0.3088345389198878
5015994 -0.9522747591554439 0.3086449725541237
5017018 -0.952417694654252 0.3087044000676074
5018042 -0.9524947112047836 0.3084415462681372
5019066 -0.9522182858239172 0.308238376449686
5020090 -0.95262394972212 0.3078667567487977
5021114 -0.9522503046300244 0.3081505433036516
5022138 -0.9529407448404883 0.30880768198009
5023163 -0.9520488239171212 0.30852166871562087
5024187 -0.9510994227910685 0.3090522189815905
5025211 -0.9515999837511094 0.30932880168568705
5026235 -0.9514568586239507 0.3095665208681591
5027259 -0.9518151145059982 0.30995720883566674
5028283 -0.952331683851937 0.3089889517108519
5029307 -0.9517701020471138 0.30884943630168576
5030331 -0.9516912235044782 0.3084821272443404
5031355 -0.9520258326679513 0.30850112611774594
5032379 -0.9523323722413677 0.3090801526762443
5033404 -0.9520065640653537 0.30933658247020807
5034428 -0.9516410800139843 0.3095779182368358
5035452 -0.9512908817995147 0.31030768646024787
5036476 -0.9514101004095749 0.3102505793745671
5037500 -0.9515988556892355 0.31010323006098695
5038524 -0.9524377921501435 0.30951354699889755
5039548 -0.9522195106510459 0.3096345385462947
5040572 -0.9518893966048396 0.30886074383087353
5041596 -0.9521581931720559 0.3087498593075661
5042620 -0.9518069919580275 0.309298184549651
5043645 -0.951918874478892 0.3101777585805141
5044669 -0.9516484354190969 0.31081095042751977
5045693 -0.9514698198131268 0.3105337223361868
5046717 -0.9514581927176545 0.31098770914518103
5047741 -0.9514751829252494 0.3109344284402028
5048765 -0.9523555203315445 0.31022089702231403
5049789 -0.951587770681876 0.3097155144018847
5050813 -0.951516480628645 0.30988195902534704
5051837 -0.9518299378033118 0.30928852750657
5052861 -0.9515534147923657 0.30949949391471526
5053886 -0.9514051714459609 0.30993618989146215
5053886 -0.9523323326328367 0.3105026648965066
5054931 -0.9520953922229882 0.31037829791110366
5055976 -0.9512917376862116 0.30953147288595484
5057021 -0.9520222001484218 0.309947186544347
5058067 -0.9520772470712772 0.31136626038522813
5059112 -0.9511479441862938 0.31180385657845555
5060157 -0.9514049992429645 0.3111907783871847
5061202 -0.9513391974992592 0.31116019688653423
5062248 -0.9519460452943386 0.3104048668830445
5063293 -0.9521070961628012 0.3100118930346632
5064338 -0.950861908886248 0.3102516149813477
5065384 -0.9511021155629714 0.31115908928038866
5066429 -0.9513530500917046 0.31207870221929923
5067474 -0.9514571575501708 0.31240893998539604
5068519 -0.9515098927359862 0.31151020763257353
5069565 -0.9516628487140777 0.3114307091475428
5070610 -0.9513724412360829 0.310524830404553
5071655 -0.9515513649690329 0.31016560665561915
5072701 -0.9500990323929576 0.3111438422660405
5073746 -0.951218801775042 0.3116281303914813
5074791 -0.9514274658303595 0.31267833597568256
5075836 -0.9517758446678438 0.3124230016267932
5076882 -0.9519862964881575 0.3117161341399645
5077927 -0.9514914135995521 0.3108280606300736
5078972 -0.9512475063028641 0.31065173006034413
5080018 -0.9508851896704551 0.31139974422611666
5081063 -0.950576112085647 0.312474687094706
5082108 -0.9504722377738025 0.31257524672619363
5083153 -0.9511811790618689 0.31229327376323746
5084199 -0.9519218812822204 0.31289357155239134
5085244 -0.9519106156201141 0.3127162125401947
5086289 -0.9513378925620705 0.3111779481490459
5087334 -0.950634381107392 0.31177472009023594
5088380 -0.950778345553688 0.3124010052028742
5089425 -0.9504808503389515 0.3128517983648418
5090470 -0.950376048787042 0.3127922782931326
5091516 -0.9516354408434369 0.3131305689096309
5092561 -0.9520632396445998 0.31272524110264655
5093606 -0.9516543071447472 0.31228703861073576
5094651 -0.951446457086825 0.3123934180924432
5095697 -0.9500709765879018 0.31228371310443687
5096742 -0.9513356684212744 0.3131529126786966
5097787 -0.9511569819796908 0.3122069806219911
5098833 -0.9511703138633215 0.31193963498252947
5099878 -0.9505437344756948 0.31263332144832645
5100923 -0.9507893570291012 0.3129363852507536
5101968 -0.9505237955595492 0.31447066325227174
5103014 -0.9505286287555925 0.31412816929035375
5104059 -0.9511451471437863 0.3139330569243265
5105104 -0.9509086890166213 0.31381177987193654
5106150 -0.9510665344784835 0.31382244739332077
5107195 -0.9509851835744768 0.31327298118803343
5108240 -0.9507804180055504 0.31230878848480276
5109285 -0.9496070885753555 0.31329393134876826
5110331 -0.9502060794836132 0.3137617372184222
5111376 -0.9504163390896655 0.3142178028233532
5112421 -0.950562515221279 0.31395229751972664
5113466 -0.9508177824294693 0.31482983111481616
5114512 -0.9510531507285548 0.3139835119486647
5115557 -0.9508092766937374 0.31345925021618276
5116602 -0.9506389107166383 0.3132503573361519
5117648 -0.9505760966159774 0.31325441954642547
5118693 -0.9502592781411374 0.3136201478200587
5119738 -0.9500575149030452 0.3141548560619429
5120783 -0.9506089605627197 0.3147165842121391
5121829 -0.9515712951799008 0.3153727030001477
5122874 -0.9511559498263306 0.31404592975223156
5123919 -0.9508719749108471 0.31408782870611784
5124965 -0.9506420534058224 0.3143888875585261
5126010 -0.9507899713226466 0.3137991994773148
5127055 -0.9496680084969272 0.31356831956684067
5128100 -0.9495965156723812 0.31453421354580785
5129146 -0.950746720025634 0.31523570061692274
5130191 -0.9502345774457748 0.3151756262646205
5131236 -0.9500363969144817 0.31560181620725386
5132282 -0.9506419115423569 0.3149743551801413
5133327 -0.9510911047543514 0.31468895972598054
5134372 -0.9507425298584707 0.3140419180327977
5135417 -0.9493300896004272 0.31430077310834964
5136463 -0.9499437627000763 0.3148754843074237
5137508 -0.9500969741825533 0.31587581207435134
5138553 -0.9497811029532658 0.3160321794483491
5139598 -0.9504116047144175 0.3161680261547136
5140644 -0.9505086629459524 0.3159320940733137
5141689 -0.9503705285293943 0.314448037633131
5142734 -0.9501018799834263 0.31505224881246574
5143780 -0.95005794201961 0.31484212728746835
5144825 -0.9501771965185974 0.3148080075766709
5145870 -0.9499520379560676 0.31627621663830474
5146915 -0.9498402876342273 0.31629989563772715
5147961 -0.9500078113481528 0.3166743723275056
5149006 -0.9503881637928446 0.316633951184733
5150051 -0.9506727135396505 0.3156595864547042
5151097 -0.9506461264032218 0.31547877137349384
5152142 -0.9503819507706829 0.31518800264274693
5153187 -0.9501378718894353 0.3144786670475878
5154232 -0.9497016114612654 0.3159391770025251
5155278 -0.9500286579396828 0.3167897509229613
5156323 -0.9499785622687699 0.31680097124819767
5157368 -0.950076503212418 0.31676753465955737
5158414 -0.9499314430228764 0.3167001501133751
5158414 -0.9493337438423511 0.31610250452195565
5159480 -0.9497414015577648 0.31669301961751595
5160547 -0.9502543238566201 0.31744467817313776
5161614 -0.9498420897631973 0.3172069233443233
5162681 -0.9499345231796098 0.3165095095161733
5163748 -0.9499501365802888 0.3159107585468618
5164815 -0.9495121002475831 0.31602641630824685
5165882 -0.9493014659095026 0.3164368498902537
5166949 -0.9495680549139113 0.31668320798988486
5168016 -0.949612319318097 0.3175558450283006
5169083 -0.9497605596093623 0.317523448073212
5170149 -0.9498904675863113 0.3167150632118354
5171216 -0.949908931858405 0.31625240862275505
5172283 -0.9499163515428751 0.316311161337329
5173350 -0.949106112649719 0.3169595380312063
5174417 -0.9491052905888882 0.31734949681843305
5175484 -0.9493970145176824 0.3178838621556247
5176551 -0.9503014489887363 0.3185024801960691
5177618 -0.9499082595819847 0.3173101326758828
5178685 -0.9494307303701409 0.31741762636685655
5179752 -0.9500696308044985 0.3165277407575633
5180818 -0.9495420659061052 0.31762243814040453
5181885 -0.9490583374455337 0.31785655829974885
5182952 -0.9491958647546926 0.3184745966077832
5184019 -0.9499378687970472 0.31947080660821386
5185086 -0.9496229524877207 0.31774433575915784
5186153 -0.9496372410415591 0.31780995279190816
5187220 -0.9496593623113321 0.3167067261014727
5188287 -0.9492763110246499 0.3173273163835757
5189354 -0.9482831006244372 0.31787237118126477
5190421 -0.9488655060032768 0.3183280353169356
5191487 -0.9499956844042842 0.3193831831839452
5192554 -0.9492863477294555 0.3186873486892794
5193621 -0.9494561496754661 0.3181535853504388
5194688 -0.9496285995773333 0.3176183890077937
5195755 -0.9493179643764207 0.3177392646849651
5196822 -0.9485272621300157 0.31816975791665253
5197889 -0.948913266953139 0.3191762461158455
5198956 -0.9493570014991212 0.31977602944782846
5200023 -0.9493961140265148 0.3192827914056324
5201090 -0.9491196372026807 0.3181705775683313
5202156 -0.9495603040140058 0.31801782017471253
5203223 -0.9488343751069628 0.3183692678590225
5204290 -0.9486910712390255 0.31842223115850843
5205357 -0.9485664178351804 0.3191796847727098
5206424 -0.9492834203091539 0.3196209839544674
5207491 -0.9494243670334828 0.3197927249928348
5208558 -0.9491601109040169 0.31880873151450373
5209625 -0.9497984932429355 0.31887697392888587
5210692 -0.9492105222333242 0.3182161434419836
5211759 -0.9489727464601494 0.31923505160630833
5212825 -0.9486470965362573 0.31989544895473393
5213892 -0.9497772367656419 0.3207391510783688
5214959 -0.9495972754842005 0.31980749309745293
5216026 -0.9485408707259086 0.3191533249546304
5217093 -0.9491559665960667 0.3185588493835771
5218160 -0.9487659697854148 0.3191465125373196
5219227 -0.9481593089581658 0.3203277294068723
5220294 -0.948892591867185 0.32023050393825464
5221361 -0.9491046616394968 0.3205051891509593
5222428 -0.9487307604360543 0.31997828291448704
5223494 -0.9488700029138625 0.32009891278747227
5224561 -0.9491525029721463 0.3197665941309537
5225628 -0.9487646649934934 0.31999619360775916
5226695 -0.9476731387237386 0.32024238532060795
5227762 -0.9485094136748385 0.32044892754535137
5228829 -0.948673113629581 0.32086314409960043
5229896 -0.9486512519390717 0.3207197673151853
5230963 -0.9488245425799521 0.3204197299569853
5232030 -0.9492016152114096 0.32013268332874784
5233097 -0.9480977941679283 0.31972536949699076
5234163 -0.9475995838086121 0.3205355696358585
5235230 -0.9484656564562612 0.3212360888311633
5236297 -0.9487126682093376 0.32140584938765204
5237364 -0.9491008039090585 0.32143578701777653
5238431 -0.9488030121232387 0.32068742633164254
5239498 -0.9484886336515557 0.32051141994747767
5240565 -0.9483192582536193 0.31998763489428184
5241632 -0.9479249076159305 0.32034965234573665
5242699 -0.9476169917563759 0.32147677902438293
5243766 -0.9489743551080188 0.3221339199031021
5244832 -0.9484120610339388 0.3218282893303308
5245899 -0.9492931975588862 0.32110099279480686
5246966 -0.9487706662182989 0.320792611442666
5248033 -0.9482414130852821 0.32040858699304814
5249100 -0.9482033015883822 0.320781142087447
5250167 -0.948485033310958 0.3218658339404932
5251234 -0.9483761087288273 0.3217967579509487
5252301 -0.9485286067642877 0.32282828594091456
5253368 -0.9486542327278863 0.321967537691614
5254435 -0.9484390798501443 0.3216651536760311
5255501 -0.9484318336835789 0.32093419825370095
5256568 -0.9476889812565801 0.32080798662841353
5257635 -0.9476865435605083 0.3218916521542242
5258702 -0.9485526585671498 0.3222301872377061
5259769 -0.9481371670756878 0.3225029030120665
5260836 -0.9484766261857585 0.32259441835966296
5261903 -0.9486819228521544 0.3217411583961918
5262970 -0.9482393836486815 0.32153287008679676
5264037 -0.9481240986827243 0.32173270370225415
5265104 -0.9477458444146548 0.3219564678880543
5265104 -0.947915063710663 0.3218817636820372
5266192 -0.9475169583645642 0.3226235173623936
5267281 -0.9483587895865484 0.3235955292874853
5268370 -0.9489244625941265 0.32252437948119594
5269459 -0.9481478815599261 0.3223101046365591
5270548 -0.9480945610428338 0.32201303484817484
5271637 -0.948085290953896 0.32190704159687905
5272726 -0.9474692826167839 0.32275571832038485
5273815 -0.9482662728340591 0.3242198684644481
5274904 -0.9481700218733417 0.32360278871179854
5275993 -0.9481269971457901 0.3230289838090664
5277082 -0.9475735986511629 0.3222118594361474
5278171 -0.9481752370610128 0.3226557653007194
5279260 -0.9472303079318225 0.3232160945380536
5280349 -0.9479318041286922 0.3247271465566361
5281438 -0.9482856875342427 0.3243038588134657
5282527 -0.948705019677315 0.3234538693830583
5283616 -0.9475368607198853 0.32247263881587435
5284705 -0.9472150303839064 0.3231683965093457
5285794 -0.9475148941964991 0.32347736055915305
5286883 -0.947949264057744 0.324708399360754
5287972 -0.9480975960685226 0.32389348880590213
5289061 -0.9481017392256461 0.3235961872423595
5290150 -0.947883197216847 0.32301958423698274
5291239 -0.9469628791274458 0.32334659449316344
5292328 -0.9473355671112021 0.32407588847869123
5293417 -0.9477856313870398 0.3248085340464661
5294506 -0.9473186754049109 0.3240911118602481
5295595 -0.9481470602162013 0.32411775545569443
5296684 -0.9477295731118435 0.3233622778529489
5297773 -0.9468386921057292 0.32330488172888167
5298862 -0.9471159368479466 0.32432960219930757
5299951 -0.9471651222863309 0.32520010980242253
5301040 -0.9480349647891348 0.3248690067755747
5302128 -0.948107987615612 0.32411225940876104
5303217 -0.9473560339239016 0.32344518105080317
5304306 -0.946496232796444 0.3239817859447771
5305395 -0.9469136932616677 0.32485672107757885
5306484 -0.9469688944391766 0.3256960329777946
5307573 -0.9474759388904161 0.32512162851092175
5308662 -0.9476353687172863 0.32472142099547896
5309751 -0.9474770542560607 0.32405092642742933
5310840 -0.9469174999580221 0.32483162903087687
5311929 -0.9469435758822898 0.32514398183952814
5313018 -0.9473076637056298 0.3259076860550739
5314107 -0.9475868400095829 0.32593180761525054
5315196 -0.9476891153556748 0.3249228333949692
5316285 -0.9475745731783344 0.324556456414635
5317374 -0.9467138710843789 0.32432079177336665
5318463 -0.9469349384949415 0.3267097900207522
5319552 -0.9476691484465701 0.3259138348007324
5320641 -0.9474089235410837 0.32593634386535103
5321730 -0.9473764821694813 0.32506612786944256
5322819 -0.9467638603175067 0.3251243037819826
5323908 -0.9461789619538483 0.32605807897330835
5324997 -0.9467943080774928 0.32652631991229886
5326086 -0.9475020947058194 0.3260245235291282
5327175 -0.947299983964527 0.3252458726152114
5328264 -0.9468653250914293 0.32622304274475133
5329353 -0.9466507563734141 0.3259134954183725
5330442 -0.9471836653405 0.32653274281542227
5331531 -0.9468044879330326 0.32696841875851007
5332620 -0.9475199014274587 0.3260504658202466
5333709 -0.94753231623294 0.32605749335901013
5334798 -0.9463817225803551 0.3263510411909808
5335887 -0.9462701240714095 0.3267624933270473
5336976 -0.9471126967377876 0.3263954349357984
5338064 -0.9469231670047432 0.3262252178728895
5339153 -0.9468493870747007 0.326616043068254
5340242 -0.9468767259395047 0.32643064671021266
5341331 -0.9466039824264564 0.32710092984416916
5342420 -0.9465901666311982 0.32675442495925905
5343509 -0.9468679154475215 0.3267175419963637
5344598 -0.9470018804663333 0.32648990843223313
5345687 -0.9466242933310678 0.32652922105108895
5346776 -0.9461265514394689 0.3274803149231901
5347865 -0.9464705620754298 0.3272760815774027
5348954 -0.9467531803527119 0.32709372518121693
5350043 -0.9471288283109957 0.32675517161165973
5351132 -0.9467881018030665 0.32639783001906825
5352221 -0.9466190610436797 0.3273305338543897
5353310 -0.9460676404574145 0.3277125898833868
5354399 -0.9471293272061493 0.32805684154188214
5355488 -0.9467313185666553 0.32700843160004844
5356577 -0.9467923314891363 0.3268905800014569
5357666 -0.945899210839313 0.3274404618569429
5358755 -0.9459974953713584 0.32775719620794064
5359844 -0.9462877355386049 0.3283034296830184
5360933 -0.9470759060117044 0.32853180395889997
5362022 -0.9466128435635522 0.3273658622337013
5363111 -0.9468198360615063 0.3268651435340681
5364200 -0.9455004348604015 0.32765084120444976
5365289 -0.945724749638788 0.32823709557139813
5366378 -0.9464551010428968 0.3286723373635244
5367467 -0.9466477457522801 0.32846247269113266
5368556 -0.9463024931720392 0.3275924251611369
5369645 -0.9466769924729299 0.3271823479272715
5370734 -0.9457067263458416 0.3281067311817078
5371823 -0.9457179911689102 0.32909339589958303
5372912 -0.9465688146943791 0.32908834445686524
5374001 -0.9465861026721115 0.32762171558003544
5374001 -0.946342964351708 0.32879341855715194
5375112 -0.9467799182209746 0.32809447498617295
5376223 -0.9461064387859488 0.32815176625753495
5377335 -0.9459120028963147 0.32880645570308914
5378446 -0.9459738282252206 0.3292446760557756
5379558 -0.9459698062109079 0.3288588873004582
5380669 -0.946360250224181 0.32884331000727585
5381781 -0.9459153838743823 0.32855430797992835
5382892 -0.9461964908271787 0.3290473818653318
5384004 -0.9454964534561384 0.32917493950931986
5385115 -0.946029047265931 0.3292085991145549
5386227 -0.9466125601654038 0.3296564740233526
5387338 -0.9459174731747396 0.3295662155121056
5388450 -0.9458738188055389 0.32922370138020934
5389561 -0.9457627881618388 0.32939114304822836
5390673 -0.9456290001300237 0.3293683933027838
5391784 -0.9459339768445922 0.3296744227496646
5392896 -0.9459940464813263 0.3298694477884789
5394007 -0.9458321460877919 0.3294223219515875
5395119 -0.9454659073438765 0.32954496115889736
5396230 -0.9454128349435786 0.3298049434599016
5397342 -0.9461537154559315 0.3295814554621419
5398453 -0.9451987012251009 0.32985466819143344
5399565 -0.9463054566282559 0.3297968335500757
5400676 -0.9457802638457232 0.329659289561296
5401788 -0.9451134484403759 0.32927641137014974
5402899 -0.9454694737841047 0.33010121903526635
5404011 -0.9457848099701671 0.3304869088087796
5405122 -0.9456148871737653 0.330374328766816
5406234 -0.94604898076025 0.33035117167147826
5407345 -0.9449890704834478 0.3299451200129749
5408457 -0.94544379685359 0.32986736297175695
5409568 -0.944904680635384 0.33089791103637556
5410680 -0.945204491112268 0.33053966196067625
5411791 -0.9454004901337862 0.33029859153745594
5412903 -0.9450725603017213 0.3303519778134306
5414014 -0.9454529342744571 0.3306291998350646
5415126 -0.945173440678115 0.33146130673463653
5416237 -0.9454107408929784 0.331010577737223
5417349 -0.9456485465350761 0.33076385811889497
5418460 -0.9452044176941201 0.33080157726732456
5419572 -0.9460296279983663 0.3309928960374782
5420683 -0.9449626699966454 0.3310419258952545
5421795 -0.9451737479075916 0.33222083061394725
5422906 -0.9459695707612898 0.3316539259109101
5424018 -0.9446434198555117 0.3302778362959134
5425129 -0.9454430391380486 0.33067764840540154
5426241 -0.9443444975008505 0.3315427449865162
5427352 -0.94464737245826 0.33157663248956515
5428464 -0.9449919554191918 0.33128648695460405
5429575 -0.9452184678857825 0.3312262685984121
5430686 -0.9454158979917132 0.3318070540516235
5431798 -0.9457212277265187 0.33134969597593505
5432909 -0.9449763589006877 0.331016029893077
5434021 -0.944850001105422 0.3325293522419811
5435132 -0.9453096560896189 0.3324675297398565
5436244 -0.9446598802252258 0.33178032826724246
5437355 -0.945761092622492 0.33179678424555975
5438467 -0.9445882302231403 0.33195762860771244
5439578 -0.9446607812737675 0.33204983666280574
5440690 -0.9452607007352392 0.33364709912507373
5441801 -0.9450251100022515 0.332543015269804
5442913 -0.9455982889185802 0.3317696219728146
5444024 -0.9442034427154781 0.33168985162050724
5445136 -0.9442327261908126 0.331748525128523
5446247 -0.9446048902075171 0.3332167014191198
5447359 -0.9450443103575541 0.3329148561235405
5448470 -0.9453810089241852 0.3325684196389136
5449582 -0.9447178207860982 0.33186975546595776
5450693 -0.9439004271160429 0.3323278462175548
5451805 -0.9439148928375023 0.33308168569569735
5452916 -0.9446491216120707 0.3332534081483232
5454028 -0.9446886783837966 0.33308308314578217
5455139 -0.9450867832277434 0.33228152288338153
5456251 -0.9444020305815664 0.33306616561739294
5457362 -0.9439825065474988 0.3330546990777008
5458474 -0.9451315244459276 0.33377466907592296
5459585 -0.9446294896886434 0.33330954336420987
5460697 -0.9450955169766936 0.3332310493894564
5461808 -0.9446215694341347 0.33299784135925675
5462920 -0.9441429682269917 0.3337103676273157
5464031 -0.9449598117370759 0.33381819269064356
5465143 -0.9449334901961807 0.33373923548595
5466254 -0.9448154870038091 0.3335019972245529
5467366 -0.9441629511743567 0.3333939648083912
5468477 -0.9440778749917402 0.333496313556433
5469589 -0.9445242749489249 0.334119941127192
5470700 -0.9443219866064826 0.3340667278419625
5471812 -0.9445052349984638 0.3336342959593548
5472923 -0.9442067668458503 0.33335551646631373
5474035 -0.9436346029123317 0.3336355255262911
5475146 -0.9442952844709327 0.3345642226895074
5476258 -0.9441585130622617 0.3349859411891872
5477369 -0.9440741572347312 0.3346896451402765
5478481 -0.9446982055973766 0.3338981157237662
5479592 -0.9441866988247474 0.33436464417539663
5480704 -0.9440928859182194 0.3347602798854411
5481815 -0.9444416619570364 0.3354718377314753
5482927 -0.9441588138977772 0.3349605383112687
5484038 -0.9447038218118662 0.3340895003528189
5485150 -0.9443068991097789 0.33433902631498735
5485150 -0.9439284632550777 0.3343841719955877
5486284 -0.9441779344274557 0.33442690236041217
5487418 -0.9442294550141421 0.3348259932675645
5488553 -0.9434293493678263 0.33476758978188853
5489687 -0.9443532572103687 0.33520968480129704
5490822 -0.9438269743508962 0.3347695681390104
5491956 -0.9437982443210216 0.3346941471067334
5493091 -0.9436727250708256 0.33585535736176314
5494225 -0.9440626237583116 0.33618556793535165
5495360 -0.9444796332489781 0.3351208661780173
5496494 -0.9433628713316909 0.33542416674877357
5497629 -0.9444001621453816 0.33565900227965717
5498763 -0.9434341235367598 0.3354561444418221
5499898 -0.9442811232162588 0.33610814941153877
5501032 -0.9436391240261408 0.33542112641161503
5502167 -0.9440423276025133 0.33473396505037123
5503301 -0.9432241939531398 0.3364317273959483
5504435 -0.943251631073202 0.3360350488325713
5505570 -0.9437921589364633 0.33602149206143456
5506704 -0.9434524069947294 0.33532218671957675
5507839 -0.943585502266011 0.3360578352157466
5508973 -0.9433518946785894 0.3362276591754478
5510108 -0.9432601466953228 0.33551736417801553
5511242 -0.944045526207808 0.33613021389988956
5512377 -0.9436729602751334 0.33605756926509384
5513511 -0.9435896942834127 0.3357782237475858
5514646 -0.9434554204423365 0.3366357486481991
5515780 -0.943732857041499 0.33702214899754124
5516915 -0.9444588245669754 0.3370247764031987
5518049 -0.9431652768833717 0.3356756670354166
5519184 -0.9435355680744435 0.33708117383745484
5520318 -0.9439647286866455 0.33722650746440974
5521453 -0.9439395700005063 0.33688416376080155
5522587 -0.9436340724715687 0.3366679322268539
5523721 -0.9435492982341649 0.33624632701870244
5524856 -0.9429730747878342 0.3369585183877225
5525990 -0.942679449077384 0.33679271463299654
5527125 -0.9432998556235008 0.33730792472890914
5528259 -0.9427283534782837 0.3368759670317396
5529394 -0.9431465829956144 0.33698587840400385
5530528 -0.94320933043153 0.3379132606020314
5531663 -0.9429866123253667 0.3376272686363331
5532797 -0.9434215448161869 0.33688796203751026
5533932 -0.942779476582789 0.33758230282053187
5535066 -0.9435099567091673 0.33722161252803806
5536201 -0.9430155694785661 0.3380840451693994
5537335 -0.943582520535217 0.33703206392321877
5538470 -0.9438754105050221 0.3371416314868554
5539604 -0.9429699785341278 0.3379172392102654
5540739 -0.9424336368060318 0.33818187984569664
5541873 -0.9435331234892753 0.3374982396406873
5543007 -0.9433502365341191 0.33724520157007826
5544142 -0.9423533059939618 0.3378540195565468
5545276 -0.9426833515848972 0.33858766582691
5546411 -0.9434654916338711 0.3387919117982769
5547545 -0.9427938958052391 0.3379810660419383
5548680 -0.9429274682968193 0.33746852521578036
5549814 -0.9428275313987784 0.33860014566175356
5550949 -0.9431761392778528 0.3391425842529525
5552083 -0.9435449250779604 0.33861198703592
5553218 -0.9426473641419951 0.33811136046104506
5554352 -0.9429527692575252 0.3386087171629864
5555487 -0.9425427302524431 0.33831638262992847
5556621 -0.942801710655239 0.33935901972495125
5557756 -0.9428526998135442 0.33860520437766967
5558890 -0.9423314492494899 0.3380125871411336
5560025 -0.9422411548975643 0.3392823152264347
5561159 -0.9419924314770328 0.3392033610985998
5562293 -0.9425022307299972 0.33892409744417407
5563428 -0.9426464622258404 0.3385826004590496
5564562 -0.9425240808318721 0.3385239885692633
5565697 -0.9423234399899304 0.3391738473431598
5566831 -0.9430263694767291 0.3401379463541944
5567966 -0.9432349938587535 0.33998229432672367
5569100 -0.9428607378022716 0.3389050057078566
5570235 -0.9429135858910306 0.3390872675666899
5571369 -0.9420751050119088 0.33936358980976256
5572504 -0.9426510071912085 0.3403361777703686
5573638 -0.9424407879297888 0.33985263364555945
5574773 -0.9422561104301006 0.33899045196589334
5575907 -0.9424853356488335 0.33976519932973653
5577042 -0.9417709677992799 0.34004238389680636
5578176 -0.9419614942343012 0.3400693533277729
5579311 -0.9422239085788355 0.3395611634350974
5580445 -0.9422364834025869 0.3393366492991226
5581579 -0.9420033262815218 0.3407547591064424
5582714 -0.9425271410330057 0.3406448012689776
5583848 -0.9425826384595661 0.34067436626846076
5584983 -0.9421100291171852 0.33921939551273084
5586117 -0.9422270376368065 0.33982611677989716
5587252 -0.9420199350118679 0.3405105847802477
5588386 -0.9425291592801917 0.3409116799283724
5589521 -0.9421301291475505 0.34061737167392064
5590655 -0.9421498634847298 0.339883213140946
5591790 -0.94234755578486 0.3403139891243324
5592924 -0.9418275981182138 0.34031401573902076
5594059 -0.942066880972791 0.3410677935558346
5595193 -0.9418272297798524 0.34049792724098216
5596328 -0.9420754830719206 0.33981870410866044
5597462 -0.9416640602946688 0.3414494368050294
5598597 -0.9427479941282012 0.3412867240145363
5598597 -0.9430419826756682 0.34107208842691566
5599754 -0.9419054896012096 0.3409215279574472
5600912 -0.9414468037385738 0.340349983058123
5602070 -0.9422392904895057 0.34151598906012315
5603228 -0.9419280301590836 0.34142979120733885
5604386 -0.9418678564133423 0.34087545546327847
5605544 -0.9415808217991503 0.34132420788253753
5606702 -0.9420801738483829 0.34155414815430735
5607860 -0.9417849577271196 0.3413290760309472
5609018 -0.9419317274007893 0.3416815898373621
5610176 -0.9416205666496554 0.3421873171406935
5611334 -0.9418731491718138 0.341634692525372
5612492 -0.9407871329501692 0.34192612050943155
5613650 -0.9421513393198341 0.34182679553292705
5614808 -0.9413434307103743 0.34211263802451947
5615966 -0.9408878846866425 0.3417434378480446
5617124 -0.9419515681830053 0.34247826769300443
5618282 -0.9419010140326415 0.3418229437341698
5619440 -0.9419827483772152 0.34159740348409445
5620598 -0.9408049970618791 0.3422107000146786
5621756 -0.9415097791787461 0.3426189817688553
5622913 -0.9419118606018183 0.341723702150988
5624071 -0.9418078347318476 0.34191718151824746
5625229 -0.9413641132389734 0.3422423638383534
5626387 -0.9415924553945695 0.342796554853489
5627545 -0.9417114519090984 0.3434194362353413
5628703 -0.9418058418846312 0.34184526660568276
5629861 -0.9409541903250853 0.3415439354106567
5631019 -0.9412114092570111 0.34380213869739573
5632177 -0.9416937731136014 0.34300462773497653
5633335 -0.9414775923422988 0.3417890605149627
5634493 -0.9408732644366712 0.3427887148275841
5635651 -0.9409895686224767 0.3439905030430008
5636809 -0.9416101989133914 0.34293792359839576
5637967 -0.9415005121962654 0.34270839604722725
5639125 -0.9414288158413986 0.3432296975194985
5640283 -0.9410847932156384 0.3434629174170395
5641441 -0.9412895024319143 0.3436151275162919
5642599 -0.9419092007185089 0.34304964606256994
5643757 -0.9413641704153725 0.34326547504965277
5644915 -0.9405344477796846 0.34313878928013997
5646072 -0.9408678231128464 0.3444567229444691
5647230 -0.9414709093760603 0.34375151654506264
5648388 -0.9410099522865306 0.3430070829555685
5649546 -0.9405401620941272 0.34389821491224565
5650704 -0.9411383626372233 0.3447347091441702
5651862 -0.9401018743138246 0.34328351456330447
5653020 -0.9406669033673988 0.34491726416353796
5654178 -0.9415709561534511 0.3438883021654733
5655336 -0.9413080232823691 0.34370608201597813
5656494 -0.9402447205268485 0.34363983286778416
5657652 -0.9409332487982269 0.3447331987377105
5658810 -0.9415548033913804 0.3438513564230532
5659968 -0.9408636138098665 0.34316594037267223
5661126 -0.940114949645775 0.3438098187495393
5662284 -0.9412878177290974 0.34494158698807936
5663442 -0.9412448344617839 0.3446816942043242
5664600 -0.9408566197947978 0.344470696642749
5665758 -0.9404383326197487 0.34438312452348707
5666916 -0.9406092395901678 0.3445453725383868
5668074 -0.9407951751045412 0.34495695490969674
5669231 -0.940945333449538 0.3449771578019576
5670389 -0.9400753401017218 0.3445664728319903
5671547 -0.940703827993638 0.34484879465680757
5672705 -0.9411367543997528 0.3449381318867844
5673863 -0.9408574839084277 0.3447233437600042
5675021 -0.9402256962954635 0.3449402466165707
5676179 -0.9410478671759639 0.34578401777721296
5677337 -0.940801277978357 0.3455680832932712
5678495 -0.9401888027223144 0.344610659363897
5679653 -0.9395522767200903 0.3452826031295392
5680811 -0.9408549502656838 0.3457022958934087
5681969 -0.94066043598418 0.34583187244943286
5683127 -0.940513261243676 0.3457867075634727
5684285 -0.9405638315880905 0.34574148378127606
5685443 -0.9409469379000341 0.34586763448761604
5686601 -0.940536589847864 0.3458524553913532
5687759 -0.9406087402417626 0.34524618669788115
5688917 -0.940183111211759 0.3458937032294209
5690075 -0.94031327350321 0.3455613559482085
5691233 -0.9405232136089948 0.3461834635983375
5692390 -0.94049100828566 0.3458829850583031
5693548 -0.9403587133449939 0.34585797973397814
5694706 -0.9400774114748653 0.34649750332346446
5695864 -0.9409235607124963 0.34611392475858105
5697022 -0.9404089482437464 0.3459470233859848
5698180 -0.9396649779960047 0.34674771390333897
5699338 -0.93980480350086 0.3467970915865574
5700496 -0.9407897168047543 0.34656160436501093
5701654 -0.9401307214748119 0.3461548955357511
5702812 -0.9394207466362264 0.3468287780978638
5703970 -0.9396281227154272 0.3471147263744707
5705128 -0.940538278759314 0.3470021649600304
5706286 -0.9399360995429865 0.34656695434575246
5707444 -0.9398167755265641 0.34693388548971815
5708602 -0.9397161077020312 0.3472582858023119
5709760 -0.9399293465392351 0.34726951645701754
5710918 -0.9406567970011901 0.346670554508375
5712076 -0.9394961008103059 0.3473769351851913
5713234 -0.9392182783059612 0.34794751130832957
5714392 -0.9399997713510112 0.3481484685446343
5714392 -0.9395151844518432 0.3475830533348258
5715573 -0.940466900851717 0.3477113385809941
5716755 -0.940041439001383 0.34713020367758063
5717937 -0.9393557737439698 0.3473220997926151
5719119 -0.9401965701101236 0.34795485018414823
5720301 -0.9401956341603989 0.34759943915851155
5721483 -0.9398709567825317 0.34799807636583424
5722665 -0.9391549908579975 0.3477994233187398
5723847 -0.9401203257464268 0.34828098833782595
5725029 -0.9405005076521876 0.34733878345184815
5726210 -0.9397016131689995 0.34757738643095426
5727392 -0.9395627020026639 0.3482630779998596
5728574 -0.9395944964613865 0.34843917176537953
5729756 -0.9400981426283727 0.3481487246352688
5730938 -0.9389607021526984 0.3485218483327039
5732120 -0.9389875051388702 0.3484860010901383
5733302 -0.9392742778666741 0.34838187050549874
5734484 -0.9393637171710604 0.34835604660226377
5735666 -0.9392968444288855 0.34871454887212205
5736847 -0.9395610421424719 0.34867341962281395
5738029 -0.9405036559342171 0.34897636754995864
5739211 -0.9391660060712134 0.34828830005669587
5740393 -0.939133922178987 0.3482330913927393
5741575 -0.9393730750715779 0.3490624543845567
5742757 -0.9402305237263411 0.3490825871869738
5743939 -0.9392385858412914 0.34873395666864626
5745121 -0.9388615224881764 0.3494265074193341
5746303 -0.9397461527428936 0.3497739092842774
5747484 -0.9397144242969173 0.3491177344428352
5748666 -0.9393895835259222 0.3492044389383504
5749848 -0.9384103946367961 0.3496146441246516
5751030 -0.9392978825317638 0.3497539909456866
5752212 -0.9399954324723475 0.3490870938548285
5753394 -0.939442179543846 0.3500709381745135
5754576 -0.9391472414431866 0.3491483594509073
5755758 -0.9400745283237366 0.34976432624925735
5756940 -0.9394373191627302 0.3495487619538345
5758121 -0.9388120970079773 0.3499904942446665
5759303 -0.9391112331143271 0.3504928077856598
5760485 -0.9401498550809926 0.3502066398983821
5761667 -0.938563782668095 0.34969622895139896
5762849 -0.938179927834473 0.3501783439962731
5764031 -0.9390856042700626 0.35027875208469955
5765213 -0.9393576461009516 0.35010123404512894
5766395 -0.9389666245882609 0.35016124497304435
5767577 -0.9387046148387593 0.3501947170143149
5768758 -0.9392999840173553 0.35007943900687255
5769940 -0.9390185617759436 0.350562425941058
5771122 -0.93857167964669 0.3510832917335703
5772304 -0.9399990477906879 0.3507414433101053
5773486 -0.9386235049881423 0.34996657537932435
5774668 -0.938913490119465 0.3506749583856339
5775850 -0.9384698092573441 0.3509507048184107
5777032 -0.9392680921887373 0.35108751793831694
5778214 -0.9387969112866994 0.35028400905840246
5779395 -0.9383182556209791 0.35065534024493217
5780577 -0.9387162128706891 0.3516497220627497
5781759 -0.9394095785741741 0.35120229026040334
5782941 -0.938942408788969 0.35043852171002127
5784123 -0.9376927737506734 0.35181611212837927
5785305 -0.9387468756869087 0.3517075594950587
5786487 -0.9390731849957178 0.35070147030183685
5787669 -0.938396745186295 0.3517572937856627
5788851 -0.9386314105272405 0.3512474616133169
5790032 -0.9393912713302227 0.3528969983415962
5791214 -0.9391340612570889 0.3512817145778256
5792396 -0.9386657180274112 0.35117166077592676
5793578 -0.9378896775686137 0.35198177760916954
5794760 -0.9390178813142858 0.35213177186196476
5795942 -0.9387672031894069 0.3515296194624303
5797124 -0.9384087562923468 0.35202287183094166
5798306 -0.9379038877177447 0.35242117817467056
5799488 -0.939360788838764 0.3521881155086754
5800669 -0.9382557290350534 0.35166830592113163
5801851 -0.9385847453340125 0.3522149591790926
5803033 -0.9382720534365091 0.35235679693423894
5804215 -0.9388113182045991 0.3523071900491031
5805397 -0.9383287913100576 0.3522684759986323
5806579 -0.9378628737526394 0.35314351068942773
5807761 -0.9384267710055291 0.3529020811989674
5808943 -0.9383460949950454 0.35230960944702044
5810125 -0.9384987278312807 0.3525421704033533
5811306 -0.9373543574679297 0.3528202519271541
5812488 -0.9385474318069402 0.3536908734982317
5813670 -0.9385332723381813 0.3521014497464284
5814852 -0.9382394336083555 0.35296247230399674
5816034 -0.9374478937967464 0.3535847163380403
5817216 -0.9384679627341357 0.35372793322916846
5818398 -0.9387419608805018 0.35256658286645387
5819580 -0.9377188222653741 0.3530041072409919
5820762 -0.937662478695411 0.3535609632078406
5821943 -0.9388947071007305 0.35391626870255255
5823125 -0.9381231299635455 0.3527535532819758
5824307 -0.9377996304295911 0.35345465797776393
5825489 -0.937635924689752 0.3538862264859367
5826671 -0.9386650442357973 0.3534363571187799
5827853 -0.9375423816383615 0.35316465953500215
5829035 -0.9378774175985578 0.3536011828627481
5830217 -0.937614646200575 0.35451601319648507
5831399 -0.9379844940555135 0.35353509353472645
5832581 -0.9385024998201944 0.3538747752167094
5832581 -0.9379679636067582 0.3536568484657202
5833787 -0.9374548836929764 0.3535322689689833
5834993 -0.9381049107410463 0.35437254547532204
5836199 -0.9376045094182508 0.3535339125383501
5837406 -0.9375523692401608 0.35391188043449784
5838612 -0.9381834207855827 0.35533863919916153
5839818 -0.9383359075482782 0.3544752589505899
5841025 -0.9380673199261443 0.3538477133841568
5842231 -0.9367259193855768 0.35486818881324705
5843437 -0.9383832919870208 0.3546994653211506
5844644 -0.9371520685515174 0.35373658289067356
5845850 -0.9370636220732752 0.3547025912015351
5847056 -0.9381839561360125 0.35571456577107946
5848263 -0.9375865269412509 0.3545511907081075
5849469 -0.9373330850774605 0.3546274720678286
5850675 -0.9374248973911349 0.35530729730076166
5851882 -0.9383462197211806 0.354678869717264
5853088 -0.936704617341005 0.3547449473247502
5854294 -0.9366670665558442 0.35488430038111585
5855501 -0.9379646429744886 0.3556265176953972
5856707 -0.9376811420873429 0.3548582346868176
5857913 -0.9370870853048221 0.3554212898590514
5859120 -0.9375677863873968 0.35625948159389964
5860326 -0.937680046608832 0.35531206658807163
5861532 -0.9366699836243234 0.35530578128843765
5862739 -0.9370431783919398 0.3555469131765974
5863945 -0.9374030586804362 0.35603616904857277
5865151 -0.9370202507732542 0.35519000774647247
5866358 -0.9369045850096314 0.3559322384206099
5867564 -0.937746181332881 0.3569484727043366
5868770 -0.9375792619813791 0.35506902938138685
5869977 -0.937124050899262 0.356109837994429
5871183 -0.9368059713557515 0.3567458486743101
5872389 -0.9377462692984234 0.35622021295480444
5873596 -0.9374546211065246 0.35582899584535493
5874802 -0.9362610977888706 0.35605052997772907
5876008 -0.9376848866597248 0.35727934238606174
5877215 -0.93730701195493 0.3561559848484226
5878421 -0.9365995617771725 0.35630345812733555
5879627 -0.9369154696755408 0.35710540654587786
5880834 -0.9378793655360272 0.356346069231499
5882040 -0.9366335553888638 0.35607706953169316
5883246 -0.936278892702542 0.35698138424595366
5884453 -0.9374210578095208 0.3577256764158388
5885659 -0.9369459003545574 0.3565016158862233
5886865 -0.936187112719388 0.3573126967898756
5888072 -0.9369976155786651 0.3583110365875793
5889278 -0.9374375923639616 0.3571788296534034
5890484 -0.9371025112164838 0.35629792632749974
5891691 -0.9367880461596306 0.35714140452613413
5892897 -0.9375057360468053 0.3572284894649144
5894103 -0.9371668472584498 0.35702204185673225
5895310 -0.9363748301791116 0.3572134321909535
5896516 -0.9363040415924806 0.3579953854201056
5897722 -0.9374043231369742 0.3579456112928475
5898929 -0.9367501105831355 0.3577030032264403
5900135 -0.9364024758234046 0.3581333121653317
5901341 -0.9371603733570811 0.357886680661631
5902548 -0.9370812349329899 0.35776873602565606
5903754 -0.936545248782172 0.3580731230163366
5904960 -0.9364205881845871 0.3583478620657595
5906167 -0.9372066785894583 0.3585183633312913
5907373 -0.9363895721521034 0.3580312991536031
5908579 -0.9362027720993545 0.3590119526346447
5909786 -0.9368317099525812 0.3582910055723141
5910992 -0.9362785485321607 0.35820851861497577
5912198 -0.9361824957762066 0.35850498251937674
5913405 -0.9365197838425222 0.35847962559026814
5914611 -0.9363493960584454 0.3583645080728391
5915817 -0.9360191447702462 0.35890600283219753
5917024 -0.9364904607686043 0.35926847954324326
5918230 -0.9366675420478587 0.358305747307959
5919436 -0.9359357108727799 0.3591225375574157
5920643 -0.9364609024119392 0.3593803725853393
5921849 -0.9362820015341817 0.35886765482968935
5923055 -0.9358854889546143 0.359034968514561
5924262 -0.9364445075227623 0.35879729937614274
5925468 -0.9363249500500312 0.3591581998184447
5926674 -0.9360630053432186 0.3598838254566716
5927881 -0.9365486434218758 0.3596577889947623
5929087 -0.9358021941463903 0.3587091268316606
5930293 -0.9357984929692946 0.3597454309776661
5931500 -0.9365580890941451 0.360127735465877
5932706 -0.936376024554057 0.35965597442524516
5933912 -0.9356581727712678 0.35987621378081486
5935119 -0.9360411921921213 0.3609534344594613
5936325 -0.9358317242919769 0.3596615444679217
5937531 -0.9355207991435983 0.35915570992812734
5938738 -0.9360210194811874 0.3608384435410727
5939944 -0.9367888529052947 0.35991773386010684
5941150 -0.9359211539036996 0.35951950834870494
5942357 -0.9353190045470294 0.36062350399313053
5943563 -0.9366319465367405 0.36061422901545925
5944769 -0.9355214209557334 0.35990391389192516
5945976 -0.9358894254278655 0.36060861396473576
5947182 -0.9364391349477141 0.36091940339594336
5948388 -0.9357508393918262 0.3596363983763569
5949595 -0.9348787254238138 0.3606333400113004
5950801 -0.935530046134849 0.3613755684099765
5952007 -0.9358337633768075 0.360653754026752
5953214 -0.9359663083733438 0.36105460504336856
5953214 -0.9357491229373313 0.36086863513213313
5954445 -0.9362867421526794 0.36075226702536795
5955676 -0.9357894114957821 0.3605896373427331
5956907 -0.9356812074144001 0.36092338994241113
5958139 -0.9356666856566074 0.3612672914209866
5959370 -0.9356796543111622 0.36080502890087185
5960601 -0.9351213565370359 0.36135069406202747
5961833 -0.9351589924824858 0.36158921184671405
5963064 -0.935898644524019 0.36107794746162275
5964295 -0.9357583360046918 0.36099300175983
5965526 -0.9355773713154715 0.3618824334552056
5966758 -0.9353108853405672 0.362434353111133
5967989 -0.935497373718693 0.36120399553243365
5969220 -0.9351497016463023 0.36206601072210515
5970452 -0.935235336216039 0.3621344834577624
5971683 -0.9355986818574243 0.3616359285796185
5972914 -0.9346675533583488 0.3623272717145014
5974145 -0.9357077213523108 0.36169112923746927
5975377 -0.9353966801170526 0.36187585223707636
5976608 -0.9351759551557535 0.3622075190911205
5977839 -0.9352037206826065 0.3636098083000929
5979071 -0.9354760110663328 0.36211756013602303
5980302 -0.9350470948593733 0.36233385285347575
5981533 -0.9355631288055957 0.3630998491975224
5982764 -0.9353066556585388 0.3620673489563832
5983996 -0.9350315946022804 0.36226305227319827
5985227 -0.9350609033023753 0.3629633469710037
5986458 -0.9354316852809177 0.3623723702622158
5987690 -0.9349314047569984 0.3621822875109796
5988921 -0.9346460749627153 0.3628703097036119
5990152 -0.9353797932535226 0.36303408549347255
5991383 -0.9350641712374581 0.3634590321050835
5992615 -0.9350982895563724 0.3635053568913575
5993846 -0.9355472398621111 0.36282415012455066
5995077 -0.9351702870320561 0.3626136704946017
5996309 -0.9344774220539056 0.3640365573619071
5997540 -0.9355075098755419 0.36324042739580753
5998771 -0.9348313790595708 0.36267271613401386
6000003 -0.934802628454472 0.36390488083166667
6001234 -0.9348997748221727 0.36348901392183075
6002465 -0.9345075473117945 0.3637102165978242
6003696 -0.9345449085677087 0.36397219698543953
6004928 -0.9346901562777991 0.3638750528697655
6006159 -0.9342472849984826 0.363529269208847
6007390 -0.9343398268229088 0.3638403156343508
6008622 -0.9347357267965932 0.36421394731353485
6009853 -0.9350906908159987 0.3635260279188782
6011084 -0.934175589818747 0.363689601908681
6012315 -0.9343268545912066 0.36501406749317
6013547 -0.9343751872866842 0.3643819918509023
6014778 -0.9344868340040992 0.36421826750797215
6016009 -0.9342449360704745 0.3648551322457194
6017241 -0.9347161216147699 0.3645238706612033
6018472 -0.9343320626485012 0.3648480862430886
6019703 -0.9345350146421345 0.3651296614228954
6020934 -0.9347491952236321 0.36479013638076263
6022166 -0.9342485595604085 0.36419742997598464
6023397 -0.9340243121733538 0.36516787206401097
6024628 -0.9345861570145153 0.36504086217897175
6025860 -0.934221228311564 0.3647364790104998
6027091 -0.9342971155864834 0.3651306089603524
6028322 -0.9341980186276581 0.3654186894453623
6029553 -0.9341332508058566 0.365053935923195
6030785 -0.9337063096758856 0.3650207773632374
6032016 -0.9342228254695663 0.3661286260710165
6033247 -0.9343753292293695 0.36557021229399844
6034479 -0.9338611544323999 0.3650356009997369
6035710 -0.9343880424426639 0.3654453137126484
6036941 -0.9345459295676718 0.36535773652269116
6038173 -0.9338215912256895 0.3644562328013695
6039404 -0.9332048122455807 0.366114682907387
6040635 -0.9340424022175946 0.36548446305285515
6041866 -0.9339192081802555 0.36523193056630315
6043098 -0.933751430715932 0.3668113934015969
6044329 -0.9348303190712094 0.366446743559777
6045560 -0.9338391821005049 0.3659829364659677
6046792 -0.9333820713523546 0.36655423184890684
6048023 -0.9338598314823462 0.36708388072684506
6049254 -0.9337990987382988 0.36558469347599865
6050485 -0.933183863124993 0.36612177950138036
6051717 -0.9337093006743592 0.36705370723190195
6052948 -0.9341000577148149 0.366182437105148
6054179 -0.9333418152880961 0.3653472889390093
6055411 -0.9334785970547335 0.3674349951818688
6056642 -0.9347841387069948 0.3669053029031368
6057873 -0.9329924166426976 0.3655530881939242
6059104 -0.9332431313971518 0.3671193767333135
6060336 -0.9339840245637212 0.36698065467792196
6061567 -0.932972677256247 0.3652683003488831
6062798 -0.9332725142252473 0.3680134779744985
6064030 -0.9342348327689236 0.36737376824019274
6065261 -0.9332343293356007 0.3662685132510396
6066492 -0.9328134240465783 0.3683884171652415
6067723 -0.9342300410794739 0.36797870657805476
6068955 -0.9335923437895247 0.3665739182170926
6070186 -0.9331105503762737 0.36800393307166207
6071417 -0.9340809445383974 0.3681275653095908
6072649 -0.9332034809599916 0.3672983748704761
6073880 -0.9326058137125305 0.36783984871478576
6075111 -0.9332342400052717 0.36853921154926705
6076343 -0.9340441981030555 0.36731355264324245
6076343 -0.9336781326626326 0.36704547742771
6077599 -0.9328480359083344 0.3686896581488229
6078856 -0.9326251463109729 0.36803790098915523
6080113 -0.9326847859735049 0.36780461125436903
6081370 -0.9329935099231397 0.36874780078195635
6082626 -0.9332928495662093 0.3678340224188117
6083883 -0.9331422374342654 0.3675797108363621
6085140 -0.933456243472859 0.3689724077983232
6086397 -0.9339054355501544 0.3680999713705645
6087653 -0.9329113306555148 0.36778369080038126
6088910 -0.9333119684045211 0.3687649634551069
6090167 -0.9336355215980777 0.36808858786953114
6091424 -0.9328696323279546 0.36784681584901563
6092680 -0.9328288304873741 0.3692733254877955
6093937 -0.9332993009682538 0.36820405523299765
6095194 -0.9326094633266861 0.36899458249960065
6096451 -0.9331174525969111 0.36980262000078473
6097707 -0.9330339290026721 0.3684598415426607
6098964 -0.9329507319431064 0.36887320411329316
6100221 -0.933020762944907 0.3698368660162605
6101478 -0.9328239543099502 0.36861375821683995
6102734 -0.9322141572068734 0.36904606631993325
6103991 -0.9325596208013087 0.3695545639063465
6105248 -0.9323206343724045 0.3684750607370054
6106505 -0.9325960510264607 0.3698172625798621
6107761 -0.9323964081175458 0.3691180788429149
6109018 -0.9322812760975981 0.36913795600194255
6110275 -0.9320633386255753 0.3701860992998702
6111532 -0.933577008984283 0.3704226463642873
6112788 -0.9328797384376394 0.36920797327372135
6114045 -0.9321001406752774 0.37058207126297693
6115302 -0.9332602927814257 0.3700576727082249
6116559 -0.9322629801912612 0.36892256873859697
6117815 -0.9323066511980055 0.37088637782638195
6119072 -0.9336306075798773 0.37031027108333403
6120329 -0.9323963383343401 0.36987132516074095
6121586 -0.9320022801971513 0.37144255227369066
6122842 -0.9328464990271215 0.3698789523453594
6124099 -0.9316254288313778 0.36982196674191414
6125356 -0.9319263508675927 0.37122799443382437
6126613 -0.9327045947911632 0.37009097528909224
6127869 -0.9315537233784714 0.37015079832243414
6129126 -0.9321054627588232 0.37106143878749365
6130383 -0.9327218188943297 0.3705896643602905
6131640 -0.9318117119893191 0.37028030080100555
6132896 -0.9320140869397706 0.37201552107423963
6134153 -0.9326358174478125 0.3706458107375213
6135410 -0.9318148371953291 0.3706536754798331
6136667 -0.9317999593334604 0.37150253490632423
6137923 -0.9319339783210224 0.3704102688223294
6139180 -0.9321263215703687 0.37142912800343175
6140437 -0.9324156483249828 0.37164421482563775
6141694 -0.9316664416019631 0.3710821189036248
6142950 -0.9323608242339031 0.37219796653066084
6144207 -0.9320440772523109 0.37187696859189107
6145464 -0.9314898844784034 0.3707905999722913
6146721 -0.9320323457028497 0.3720190102825066
6147977 -0.9323728865560844 0.3724753066422965
6149234 -0.9321797924097266 0.37111584742778236
6150491 -0.9316712843010475 0.3726024319990744
6151748 -0.9325622569658263 0.37230748832345967
6153004 -0.931431143441807 0.3716527011115826
6154261 -0.9314101201077245 0.37280160245505517
6155518 -0.9326039916699544 0.3720582682360862
6156775 -0.9311186015845266 0.37202603517516025
6158031 -0.9317062829310885 0.37256746871974467
6159288 -0.9320329867340558 0.37177297450638075
6160545 -0.931328309831279 0.3722428024745952
6161802 -0.9319648779578609 0.37334893858027046
6163058 -0.9313792752218172 0.37163493762280553
6164315 -0.931414201487728 0.3726332755629495
6165572 -0.9312269855326998 0.373015948618821
6166829 -0.932300856828626 0.37246373232481694
6168085 -0.9313476785952336 0.3730949066659118
6169342 -0.9314527601241771 0.37346165839659384
6170599 -0.9317079093579439 0.37275084625283345
6171856 -0.931331181756482 0.37329526552292247
6173112 -0.9311874169361846 0.37366925365526354
6174369 -0.9311103545658914 0.3726666174470247
6175626 -0.9313106202199186 0.3743071475696842
6176883 -0.9312453608677235 0.3736697469670756
6178139 -0.9311313826738291 0.37330433574728683
6179396 -0.9314388205637887 0.37358538210475317
6180653 -0.9312590892249719 0.37295584928287906
6181910 -0.9306336678087886 0.37364866555296233
6183166 -0.9315244942717217 0.374461941762731
6184423 -0.9315257677583361 0.3736456673668892
6185680 -0.9305845490125648 0.3734275288514496
6186937 -0.9313009595419616 0.37420696612531784
6188193 -0.9317539939978845 0.3740449326812478
6189450 -0.9311246126135385 0.37363841346332016
6190707 -0.9308009387390437 0.37530198436073525
6191964 -0.9315020619934752 0.37363025869386585
6193220 -0.9305452987053361 0.3736826921882387
6194477 -0.9307845349098639 0.37519963449834887
6195734 -0.9317531209590757 0.37433345807702545
6196991 -0.9306190449275223 0.3744019454841952
6198247 -0.9308346942413028 0.3749160664503093
6199504 -0.931059396760214 0.3738259456656869
6200761 -0.9304382600104255 0.3750409592969273
6202018 -0.9312244401974233 0.37553086775070577
6202018 -0.9310097949877794 0.3750827689310515
6203300 -0.9308441407692167 0.3742371722441886
6204583 -0.9304628717571423 0.3752403400975991
6205866 -0.9313072407910713 0.37479327669976
6207149 -0.9304327915928343 0.37491757476634324
6208431 -0.9309152193111822 0.3749308965520097
6209714 -0.9309733466775036 0.37432779043353304
6210997 -0.9302985110964496 0.37547789612520116
6212280 -0.9315391189968367 0.3750307897816395
6213562 -0.9301214361107197 0.3749222699311209
6214845 -0.9305602135014072 0.3758955510726533
6216128 -0.9307087312370671 0.37549125346232726
6217411 -0.930177450427529 0.3766246594364057
6218693 -0.9307902517772902 0.3753378814407039
6219976 -0.9300886123514307 0.3753996310424428
6221259 -0.9305527610996527 0.3764466407023343
6222542 -0.9308910087802545 0.375440091401114
6223824 -0.9298897276140429 0.3764667514337993
6225107 -0.9305381146375167 0.3765527000131813
6226390 -0.9304975642868444 0.37576780086748357
6227673 -0.9301505851891222 0.37678426708439167
6228955 -0.9297138845111641 0.376144974890043
6230238 -0.9296544828042841 0.3770493199882605
6231521 -0.9302783324115187 0.3771152905277091
6232804 -0.9303789642110603 0.3760293259202693
6234086 -0.9301877391665372 0.376973187120107
6235369 -0.9298893405841999 0.3765427952943845
6236652 -0.9296407097087501 0.37666145990245575
6237935 -0.930200508431166 0.3769707598007336
6239217 -0.9296646173098732 0.37636520523794764
6240500 -0.9296303219283845 0.37801926005751085
6241783 -0.9301725102734418 0.3766918658128849
6243066 -0.9294847967706727 0.37687730916528445
6244348 -0.9299619121937073 0.37739304103120835
6245631 -0.9297468138911513 0.37652083139463466
6246914 -0.9293663915977775 0.3779309023131322
6248197 -0.9306033085792648 0.37634269860491154
6249479 -0.9288484348755648 0.3776913486839976
6250762 -0.9305078690193154 0.3787965942835441
6252045 -0.929909296873809 0.37661640103465066
6253328 -0.9291383374553956 0.37772866362381274
6254610 -0.9301710515660581 0.3773860732822975
6255893 -0.9294690963860682 0.377635905699683
6257176 -0.929321297268365 0.37855241336124795
6258459 -0.9299689978791719 0.37714496762298344
6259741 -0.9287521864008687 0.37799558984542536
6261024 -0.9305967187240299 0.37847112226204005
6262307 -0.9293040367097584 0.3785179036923812
6263590 -0.929320615431079 0.37790377214656024
6264872 -0.9297292172918957 0.37890766906265466
6266155 -0.9290098959744854 0.3776159233928463
6267438 -0.9291860771190783 0.3786434446620109
6268721 -0.9291777071814264 0.37863602647993955
6270003 -0.9293509597394561 0.37840017503916146
6271286 -0.9291974729159282 0.3787656513926556
6272569 -0.9296428310782525 0.3783002393913834
6273852 -0.9293439702868775 0.3781634284457944
6275134 -0.929396093136187 0.37994813867901
6276417 -0.9297430637930091 0.3786865424943518
6277700 -0.9294485059580058 0.37910844792674553
6278983 -0.9289030462520614 0.37944952443968993
6280265 -0.9296309811422447 0.37835469841684183
6281548 -0.9289740418296764 0.3799882275795004
6282831 -0.9298153150570739 0.37998172082212023
6284114 -0.9288413032946266 0.3787313055929084
6285396 -0.9282362153525939 0.38033858486080896
6286679 -0.9298032751438186 0.3793842646936142
6287962 -0.9290909955232469 0.37931555915247733
6289245 -0.9288526381408946 0.38045019086359244
6290527 -0.9296053636343196 0.379232979854393
6291810 -0.9277951245543931 0.37954322889472636
6293093 -0.9291077282979631 0.380861582169841
6294376 -0.9293474493113295 0.37893047176336503
6295658 -0.9274975590229871 0.38010294072470946
6296941 -0.9294612768346326 0.3804281595491411
6298224 -0.9289374365314166 0.37980153715649717
6299507 -0.9280983554201976 0.38011292450497947
6300789 -0.9291616947802785 0.3807428435524414
6302072 -0.9281890863404193 0.3803897078570516
6303355 -0.9278204225047187 0.38128824904014985
6304638 -0.9288186843679674 0.3799829864643132
6305920 -0.9278468872782454 0.38046033840677207
6307203 -0.9290940657059135 0.38094983591325804
6308486 -0.9287521709827304 0.37984757270723357
6309769 -0.9285257633984074 0.3817599728521985
6311051 -0.9286615272388612 0.38082285585215275
6312334 -0.9280278294895772 0.38085736671483694
6313617 -0.9285135980824961 0.3815796974914532
6314900 -0.9281410042350354 0.3809131018106889
6316182 -0.9284735476191066 0.38148881983122335
6317465 -0.9289089627329764 0.38125964096308995
6318748 -0.9281052203122737 0.38066801301619924
6320031 -0.9283681574001706 0.38243331328184754
6321313 -0.9290964919569439 0.38069177536043886
6322596 -0.9282574992794576 0.3815107333067653
6323879 -0.9288988309186523 0.3824710933505161
6325162 -0.9279771512188482 0.38085539400354723
6326444 -0.9270662294047951 0.3821120145467436
6327727 -0.9287504475034165 0.3828715639408339
6329010 -0.9277792385600554 0.3807205443529122
6330293 -0.9280465298819068 0.38296757883365756
6330293 -0.927931273988786 0.38184994142419215
6331602 -0.9276044383309483 0.3829057726973006
6332911 -0.9282785300926936 0.3811251723377263
6334220 -0.9270381032037537 0.38302804743033925
6335530 -0.9285008976187503 0.38272328224185237
6336839 -0.9279523850662277 0.38168085809746155
6338148 -0.9273923862664708 0.38305330946108995
6339457 -0.9283845643843389 0.3819869490032882
6340767 -0.9270091332961204 0.38211553987477576
6342076 -0.9281923820311712 0.38330744221086005
6343385 -0.9276652473932507 0.38240939492178677
6344694 -0.9273025875980643 0.3828730314694798
6346004 -0.9281154963504274 0.38273807648471286
6347313 -0.9273634049573285 0.38336563470578
6348622 -0.9276834722411382 0.3840165407570896
6349932 -0.9273948422759164 0.38247371999346347
6351241 -0.9275179952032411 0.38321552579353335
6352550 -0.9274827089575416 0.3828516841360265
6353859 -0.927091601005315 0.383758774527147
6355169 -0.928115001460986 0.38408945156030344
6356478 -0.9268266616280982 0.3830831376684511
6357787 -0.9276404882915744 0.38374652409023396
6359096 -0.9281551102396154 0.38274976030268115
6360406 -0.9265950067370012 0.38416370524493115
6361715 -0.9275189386418812 0.3845833992385765
6363024 -0.9272893044445697 0.38295102315903135
6364334 -0.9270958188878275 0.3842540652665583
6365643 -0.9281440144145925 0.38358394389515
6366952 -0.9262695849530798 0.38433630658771234
6368261 -0.928160385386049 0.3848271964356864
6369571 -0.9271508801122652 0.3836447014547451
6370880 -0.9267837994739382 0.38378351618641793
6372189 -0.9277656461039029 0.38421700885571913
6373498 -0.9264955511642099 0.38481969267050686
6374808 -0.9275970246574204 0.3847300009574761
6376117 -0.9268457023541486 0.38454016692955323
6377426 -0.9270243639162565 0.3847714199096697
6378735 -0.9275558643753988 0.38384575482118255
6380045 -0.9265842080227247 0.3852266307347197
6381354 -0.9275851693120141 0.3852449087853538
6382663 -0.926367683109664 0.384822067983749
6383973 -0.9267163534011204 0.38578356003124836
6385282 -0.9273530786215329 0.384224803252125
6386591 -0.9263034110832531 0.384881224626919
6387900 -0.9271597727107692 0.3856709963266787
6389210 -0.9266279788785955 0.38484677480071405
6390519 -0.9276735378055607 0.3858227132954946
6391828 -0.926910430532832 0.38490071571133627
6393137 -0.9268428580313351 0.3865326729023326
6394447 -0.9267803616636995 0.3851283376926881
6395756 -0.9261869953233945 0.38563768370524676
6397065 -0.9270615590374356 0.3857036670956005
6398375 -0.9260460422927655 0.38490198167482836
6399684 -0.9264465257852759 0.3867304891427774
6400993 -0.9271953460803377 0.3851901751192326
6402302 -0.925629493982342 0.38568509409315593
6403612 -0.9269178463451325 0.3867939510963853
6404921 -0.9262973956101948 0.38572182694069596
6406230 -0.9258415134263097 0.38710938300331854
6407539 -0.9275239378526732 0.38573203611989426
6408849 -0.9253015687978677 0.3860828088086128
6410158 -0.9263316093960888 0.38691501057531763
6411467 -0.9261658041857749 0.38596560217372333
6412777 -0.9260422683063445 0.38738860724239066
6414086 -0.9265842287028168 0.38652050955677014
6415395 -0.9256414457123218 0.3866594839358916
6416704 -0.9262055770494749 0.38704083239734
6418014 -0.9260017505547392 0.386069896535541
6419323 -0.9260572476619816 0.38726584558459903
6420632 -0.9265505214832431 0.3865466741528742
6421941 -0.926010522017479 0.3872474863932732
6423251 -0.926538923274438 0.3871680700567856
6424560 -0.9255456364447749 0.3872475071858623
6425869 -0.9262480037374426 0.38787078287902427
6427178 -0.9269609607247029 0.38658801990838265
6428488 -0.9252782654265788 0.3873642784618308
6429797 -0.9263181037461166 0.38849449769094074
6431106 -0.9257234545695507 0.3863239456676022
6432416 -0.9256870147812705 0.3877179913787095
6433725 -0.9266693390922784 0.38759076835558653
6435034 -0.9251036447371772 0.3872592471446652
6436343 -0.9258982673520104 0.38793358754487134
6437653 -0.9253975199052843 0.3874683485240028
6438962 -0.9256500800111808 0.3886664709966642
6440271 -0.9261181417507035 0.3879895064486033
6441580 -0.9248293646208463 0.38797153994381045
6442890 -0.925421520899009 0.38849412166799546
6444199 -0.9254103356006502 0.388169533059494
6445508 -0.9255176287328412 0.3888698034771344
6446818 -0.9261274509338667 0.3883240479999229
6448127 -0.9252968573766297 0.3887633418311302
6449436 -0.9254029586290238 0.38856207404538
6450745 -0.9250477806633635 0.3887116312128892
6452055 -0.9251921351539057 0.3894739707386864
6453364 -0.9258576280372637 0.3885104631528484
6454673 -0.9246020594441622 0.3890387753989117
6455982 -0.9257896225610429 0.3902170921029542
6457292 -0.9250567613141143 0.3888697614833756
6458601 -0.92450611081372 0.38944308702084135
6459910 -0.9260012270857304 0.3889399190832871
6461220 -0.9246805515153743 0.38868155058918746
6461220 -0.9250198812338999 0.38953473347279965
6462556 -0.9259632804554511 0.38866479682147365
6463892 -0.9244499267291107 0.38938105521420713
6465229 -0.9262357353665259 0.38940243761747195
6466565 -0.9248425235323768 0.38921783574473273
6467901 -0.9253888188268097 0.3905693778928405
6469238 -0.9250105289263298 0.39004204887157495
6470574 -0.9249209829907064 0.39019039080897305
6471910 -0.9253265993528682 0.3895511811345599
6473247 -0.9246570739510294 0.39014772561978867
6474583 -0.9260973228618242 0.38964266459997116
6475919 -0.9249126323306645 0.38992477789310215
6477256 -0.9253254885795853 0.39139901759110796
6478592 -0.9243496747397859 0.38960143454165
6479929 -0.9246560691464234 0.39091714604679373
6481265 -0.9251929655080045 0.38986885841090707
6482601 -0.9245158759005423 0.39085075845993134
6483938 -0.9256539032154505 0.39048341015403437
6485274 -0.9244613569172987 0.3900815999820845
6486610 -0.9248976106739439 0.3914217053170132
6487947 -0.9243477793720755 0.39045477702407977
6489283 -0.9246946684311576 0.3912450888954958
6490619 -0.9241034421197968 0.3908182313493192
6491956 -0.9245900636549749 0.39139625754145446
6493292 -0.9251550406360524 0.3910993770951911
6494629 -0.9240847150904602 0.39128645381743116
6495965 -0.9250591031963825 0.39102420028027196
6497301 -0.9242544262227662 0.3908635527104738
6498638 -0.9242702463707061 0.3920426197571986
6499974 -0.9248845211967895 0.3908864195843733
6501310 -0.9241112872544515 0.39183217794619896
6502647 -0.9251330200929818 0.39166256076511413
6503983 -0.9243624608366934 0.3922338619845765
6505319 -0.9244731115969532 0.39146039360861595
6506656 -0.9243560237367019 0.39146991929818126
6507992 -0.9238333254710583 0.3921315584021054
6509328 -0.9241244004730044 0.3916690671437697
6510665 -0.9238184109550571 0.3926353806098601
6512001 -0.9248164598168598 0.391678300196826
6513338 -0.9241416094977205 0.39254897282439283
6514674 -0.9244862802962113 0.3916427534564793
6516010 -0.9234819011764013 0.39226399731229167
6517347 -0.9238770143549426 0.3929749209489387
6518683 -0.924401068313118 0.39224588738469135
6520019 -0.9233632355111129 0.3928852661729889
6521356 -0.9236739933927721 0.3929334175310498
6522692 -0.9238289200177092 0.39237434866388865
6524028 -0.9239212463636235 0.39289918063006063
6525365 -0.9238248598856458 0.39279565227078256
6526701 -0.9236902234157041 0.39339371101900117
6528038 -0.9240564531030998 0.3926881415677465
6529374 -0.9238301957725928 0.3933484519442621
6530710 -0.9237885263170316 0.39309903620886566
6532047 -0.9231496374220541 0.39259873365152714
6533383 -0.9239082187033483 0.39317542566161573
6534719 -0.9232995928461903 0.3929075381315875
6536056 -0.9237143890922486 0.39371977546320525
6537392 -0.9232936926892392 0.3927473486082491
6538728 -0.9236049281570351 0.3941200765538568
6540065 -0.9241842277523813 0.3928862935425581
6541401 -0.9232933765554237 0.3943248757313547
6542737 -0.9243290058864418 0.39405709835511377
6544074 -0.9228309094532094 0.39328830688978417
6545410 -0.9238212055039166 0.3952443794962069
6546747 -0.9234285659153451 0.3932767926483051
6548083 -0.923488624747719 0.39536785156671983
6549419 -0.9236865566952421 0.3934576362991302
6550756 -0.9232429211901579 0.3950258984118416
6552092 -0.9238033102859116 0.3937910536075827
6553428 -0.9222296961169082 0.3944394029661994
6554765 -0.9239031817233324 0.394286912201427
6556101 -0.922910281459512 0.39414566932944073
6557437 -0.9240183936109663 0.39516392644672294
6558774 -0.9229521104862386 0.39385876901621597
6560110 -0.9226728555931936 0.3955196513933056
6561447 -0.9229802644816342 0.3943809291330454
6562783 -0.922732048691279 0.39540630664651016
6564119 -0.923178616116526 0.39510758318130573
6565456 -0.9229289733945494 0.3951216889502006
6566792 -0.9232775218392812 0.3946302445284701
6568128 -0.9225815547655829 0.394461140429196
6569465 -0.9232320548837885 0.39558132548388303
6570801 -0.9225808510347726 0.39491330463755736
6572137 -0.9227804350727409 0.3960035388341015
6573474 -0.9231871347984768 0.3952152346934514
6574810 -0.9225156799011109 0.39649777787975543
6576146 -0.9233473749156572 0.3953573254361904
6577483 -0.922293833531462 0.3960375988606199
6578819 -0.9227641479629691 0.39593537126930517
6580156 -0.9226309829413349 0.3967110609778797
6581492 -0.9225187547414252 0.39553019266421907
6582828 -0.922864987141259 0.3961810599359318
6584165 -0.9226130642724454 0.3952770842938575
6585501 -0.9220066036502745 0.39645935463072124
6586837 -0.9225528388736234 0.39628610133893355
6588174 -0.9221656125880281 0.39565429608054503
6589510 -0.9224496376742854 0.3969849377339262
6590846 -0.9227106777685951 0.39682789865855594
6592183 -0.9221597440039171 0.39702571805970494
6593519 -0.9223442257609187 0.39619207958859376
6594856 -0.9224016054740692 0.397394913588385
6594856 -0.9225628111255434 0.39773566910229635
6596219 -0.9226548024784289 0.39586654541333144
6597583 -0.9221394401606196 0.397359704339553
6598947 -0.9223500917496193 0.3963509226845442
6600311 -0.9217613437070997 0.3978790517341508
6601675 -0.9225345611362616 0.39733256373844406
6603039 -0.921612154391332 0.39780683505613185
6604403 -0.9231245876962162 0.3970669601234942
6605767 -0.9212569516159828 0.3972485647542885
6607131 -0.9227030618433456 0.3978809483104506
6608495 -0.9216226887176154 0.39645563086986896
6609859 -0.9224042013899469 0.39877167766820953
6611223 -0.922110310875318 0.39665778109068645
6612587 -0.9225037260221962 0.39846197361972063
6613951 -0.9220609878470969 0.39709820458529077
6615315 -0.9217266759118268 0.3982883127089701
6616679 -0.9219817512041523 0.3968577744306931
6618043 -0.9217434458617952 0.398771307771812
6619407 -0.9222805434754335 0.39793228051755114
6620771 -0.9212611961530618 0.39785396283119234
6622135 -0.922049895332231 0.39821099587447667
6623499 -0.9210400077669679 0.39763356422334467
6624863 -0.9218745192773501 0.3997092125887672
6626227 -0.9213776933727261 0.397559512138398
6627591 -0.921641546838546 0.3985170404488979
6628955 -0.9211882661467276 0.3987038676377297
6630319 -0.9215248223406146 0.39956766440944463
6631683 -0.9212162705283422 0.3986080841872686
6633047 -0.9215813110932681 0.39975950718209363
6634411 -0.9216550078736783 0.3974660690933588
6635775 -0.9207695899327751 0.39933049734813786
6637139 -0.9214774346229236 0.3977637723530092
6638503 -0.9216801451563285 0.39923352762957887
6639867 -0.921933501929561 0.3996103535937963
6641231 -0.9216197549086625 0.3987538262391782
6642595 -0.9209586260865814 0.39918873401240257
6643959 -0.9216406633970201 0.3991837675515937
6645323 -0.920898621954614 0.399972941610176
6646687 -0.9215999032473976 0.3995708119202106
6648051 -0.9213137440748836 0.4001453391051334
6649415 -0.9215765255677297 0.39907880503402365
6650779 -0.9205924071770852 0.3999213141153624
6652143 -0.9211982371250448 0.3994866986009649
6653507 -0.9206671845255681 0.40065047742550347
6654871 -0.9216750164649578 0.400328956757859
6656235 -0.9204942941045557 0.39926295064538775
6657599 -0.9212663761262666 0.4006650737707304
6658963 -0.9206097079604775 0.3994469200804286
6660327 -0.9212130432312613 0.4016995949629569
6661691 -0.9202552068932273 0.39955292151416705
6663055 -0.9208773084631112 0.401064890261588
6664419 -0.9209489319947045 0.39986489221008836
6665783 -0.9207392598416533 0.4013535700896845
6667147 -0.9207037166908971 0.40017276685817044
6668511 -0.9206387299363498 0.401557482068292
6669875 -0.9201954264192823 0.400708541586104
6671239 -0.9203171002146519 0.4017121127524023
6672603 -0.9212935910218072 0.4010375802899905
6673967 -0.9196754841040471 0.40135424257730395
6675331 -0.9214412421376035 0.4014812577567208
6676695 -0.920107859212333 0.40047288875856657
6678059 -0.9203873321640551 0.4018670880553011
6679423 -0.9203040558231789 0.4004038814239375
6680787 -0.9212079685356466 0.40229383269921076
6682151 -0.9199462567967719 0.4014787914161033
6683515 -0.9205541676781822 0.4018992829186812
6684879 -0.9195658428519717 0.4014889996671398
6686243 -0.9201647170365441 0.4025124924153509
6687607 -0.9205726008195021 0.40138421978029615
6688971 -0.9194289568556908 0.402691084016583
6690335 -0.9204020586802738 0.40201984925256457
6691699 -0.9193358548128755 0.40163606048391326
6693063 -0.9204788735162649 0.40239787249944414
6694427 -0.9201708240146049 0.40214573255390534
6695791 -0.9202183371645977 0.40220796620968996
6697155 -0.9199016844781529 0.40173621486592515
6698519 -0.9204857425930548 0.4027627410130386
6699883 -0.9197500704418364 0.40219470087657333
6701247 -0.9204607983466103 0.40270382388474113
6702611 -0.9203676290942383 0.40202428510589344
6703975 -0.9192338727352184 0.40316010593610263
6705339 -0.9201672596584229 0.40290225631718607
6706703 -0.9191083434154834 0.4029337953284901
6708067 -0.9207603234027356 0.40317702047211457
6709431 -0.9195023865792749 0.4027552817217686
6710795 -0.9196462917284441 0.40280226787309326
6712159 -0.9199132366722427 0.4025880437157094
6713523 -0.9203611540374439 0.40366492585993785
6714887 -0.9193993098360502 0.402770186367748
6716251 -0.9203103177500261 0.4039469728882993
6717615 -0.9195384699855231 0.4033892174408055
6718979 -0.9191306479070723 0.40383415031310305
6720343 -0.9196284889606151 0.4034344987986178
6721707 -0.9185263854352526 0.404234177927576
6723071 -0.9195619825264558 0.4038829582349202
6724435 -0.9190709642054337 0.4040979074825335
6725799 -0.9195217217154318 0.4044760945027249
6727163 -0.9190478510383268 0.40425205983296675
6728527 -0.9195487279907768 0.40443619764772454
6729891 -0.9187719984206402 0.40328911164902115
6731255 -0.9198723619650452 0.4040625690412854
6731255 -0.919533778121544 0.4047506038472082
6732647 -0.9182122540066199 0.4046161420454218
6734039 -0.9196213754612236 0.4045492322991864
6735431 -0.9185408293390784 0.404495672547385
6736823 -0.9196381462720525 0.4052395564452303
6738216 -0.9190274576008113 0.40454124563770616
6739608 -0.9195378980060894 0.4046809008039809
6741000 -0.9191430123621284 0.40423520154503967
6742392 -0.9192207416611984 0.4047853244946165
6743784 -0.9182980928980284 0.4051810017953604
6745177 -0.9188251294835252 0.4049524005399092
6746569 -0.9182522355686746 0.40504111405833565
6747961 -0.9194345349027828 0.40558488729204817
6749353 -0.9188199599048882 0.4044426573082779
6750745 -0.9191971736060549 0.40516256789499894
6752138 -0.91905210153962 0.40507553342251734
6753530 -0.9189229725614134 0.40510453260096685
6754922 -0.9186968896912565 0.405429526888887
6756314 -0.9196500030955475 0.4049696563763912
6757706 -0.9185464205182944 0.405590838731337
6759099 -0.9193466948324232 0.40625825982459485
6760491 -0.9180833916365709 0.405379671952898
6761883 -0.9186331867717434 0.40612915386385223
6763275 -0.9187694735375488 0.40568628015998304
6764668 -0.919186875609487 0.40616951569860515
6766060 -0.9186124078249418 0.40683966954156764
6767452 -0.9187880566392983 0.40644521960532215
6768844 -0.9180247559401313 0.4069397577489768
6770236 -0.9181873398260192 0.4066352260382721
6771629 -0.9185117475479522 0.40662967894709723
6773021 -0.917613553144478 0.4061783451088383
6774413 -0.9185097330042259 0.40729721476385156
6775805 -0.9181933257213597 0.4067742292682536
6777197 -0.9182478877796165 0.4073576014147946
6778590 -0.9180329542912419 0.4061747692407081
6779982 -0.918136848180045 0.4072069480709014
6781374 -0.9180214029118482 0.4071120496717498
6782766 -0.9179794866731328 0.40761180197956476
6784158 -0.9176465991967853 0.4076553142191378
6785551 -0.9186072948698795 0.40785885196356325
6786943 -0.9174223057290843 0.40735155478310364
6788335 -0.917873482216744 0.4083743042036223
6789727 -0.9169870832634859 0.407318861816051
6791120 -0.9177106022307786 0.40767106770784073
6792512 -0.9170318206983964 0.40787674114768663
6793904 -0.9178959950592543 0.40741343266799873
6795296 -0.9165354584354151 0.40803171045071923
6796688 -0.9191560618008987 0.4079251473559286
6798081 -0.9170237048430105 0.40804555605575565
6799473 -0.9176347780220605 0.4079504441497295
6800865 -0.9172430604093275 0.4083785477869472
6802257 -0.9181167995766948 0.4088476870007885
6803649 -0.9177297114385756 0.4077971064604207
6805042 -0.9174902724533008 0.4089339933771534
6806434 -0.9175321788132589 0.40779758384314746
6807826 -0.9178235999898925 0.408720093059731
6809218 -0.9175092268265175 0.40844946711633107
6810610 -0.9177506060726794 0.4094925311135185
6812003 -0.9174748081818351 0.40877588624654976
6813395 -0.9181828457318968 0.4092821402160704
6814787 -0.9168574034305185 0.40862138340776316
6816179 -0.9177287191919788 0.40888881389888027
6817572 -0.9172137589005045 0.40869855904085955
6818964 -0.9173980725810489 0.40930569686512247
6820356 -0.9169347745980447 0.4089729429029972
6821748 -0.917271413199129 0.40864397964599464
6823140 -0.9169429980308966 0.4098195098990608
6824533 -0.9178882723211325 0.4096538405895319
6825925 -0.9166285278617716 0.4091542812881741
6827317 -0.9170619470035678 0.4097218124255064
6828709 -0.9171922543584096 0.4092172856789888
6830101 -0.916383051649002 0.41010372115859667
6831494 -0.9172777038542698 0.41013627953614834
6832886 -0.9167498443459243 0.40974997782977524
6834278 -0.9166720340754483 0.410334467646582
6835670 -0.9164954617842288 0.40985638686389514
6837062 -0.9164549488564645 0.40983507233035826
6838455 -0.9164343365681473 0.41049936791699154
6839847 -0.9171797213515842 0.41058211021573426
6841239 -0.916444627586121 0.41046969861615534
6842631 -0.9175958613242924 0.4104236334437212
6844024 -0.916480642086594 0.41011277151536263
6845416 -0.9165353334098354 0.41117888014878323
6846808 -0.9167502604645185 0.41070899149679835
6848200 -0.9167058691775413 0.41033308790653644
6849592 -0.9162939280466272 0.41077907314257023
6850985 -0.9170794503400518 0.4107475100850282
6852377 -0.9151229289450435 0.41126349262262224
6853769 -0.9169539909379089 0.4117429103228832
6855161 -0.9156371116549031 0.4103980184251858
6856553 -0.917219148160049 0.4116987145856285
6857946 -0.9163209139708929 0.4110382156988889
6859338 -0.9170179502092751 0.4114283529912085
6860730 -0.9151121087040653 0.4115672681114865
6862122 -0.9171628256764611 0.41174112903534027
6863514 -0.9157200385039264 0.4115032777473159
6864907 -0.9171956689866084 0.4116774891426636
6866299 -0.9155263865493201 0.41111712453376226
6867691 -0.9163733321400614 0.4123123471835635
6869083 -0.9161198727988688 0.411001689205778
6870476 -0.9159600187982192 0.4117573342907054
6870476 -0.9155440022142666 0.4123458364009677
6871897 -0.9164141431667898 0.41238546496292106
6873318 -0.9162426184558226 0.4113174524761728
6874739 -0.9165070049782295 0.4125558644267758
6876160 -0.9154094566947245 0.4120010902605418
6877581 -0.9162579560338885 0.4128581798569006
6879002 -0.9161209357431229 0.4125463910139325
6880423 -0.9165470987288556 0.41199572209218965
6881844 -0.9158311679124667 0.41236556971519156
6883265 -0.9155204118450511 0.41232169319957096
6884686 -0.9162563661978848 0.4133208752766619
6886107 -0.9162343869676733 0.4118196523332188
6887528 -0.9158886566230852 0.41338158731354535
6888949 -0.9156277772049508 0.4117861578962589
6890370 -0.9161682218928101 0.41397657094207524
6891791 -0.9151432036290157 0.41205646686198444
6893212 -0.9154989477109511 0.4138782773726129
6894633 -0.9151658455089342 0.412661599683495
6896054 -0.9161194429030681 0.4133522634198436
6897475 -0.9151559374959771 0.4125313843570758
6898896 -0.9157275691141296 0.4142119879345724
6900317 -0.91502660208734 0.41400036632392145
6901738 -0.9161738517985211 0.413644680298701
6903159 -0.914600747598251 0.41372108270626357
6904580 -0.916014093439339 0.41381814273766243
6906001 -0.9151087057190473 0.41381408181000007
6907422 -0.9157974367259782 0.41320583197957206
6908843 -0.915277245795315 0.41349311820804485
6910264 -0.9154498608161014 0.41359588530473246
6911685 -0.9150247901837524 0.41404451084483557
6913106 -0.9145720595015621 0.41328566860645144
6914527 -0.9151787283342334 0.4146033105316413
6915948 -0.9151751723059169 0.41344876838545713
6917369 -0.9153919317883877 0.4151522598822115
6918790 -0.9147471665191039 0.41384430405107187
6920211 -0.9153269401973283 0.41522734809281586
6921632 -0.9143696861120167 0.4141896485387056
6923053 -0.9158686401821418 0.41533458998116085
6924474 -0.9147811566319985 0.4150919228946426
6925895 -0.9157418333498905 0.41522558963222367
6927316 -0.9141857757035046 0.41459841925037816
6928737 -0.9147509018741657 0.41524792031710384
6930158 -0.9146576916423277 0.41493747310898593
6931579 -0.914985177605165 0.4153948574654743
6933000 -0.9143750896203455 0.41529932704428324
6934421 -0.9152316611900386 0.41588420109889934
6935842 -0.9147581054392275 0.4150221162984038
6937263 -0.9143243216076266 0.4160553812491422
6938684 -0.9148403004730192 0.41573102554283603
6940105 -0.9136756780081613 0.41543434490586206
6941526 -0.914732226364238 0.41581980400968305
6942947 -0.9140261055793173 0.415583322461379
6944368 -0.9146327564931761 0.41693479879172624
6945789 -0.9140035341105793 0.4148914630569816
6947210 -0.9149000492715649 0.41711295216727945
6948631 -0.9138626185691064 0.4164788791018519
6950052 -0.9147195726131463 0.4166679607094602
6951473 -0.9138242906935765 0.4163050209752005
6952894 -0.9149145124030853 0.4174735358937713
6954315 -0.9142626517949739 0.4157719952581167
6955736 -0.9143384601605382 0.41683665015113586
6957157 -0.9142224492606615 0.41652923591680335
6958578 -0.913868992528879 0.41621386162385643
6959999 -0.9146894544359356 0.41786173738714805
6961420 -0.9134562328163655 0.4161567852172215
6962841 -0.9140174198297591 0.4173039657887062
6964262 -0.9136673908200734 0.4171877228321368
6965683 -0.9136864442941937 0.41732382555475506
6967104 -0.9136617777492525 0.41731557907818
6968525 -0.9148299439651566 0.4185152185462932
6969946 -0.9132390800167762 0.4172969770831907
6971367 -0.9140959777091399 0.41801106438476193
6972788 -0.9137595641167934 0.4177160830538103
6974209 -0.9137541482881597 0.41782846010910935
6975630 -0.9138291027748235 0.41802185918690343
6977051 -0.9139880774871701 0.4175231161582473
6978472 -0.9137027916863185 0.4183214018952586
6979893 -0.9139145107587792 0.4171720624851525
6981314 -0.913135805607336 0.4184331189042333
6982735 -0.9139731944894575 0.418588445781506
6984156 -0.9141491078212975 0.4184418292541961
6985577 -0.913194935892371 0.4183088461756087
6986998 -0.9149172349506992 0.4185547693886869
6988419 -0.9130404565051741 0.4181014494622989
6989840 -0.913784930379907 0.41919467253609566
6991261 -0.9129661176875582 0.41826437730537924
6992682 -0.91360535373794 0.4181206844780303
6994103 -0.9139459683128249 0.4185390873675709
6995524 -0.9135781065838389 0.4182343523389728
6996945 -0.9129608013472542 0.41921663971997697
6998366 -0.9135423334260836 0.4174529860177501
6999787 -0.9132033596964054 0.4197847998676488
7001208 -0.9132959191774019 0.41846234212832223
7002629 -0.9129831162070555 0.41957054057015397
7004050 -0.9128507289560175 0.4191654853755491
7005471 -0.9136895596415835 0.4200425180760008
7006892 -0.9131925240403687 0.41895379639531755
7008313 -0.9129819260629632 0.4198660698497214
7009734 -0.9127069567466769 0.41922316466914483
7011155 -0.9126506525148168 0.4195752389808736
7012576 -0.9127295780389381 0.41952545440354544
7012576 -0.9123295899318916 0.41910808154368534
7014026 -0.9125006221854446 0.419271779944226
7015476 -0.9135287374843353 0.42095026937721564
7016927 -0.9121927370874945 0.4192540864585119
7018377 -0.9132841892914317 0.42074363897143235
7019827 -0.9125077312320486 0.4190328830315721
7021278 -0.9133969996569374 0.420271664575262
7022728 -0.9127953483090834 0.420398596196027
7024179 -0.9130722658920081 0.41934431381745324
7025629 -0.9117113656019006 0.421172605517516
7027079 -0.913071203205827 0.4190954351990864
7028530 -0.9125151587486772 0.42106874742741096
7029980 -0.9125928135559209 0.4195540114273614
7031431 -0.9131926020880703 0.4215871376323904
7032881 -0.9118609169454859 0.4200632024057828
7034331 -0.9134570432937056 0.4205164243002577
7035782 -0.9121885863563093 0.4205303722290425
7037232 -0.9132640190223403 0.4211051266838173
7038683 -0.9121002219291308 0.420528701093423
7040133 -0.9122029307522053 0.420837113206929
7041583 -0.9123574796793312 0.4215639261517685
7043034 -0.9115921961486882 0.4203512940624129
7044484 -0.9126570143239392 0.4224998491247359
7045934 -0.9121851216033513 0.4207297283779732
7047385 -0.9120406660963525 0.42208814422935254
7048835 -0.9119474343935504 0.4218459694931758
7050286 -0.9127418588474031 0.4214444596354026
7051736 -0.9114173622239122 0.42214418207659427
7053186 -0.9127013046843585 0.42164474755271436
7054637 -0.911428737504822 0.4223066930474835
7056087 -0.9116143806649 0.421661036646565
7057538 -0.911561333902274 0.4223590949360802
7058988 -0.9113728637017255 0.42217281120790207
7060438 -0.9126036986323098 0.42324454392321126
7061889 -0.9116062270443244 0.42117099392754875
7063339 -0.9119866385699132 0.4226288304833431
7064790 -0.9114107070534422 0.42229724298155735
7066240 -0.911992747262605 0.4225468525631137
7067690 -0.9114308503185413 0.42276533769173713
7069141 -0.9119993226114405 0.42144249905115894
7070591 -0.9112982897701054 0.42346858032895024
7072041 -0.910968091968511 0.42259603130736606
7073492 -0.9118039028567778 0.4239184974431835
7074942 -0.9117680495707539 0.42254329058535506
7076393 -0.911928799935801 0.42325656046204857
7077843 -0.9111815468785578 0.4235546576840763
7079293 -0.9116733749776936 0.4237698770433755
7080744 -0.9110067055805962 0.42274308472532446
7082194 -0.9119302620271127 0.4246634616913368
7083645 -0.9113377940455436 0.42295850989898737
7085095 -0.9115169218256028 0.42420514065803067
7086545 -0.9109661344023432 0.42400234979010476
7087996 -0.9116180923323693 0.4232042654920053
7089446 -0.9111734072320926 0.4250614012078012
7090897 -0.9111473353135464 0.42283775456854916
7092347 -0.9107033831650987 0.4244289261508911
7093797 -0.9111679893918964 0.42311006803928863
7095248 -0.9116672151219052 0.42458786444241114
7096698 -0.9110611041982615 0.4238529117850639
7098149 -0.9118924506908767 0.42425105019497755
7099599 -0.9102574033531037 0.42427647234427934
7101049 -0.911521908827755 0.42428838757401605
7102500 -0.9104218858265232 0.424431428262489
7103950 -0.9109156420077573 0.42380414110810327
7105400 -0.9108730114513636 0.4250760310160738
7106851 -0.9097694231831348 0.42413452517093264
7108301 -0.9107089429758304 0.4257331108978522
7109752 -0.9105504275484225 0.42416831111830794
7111202 -0.9110429331264976 0.4256788015896193
7112652 -0.9106064997888642 0.42494153843851795
7114103 -0.9115439677727033 0.4252331943723261
7115553 -0.9099348698359966 0.4251137767927797
7117004 -0.9105548905243144 0.4246194789268925
7118454 -0.9092377580784399 0.4260620909667521
7119904 -0.9108341217692837 0.42413457683445766
7121355 -0.9099898250367561 0.4258293294229578
7122805 -0.9100391168492878 0.4250898175546038
7124256 -0.9114610106909133 0.42565478415351826
7125706 -0.9099401323528845 0.42554142582086546
7127156 -0.911250979952482 0.4259860434812663
7128607 -0.9095916853552068 0.42585892416180243
7130057 -0.9104466780476459 0.4255716516322568
7131507 -0.9096852081297375 0.4259292035488043
7132958 -0.9095312229884366 0.4254688848175832
7134408 -0.9098724272050381 0.427269347179161
7135859 -0.9101651449648487 0.42545736014029817
7137309 -0.9100538813655434 0.426575187405852
7138759 -0.9094457601907812 0.4265501769148829
7140210 -0.9100172877063399 0.4266355946420564
7141660 -0.9094686746585623 0.4273001799942289
7143111 -0.9106609427824152 0.4261940436621379
7144561 -0.9089220919266064 0.4274655436086547
7146011 -0.9100853789298512 0.4258875843369389
7147462 -0.9096130073252484 0.42703636450266064
7148912 -0.9092854476142578 0.4264857293215991
7150363 -0.9105122015150392 0.4277349611656325
7151813 -0.9088629885258002 0.42623513336735425
7153263 -0.9106786891766381 0.4279984855267881
7154714 -0.9093295740440758 0.42625208514864305
7156164 -0.9099518498721503 0.4277181816062675
7157615 -0.9097893004680944 0.42664775304743596
7157615 -0.910215909260198 0.4265752738069455
7159095 -0.9097116874890704 0.4280861835906724
7160575 -0.9089912685504149 0.4270434929817157
7162056 -0.9098273639874966 0.42756066250291874
7163536 -0.9090747217777756 0.4282919816763401
7165016 -0.909615723819844 0.4270970372824985
7166497 -0.9097587001826589 0.42853918516359674
7167977 -0.9091681347017001 0.4277885346267649
7169458 -0.9097848483775406 0.4278350311945162
7170938 -0.9083090654796566 0.4282367277305092
7172418 -0.9090080893610639 0.42735395722118963
7173899 -0.908790541665029 0.4286431414100382
7175379 -0.9093960402323324 0.4281183909420444
7176860 -0.909526964556199 0.42879405720907937
7178340 -0.9091612378595564 0.4283576270596411
7179820 -0.909433077823477 0.4287119435805742
7181301 -0.9082899761918138 0.42917809198183277
7182781 -0.9093998664780665 0.42782014258241213
7184262 -0.9091779024259835 0.4295330392166151
7185742 -0.9093338635805943 0.4288358265905411
7187222 -0.9091339637933695 0.4293353060207156
7188703 -0.908000607978363 0.4290034937010373
7190183 -0.9091089103942053 0.4288308648945499
7191663 -0.9083557411590646 0.4297616019957463
7193144 -0.90931009210654 0.4289825758562614
7194624 -0.9094309691267446 0.43036580553035036
7196105 -0.90820969097062 0.4288547881696953
7197585 -0.9091287557033565 0.4297543449186004
7199065 -0.9081342530549122 0.42916683731493527
7200546 -0.9084670593277968 0.4295104324895034
7202026 -0.9095977933538891 0.431407943258932
7203507 -0.9084047909439603 0.4292489670786237
7204987 -0.9088255352523648 0.4302860753041386
7206467 -0.9076479943381609 0.4297065218922648
7207948 -0.9083306000259397 0.43011399971085257
7209428 -0.9088323472613442 0.43109140441931926
7210909 -0.9083061205081499 0.4294031470457104
7212389 -0.9085708454565866 0.4312857466648736
7213869 -0.9083236530870676 0.42990373982577723
7215350 -0.9077236871850319 0.43028574559634275
7216830 -0.9084123331773412 0.4315027469704988
7218310 -0.9085068776673783 0.4295377618821439
7219791 -0.9082262045549945 0.43189121307564454
7221271 -0.9082381978855412 0.43025973054527034
7222752 -0.9079083232722642 0.4316042441430531
7224232 -0.9080196515153698 0.43149833706472696
7225712 -0.9087330407341644 0.43044768039573084
7227193 -0.9072576428591456 0.4314508276037441
7228673 -0.9077198113846978 0.43087839622609636
7230154 -0.907923831042725 0.43103298304033094
7231634 -0.9080682432070806 0.4322436399201467
7233114 -0.9081520928880275 0.43144969659573984
7234595 -0.9074020713059744 0.4317363668273077
7236075 -0.9074728341567135 0.4311048365676724
7237556 -0.9074889190894169 0.43197756136073623
7239036 -0.9079453769790059 0.4317837855006214
7240516 -0.907552052742031 0.43172533939813207
7241997 -0.9074177354104831 0.43222485276757044
7243477 -0.9073879292570903 0.43191711985697034
7244958 -0.9066696872998846 0.43253556121171965
7246438 -0.9075864357430923 0.4319816493241182
7247918 -0.9072617433451979 0.4318490484948829
7249399 -0.9071088647987392 0.43248698425476095
7250879 -0.9074851721928983 0.4317828484577886
7252359 -0.9072423199802064 0.4327711365232546
7253840 -0.9072066057144218 0.43295205168524636
7255320 -0.9064753057132948 0.4327170676323637
7256801 -0.9067683684319111 0.43358556260552983
7258281 -0.9077093464881365 0.4324764021936397
7259761 -0.9069504345272772 0.43340660054789687
7261242 -0.9072588672326667 0.4329880909988352
7262722 -0.906800884696944 0.4328423278880057
7264203 -0.9063274782903548 0.43346620540868397
7265683 -0.907096281194079 0.4329166995143222
7267163 -0.9067631812934803 0.4342312756632609
7268644 -0.9071186091291674 0.4334246569706965
7270124 -0.9075772334281835 0.4336807618847109
7271605 -0.9064542431658142 0.43404020544965055
7273085 -0.9075969339484609 0.4327357086619167
7274565 -0.9069619116551981 0.43457658688910134
7276046 -0.907044352294691 0.4331542058920858
7277526 -0.9065312963208195 0.4333974834416264
7279006 -0.9057961528510393 0.43445037874954323
7280487 -0.9067390362242784 0.43321813151263955
7281967 -0.9062892148577787 0.43463223802803863
7283448 -0.9066729886638321 0.4340610798529475
7284928 -0.9070978090537171 0.4342625479802821
7286408 -0.906381375783281 0.43439749213556395
7287889 -0.9066655561764239 0.4342621650550221
7289369 -0.9062928339122628 0.4350163416894271
7290850 -0.9061821888015602 0.4348657794308221
7292330 -0.9069705683114488 0.43419573619632085
7293810 -0.9063218284804386 0.4346175595551266
7295291 -0.9059616024777589 0.4346574930796963
7296771 -0.9058692678803152 0.4349735563344242
7298252 -0.9055503129320986 0.4351604582392308
7299732 -0.9061699275945256 0.434918506545851
7301212 -0.9063798318678781 0.4354376351325403
7302693 -0.9064966976845552 0.43555102228230125
7304173 -0.9061466683184253 0.43518601809038937
7305654 -0.9056394056331492 0.4353503629634145
7305654 -0.9060197157664492 0.43504023793423136
7307165 -0.9066935317890691 0.4358540510464164
7308676 -0.9050798414164192 0.435834522782963
7310187 -0.9070619493552927 0.4346964944972811
7311698 -0.9061539236346302 0.4365577085553516
7313209 -0.905640015979462 0.4353941057262976
7314720 -0.9060238426918886 0.4354729154260943
7316231 -0.9050740409595344 0.4369404026433908
7317742 -0.90640985094115 0.4355073116626398
7319253 -0.9057045631833441 0.43669643024357446
7320764 -0.9052615468777284 0.43641311505600594
7322275 -0.9064122698280567 0.43506491845574974
7323786 -0.905987898110133 0.4376549283531105
7325297 -0.905442097546152 0.43597568991450486
7326808 -0.9055495805117882 0.4369006473051984
7328319 -0.9049006547199815 0.437748266715713
7329830 -0.9056639928432831 0.4363587633723069
7331341 -0.9053371659736381 0.43745323134854436
7332852 -0.9052171547184759 0.43671093202923816
7334363 -0.9055172053795862 0.4365048756718038
7335874 -0.9050819270724042 0.4372336811483339
7337385 -0.9048754852666853 0.4366831016676263
7338896 -0.9055417333160715 0.4380193881005837
7340407 -0.9054540025407734 0.43719591720950574
7341918 -0.9051461137938728 0.4371588523242237
7343429 -0.905005820893595 0.43713071721080693
7344940 -0.9046998027739043 0.43710843403510985
7346451 -0.9056318354420982 0.43831296363926403
7347962 -0.9045412374614774 0.4376969270123819
7349473 -0.9049000511891621 0.4371882149975177
7350984 -0.9051702449863529 0.4377937838336209
7352495 -0.9041831930674994 0.4378149833421223
7354006 -0.9048971852045664 0.43859102289532786
7355517 -0.9042814743892501 0.4381804780997873
7357028 -0.9051172256685903 0.43795898796186505
7358539 -0.9051480350661956 0.43826576296343633
7360050 -0.9040419258197689 0.4386978411691133
7361561 -0.9050391833887371 0.4383942068960786
7363072 -0.9046244900961244 0.4381311398875673
7364583 -0.9045663623837684 0.438485152027756
7366094 -0.9040165477169757 0.43861678044799535
7367605 -0.9036750639282833 0.43909629007256945
7369116 -0.9047472690157511 0.4380880506470001
7370627 -0.9041650437499089 0.43962697836960635
7372138 -0.9043395972190219 0.4383652025636406
7373649 -0.9046040213920988 0.4391947595328859
7375160 -0.9044289957027423 0.439508604139146
7376671 -0.9045815436523016 0.4382810535680449
7378182 -0.9040307940588671 0.4397336792302016
7379693 -0.9044512861100625 0.43886807974396624
7381204 -0.9043983490404338 0.4392456539858286
7382715 -0.9042531756411973 0.4401563791153966
7384226 -0.9037401668423787 0.43901591113226984
7385737 -0.9047120112327258 0.43997813727535123
7387248 -0.9029980452747921 0.4398909511316915
7388759 -0.9048334447253901 0.43925682117908865
7390270 -0.9039334485691448 0.4407151463594673
7391781 -0.9036040631465797 0.4387049573516511
7393292 -0.9039094506018065 0.4403246367101447
7394803 -0.9035163985504382 0.4407368246273932
7396314 -0.9039731238400249 0.43968481697780243
7397825 -0.904202758328916 0.4409217033954114
7399336 -0.9031192457686726 0.4404361982670045
7400847 -0.9042109950013909 0.44016467266688214
7402358 -0.9032149102673933 0.44130887572634203
7403869 -0.9041679242491629 0.44007298673658474
7405380 -0.9045826878985233 0.44105486286645024
7406891 -0.9031752255765843 0.4415212926514934
7408402 -0.9039521627784266 0.44007648630255974
7409913 -0.9032671905253681 0.44193593585207697
7411424 -0.9033792560171179 0.4408732171784182
7412935 -0.9033256804143203 0.44099032610639927
7414446 -0.9025896217772629 0.4426762701116171
7415957 -0.9036361280588232 0.43992352782013594
7417468 -0.9032678575892097 0.4416779204999872
7418979 -0.902786237657037 0.4414668408430463
7420490 -0.9036616599705427 0.4409508228028288
7422001 -0.9031958250271854 0.44292475150385496
7423512 -0.9029616182916872 0.4414958352661523
7425023 -0.903238650337027 0.44189213001702565
7426534 -0.902078810502855 0.4426061595938419
7428045 -0.9037774898442666 0.4413869364829374
7429556 -0.903003439122791 0.4431848324065834
7431067 -0.9022738861569418 0.4415229398666253
7432578 -0.9034799887620403 0.44259093159826585
7434089 -0.9029369396649901 0.4432035760242312
7435600 -0.9028069441973937 0.4413902153481267
7437111 -0.903851844771242 0.4435422692141962
7438622 -0.9017838187201348 0.442154089152323
7440133 -0.9037139082243334 0.4426276518696673
7441644 -0.9033091594318595 0.4438209322416891
7443155 -0.9020557631397481 0.44239524666236574
7444666 -0.903536823803904 0.4433931941638579
7446177 -0.9016629816465359 0.4432949665141812
7447688 -0.9029006317694733 0.4417938906613105
7449199 -0.9029084630211703 0.44415269005590724
7450710 -0.9017461329493164 0.44255950982063064
7452221 -0.9026755605332301 0.4434162643974283
7453732 -0.9022474287896299 0.44343358696373086
7455243 -0.9023337347673898 0.4428419606003052
7456754 -0.9027813483456152 0.4443604223368185
7456754 -0.9021689858009134 0.443112722222396
7458296 -0.9024934258234727 0.44364321728995626
7459838 -0.902207145024818 0.4441459151656895
7461380 -0.9023025737767592 0.44330576983405984
7462923 -0.9024819883306014 0.44361184763580935
7464465 -0.9017405491312707 0.4448658263049639
7466007 -0.9025802852156716 0.443584822635359
7467549 -0.9024339575653485 0.4445663861622642
7469092 -0.9016940297080321 0.4443606341674069
7470634 -0.9018180436686252 0.4432557333119634
7472176 -0.9020022758361967 0.44517947753429044
7473718 -0.9012011125104319 0.4439922881690265
7475261 -0.9015214434079513 0.4443953462621627
7476803 -0.9016507347366609 0.4456112082527346
7478345 -0.9007534361246671 0.4444609585924057
7479887 -0.9028126378216789 0.4444095250266497
7481430 -0.9012614420934567 0.4458457458341898
7482972 -0.9015779115875519 0.4448236317497822
7484514 -0.9022141688257272 0.4448449395062141
7486056 -0.9010970691220831 0.44591946788161524
7487599 -0.9017966163716032 0.44515960266685345
7489141 -0.901526715893496 0.4444948299623126
7490683 -0.9008133485726733 0.4460295922418599
7492225 -0.9011277929991911 0.44492499949193925
7493768 -0.9020034595693649 0.4456666298484985
7495310 -0.9014788522596998 0.44615000442572816
7496852 -0.9011482162908764 0.4452127175850073
7498395 -0.9015993052365251 0.4461675446997784
7499937 -0.9007045380991943 0.44660212162666857
7501479 -0.9009411197890697 0.445504793980194
7503021 -0.9020485383857699 0.4469280170831718
7504564 -0.9002800659961744 0.4468446201665854
7506106 -0.9002155114339317 0.44569679183318417
7507648 -0.9014136572692244 0.4468329744334847
7509190 -0.8997215999344922 0.4470036187560046
7510733 -0.9008622221846831 0.4453009066451202
7512275 -0.9011243997936639 0.4473364229898362
7513817 -0.9003706122436683 0.4469777026582043
7515359 -0.9011999213131789 0.44655540067982114
7516902 -0.9007059616712396 0.4482569304550859
7518444 -0.9006983645501099 0.44662135690460325
7519986 -0.9015164243561982 0.44697311903943077
7521528 -0.9006015424058086 0.44770364305896787
7523071 -0.8999378948092793 0.4477305528169079
7524613 -0.901372265901402 0.4470182671319091
7526155 -0.9006323575259384 0.4476773087504797
7527697 -0.9000643293638368 0.4472715113673071
7529240 -0.9011535390152889 0.4481976580141377
7530782 -0.8997024081654152 0.4483526911832258
7532324 -0.8999060784104626 0.4477200703787034
7533867 -0.9016219000972817 0.4480526395387695
7535409 -0.899388851303042 0.44798315729437466
7536951 -0.9003370892309807 0.44805219795376844
7538493 -0.9005415100107796 0.447093990975054
7540036 -0.9002935695326728 0.44859736352872853
7541578 -0.8998136746298301 0.4482277763992661
7543120 -0.9003877426178974 0.4483844471926902
7544662 -0.8996976669933544 0.4491362614699616
7546205 -0.9002198796175708 0.447683307852282
7547747 -0.8998720014353859 0.4487651939374406
7549289 -0.8996517512861419 0.4492661203564813
7550831 -0.8995991311290786 0.4479748584961788
7552374 -0.9004834785782267 0.4488737975890089
7553916 -0.8992745025507695 0.4495883664281229
7555458 -0.8996162636477619 0.4486718126466551
7557000 -0.9001185282740002 0.4499018019369729
7558543 -0.8997615620234753 0.44958276554359533
7560085 -0.9004611450434412 0.4492029018341152
7561627 -0.8995488161560513 0.45056635076192614
7563169 -0.8994031895145829 0.44953987078667856
7564712 -0.8991766934888811 0.44875371189332586
7566254 -0.899299604214333 0.4499843514665588
7567796 -0.8990174341812048 0.4497522616520177
7569338 -0.8997113846597806 0.4492889879420979
7570881 -0.8992769602905129 0.4507077458090725
7572423 -0.8988357483672268 0.4490625880408633
7573965 -0.899492879898048 0.4505047648675092
7575508 -0.8987956097968355 0.45109649285325903
7577050 -0.8990831569671064 0.45048113703597154
7578592 -0.8999769752546767 0.4505698676942803
7580134 -0.8987729352505052 0.45094471101405986
7581677 -0.89900985618198 0.44961557618297393
7583219 -0.8994129589213812 0.4508349590154592
7584761 -0.8978658033220582 0.4511236509094742
7586303 -0.898576036074894 0.45046272717885305
7587846 -0.8992937729634384 0.45123623008292457
7589388 -0.8981658613885143 0.45167638328481974
7590930 -0.8993479534574114 0.45070659912072736
7592472 -0.898963761109765 0.45223424477013674
7594015 -0.898619045816781 0.45157740633216237
7595557 -0.8993804945191052 0.4510541551411817
7597099 -0.8990224641784885 0.4520922509677793
7598641 -0.8982382736237843 0.4509067711318145
7600184 -0.8990627764117115 0.4511648636576722
7601726 -0.8987060584987812 0.4519556272531755
7603268 -0.8984697692491721 0.4514331338041604
7604810 -0.89919912625424 0.4519918977475525
7606353 -0.8977896871234983 0.45235365578959036
7607895 -0.8986116326718204 0.4512710140314349
7609437 -0.8988145514327949 0.4523553905733859
7610980 -0.8976498389041524 0.45246866293461563
7610980 -0.897559886834909 0.45200746068432174
7612554 -0.8983421494058323 0.4514499597840863
7614128 -0.8986149515048866 0.45307652504865886
7615702 -0.8974171023149026 0.45278472036872297
7617276 -0.898498857244735 0.45211304730766405
7618850 -0.8983062652668331 0.4523636867224284
7620424 -0.89850519904021 0.4534824183936886
7621999 -0.8973720436676973 0.4525874234978318
7623573 -0.8982402271910884 0.4518729808712146
7625147 -0.8985732263002694 0.4528397465074285
7626721 -0.8970330939536046 0.4534745923077713
7628295 -0.897439178597059 0.4526210361344665
7629869 -0.8982070647647186 0.4530826893660027
7631444 -0.8972660222361819 0.4543253029474528
7633018 -0.8971576359334431 0.45283074906991805
7634592 -0.8975607999263652 0.45348991361849533
7636166 -0.8979244906889866 0.4535466004229672
7637740 -0.8973075536469459 0.45392205479311537
7639314 -0.8972563182293254 0.45330013090103044
7640889 -0.8976776534381047 0.4535502170021837
7642463 -0.8978869691998426 0.4544304414720915
7644037 -0.8971847814768175 0.4542227609695073
7645611 -0.8976562172257124 0.4540104733887404
7647185 -0.8978151602645644 0.45482362688107913
7648759 -0.8971382856794019 0.45495619654092045
7650334 -0.8974318841863652 0.45396600420831856
7651908 -0.8973241658209373 0.45449929064822003
7653482 -0.896686599894816 0.45516425180781395
7655056 -0.8965836107268753 0.4544242149817577
7656630 -0.8969340166161709 0.4536489750553787
7658204 -0.8971153052057853 0.4551422606726129
7659778 -0.8968143853658791 0.45538323564610583
7661353 -0.8970706111685612 0.45466157810889396
7662927 -0.8969512758262311 0.4543609098302817
7664501 -0.8965925730978183 0.45616696460771894
7666075 -0.8965822492370829 0.45437273004027523
7667649 -0.8969200612084828 0.4546472785186485
7669223 -0.896552780412519 0.4559995820528513
7670798 -0.8969466293743864 0.45549624379909154
7672372 -0.8963060958592343 0.45518268012453944
7673946 -0.8975088212272452 0.4556442937465003
7675520 -0.8959591461898758 0.4562174582502128
7677094 -0.8963922147223796 0.4555624498823207
7678668 -0.8963119227299884 0.45498324995571954
7680243 -0.8967913881320694 0.4574343103726206
7681817 -0.8960416103493641 0.45656092821144206
7683391 -0.8961749647233748 0.45537905996462086
7684965 -0.8965704038990318 0.45621239626965104
7686539 -0.8961222100760217 0.4570481344816979
7688113 -0.8959680006281033 0.4562067386334127
7689688 -0.8965125633468811 0.45602635049512485
7691262 -0.8965470361292415 0.45754192885114825
7692836 -0.8959237868484853 0.45670222949494327
7694410 -0.8962336404229317 0.45556707504406413
7695984 -0.8968067756841411 0.45792065881132593
7697558 -0.8956947124545145 0.45783723823795
7699132 -0.8950497483311998 0.45607642224421524
7700707 -0.8959778083772638 0.45723898724467876
7702281 -0.8952305540362824 0.45733893024178923
7703855 -0.8955040409204585 0.45693533054126517
7705429 -0.896352449055787 0.4565725904103163
7707003 -0.8960502077102893 0.4586920030596615
7708577 -0.8955710996205993 0.456688418289823
7710152 -0.8958061527508215 0.45705790830907506
7711726 -0.8958310441866855 0.45858492343612867
7713300 -0.8959528092087502 0.45742645844308305
7714874 -0.8958486246519985 0.4571406953010833
7716448 -0.8949708892502087 0.4590664299523158
7718022 -0.895619022355163 0.45790939634180833
7719597 -0.8956175248178364 0.45761192391100436
7721171 -0.8953135952746575 0.45841585528886575
7722745 -0.8949014522597638 0.45821641770588845
7724319 -0.8948648755193057 0.45715278733088116
7725893 -0.8955728446040472 0.45876111146762216
7727467 -0.8944182972482694 0.45974668044504047
7729042 -0.8954535466855933 0.45856596298287233
7730616 -0.8955181695596534 0.45933188146557874
7732190 -0.894141102741534 0.4592729299500057
7733764 -0.8947619691379657 0.4583778396147197
7735338 -0.8956775244809854 0.45878138714493877
7736912 -0.8947008300819619 0.4593783711491171
7738486 -0.8941337539945765 0.4587953779671148
7740061 -0.8947489923310205 0.45904369098264847
7741635 -0.8950184676459949 0.45971432863674977
7743209 -0.8945608619855322 0.45900268077034473
7744783 -0.895511683388771 0.45891669937085783
7746357 -0.894565033101236 0.4601872896799971
7747931 -0.8941420923913654 0.459325996260304
7749506 -0.8948607001388325 0.45919908290592876
7751080 -0.8945059381753243 0.4602530703908108
7752654 -0.8936327189415852 0.4596845391024703
7754228 -0.8941608375212516 0.4597672365097939
7755802 -0.8949125141641214 0.4607251201910011
7757376 -0.8940863603755237 0.460190550392037
7758951 -0.8948419936742519 0.4596826248917281
7760525 -0.8948991344524375 0.4610692550625038
7762099 -0.8940353435058258 0.461086856666766
7763673 -0.8945703239887305 0.45911382987342575
7765247 -0.8951580800052034 0.46120374665981945
7766821 -0.8935810954917076 0.46149025656954656
7768396 -0.894055572090573 0.46038586782091523
7768396 -0.8936346733817877 0.4607021244695736
7770002 -0.8940999454442642 0.459920129603896
7771609 -0.8948827246154348 0.4609348484498377
7773216 -0.8935805669006871 0.4619661253587387
7774822 -0.8938495946247382 0.46033737896520327
7776429 -0.8938566147250134 0.4613146889413723
7778036 -0.8938375972291159 0.46209449179535195
7779642 -0.8925628017079814 0.46166751254709
7781249 -0.8939179414973614 0.46100319710822735
7782856 -0.8939938669053861 0.46192806819731086
7784463 -0.8932515289839333 0.4624440361899923
7786069 -0.8931223830124326 0.4615037162393602
7787676 -0.8938805496798923 0.4612870095329883
7789283 -0.8938691313646592 0.4628123718646673
7790889 -0.893374127317925 0.462079219410002
7792496 -0.8934073621350669 0.4620875911917863
7794103 -0.8937074525050878 0.4622647704560491
7795710 -0.8929757723629486 0.4635535884640218
7797316 -0.8929243008678677 0.4619061132294361
7798923 -0.8930553724225803 0.46216031887805253
7800530 -0.8940728205454547 0.46303567402140533
7802136 -0.8923643779502163 0.46323213794043533
7803743 -0.8938988937911367 0.4627932766229286
7805350 -0.8936874533485166 0.4624404536611671
7806957 -0.893126504885274 0.46367875388449215
7808563 -0.8925813655392857 0.46274061051336385
7810170 -0.8934760404098375 0.46254113711664896
7811777 -0.8935686098975627 0.4636701649540372
7813383 -0.8930434774466803 0.4633805322432525
7814990 -0.8935361649063768 0.4632868465465982
7816597 -0.8931750573417148 0.4634867706676595
7818204 -0.8925396338822477 0.4647559295695397
7819810 -0.8927563927918832 0.462603997505422
7821417 -0.8922341318988845 0.46274235016302845
7823024 -0.8932144629270823 0.4643521531131749
7824630 -0.8926840688597762 0.4641916785895723
7826237 -0.8928338228304284 0.46420423210608025
7827844 -0.8929059788322657 0.4633898999635166
7829450 -0.8921310119527869 0.46446606641129706
7831057 -0.8926920557381629 0.4642747144177723
7832664 -0.8924151398863862 0.4644037049648725
7834271 -0.893582033210956 0.4651799304063227
7835877 -0.8923838875731901 0.46417246528685274
7837484 -0.8924852385331734 0.46482651935008057
7839091 -0.8924772448208869 0.4641532830473736
7840697 -0.8917638896232578 0.4660206580992318
7842304 -0.8918264867430682 0.46446227377865124
7843911 -0.8920217248445356 0.46495083745413346
7845518 -0.8920038823441383 0.4660376332564414
7847124 -0.892123104558171 0.46586494128165773
7848731 -0.8921078957117798 0.464795730981489
7850338 -0.891298547134318 0.46565867496019486
7851944 -0.8922861316661707 0.46526941209808503
7853551 -0.8917340560873515 0.46583309601025397
7855158 -0.8912503817914219 0.46640119508066075
7856765 -0.8916798886451627 0.4647846244259253
7858371 -0.891718572170736 0.46471223150244845
7859978 -0.891854680987192 0.4660939858661998
7861585 -0.8900832770640381 0.4664233636662701
7863191 -0.8915151942424729 0.4663720740985088
7864798 -0.8915138194553934 0.46546016481150077
7866405 -0.8911896638041752 0.46732614480917983
7868012 -0.8910759362370106 0.466505292305618
7869618 -0.8913030225610624 0.4659321186805598
7871225 -0.8916124841102981 0.4670681479707417
7872832 -0.8912422054506326 0.4670389953539586
7874438 -0.8910054824769327 0.4667564690091182
7876045 -0.891617007205005 0.4659704977704006
7877652 -0.8910388599147452 0.46774063286868056
7879258 -0.8910752157446379 0.46723601972329143
7880865 -0.8917316706846793 0.4670547736645861
7882472 -0.8910162680149313 0.4675872250825585
7884079 -0.8904422952053445 0.46727791116450745
7885685 -0.8906644247469209 0.46728668466294665
7887292 -0.8910991670113367 0.46636624467223425
7888899 -0.8904705862507062 0.46790403763973565
7890505 -0.8904337809509407 0.4676583345309203
7892112 -0.8906127762088007 0.46720882031171507
7893719 -0.8915847580808383 0.4677837244040493
7895326 -0.8905631318071825 0.4682506140389229
7896932 -0.8907387380995118 0.46810349120050343
7898539 -0.8911078757680563 0.4669189814861435
7900146 -0.8905426506802558 0.4687544385368957
7901752 -0.890146211364165 0.4682416588973023
7903359 -0.8907885723642159 0.4682092379998867
7904966 -0.890404382318056 0.46872595577778814
7906573 -0.8899779200664432 0.468569226050036
7908179 -0.8898644577942173 0.46889521338376333
7909786 -0.8912977168718783 0.4677999676980544
7911393 -0.8907237413805399 0.4688829158243124
7912999 -0.8900168280172568 0.4683780001948014
7914606 -0.8902139928160493 0.46827851576822926
7916213 -0.8908088091046061 0.4696910698630618
7917820 -0.8898964275193769 0.46904288751377454
7919426 -0.8897029546835244 0.46892725625006043
7921033 -0.8902397831752685 0.4684900911857564
7922640 -0.8895870583722119 0.4702518092882285
7924246 -0.8898560918847153 0.46904654675723073
7925853 -0.890182921163662 0.4690648911674909
7927460 -0.8898874459777035 0.4698185614378545
7929067 -0.888822485019153 0.46956735545403294
7929067 -0.8892792084343429 0.46955050959640987
7930706 -0.8901530263686357 0.4698653381090447
7932346 -0.8898519174714928 0.4692763938447719
7933986 -0.8898843267206377 0.4698071168130935
7935626 -0.8895908365372154 0.47005300547084783
7937266 -0.8899619825626294 0.4702467265636407
7938906 -0.8896526051803136 0.46997031259871325
7940546 -0.8892958329870775 0.47007157881664097
7942186 -0.8895610605770682 0.4702302557502527
7943826 -0.8888512537827208 0.47074095803015636
7945466 -0.8890548529249303 0.47061024586834516
7947106 -0.8893687215324205 0.47088870293985174
7948746 -0.8895977168390287 0.47114388873002966
7950386 -0.8890164144613532 0.4708181317033648
7952026 -0.8887701989471545 0.47129454678141997
7953666 -0.8892318148862259 0.4709491802230574
7955306 -0.8887149178831513 0.4712281506952811
7956946 -0.8889387205526765 0.47147612205678
7958586 -0.8890284162456138 0.4712663834582704
7960226 -0.8888485105808649 0.47112575202610596
7961866 -0.8891354399282734 0.4713087945734691
7963505 -0.8886991717347181 0.471680810163695
7965145 -0.8895655758936567 0.4722224713078529
7966785 -0.8885841478064644 0.47122225033580106
7968425 -0.8892753918513119 0.47157140981222806
7970065 -0.8885053318261852 0.47197204098764517
7971705 -0.8888464075136667 0.4718700638617649
7973345 -0.8891127327139924 0.47159429143459386
7974985 -0.8883257798783203 0.47205497756620834
7976625 -0.888775271838572 0.47273179297394197
7978265 -0.8879214226588358 0.47254851082252547
7979905 -0.8883300282178518 0.47181308415663387
7981545 -0.8880890622751871 0.4725606621037229
7983185 -0.888453931327507 0.4736615807008421
7984825 -0.8884469600100201 0.4734762563465761
7986465 -0.8880312350948208 0.47243897531896833
7988105 -0.888604165661405 0.4723042350635149
7989745 -0.8878919081754034 0.47309879197895854
7991385 -0.8881123559620061 0.4732835959796166
7993025 -0.8879328011884763 0.47308041328859596
7994665 -0.8884938558859026 0.47300222106377504
7996304 -0.887681906020361 0.473470888575782
7997944 -0.8874093301878344 0.47410582232304993
7999584 -0.88723234364147 0.4735048241815024
8001224 -0.8872739509665307 0.4731367300610094
8002864 -0.8876408507982224 0.47304961404400064
8004504 -0.8880547164016063 0.47405875287801263
8006144 -0.8874984144940103 0.474749936603966
8007784 -0.887442604203581 0.4740524269831901
8009424 -0.8879475615179222 0.47386901885475413
8011064 -0.8875825305252565 0.474396858869619
8012704 -0.887681563469954 0.4746725056812597
8014344 -0.8867573937545885 0.4751912106123086
8015984 -0.8873470926934102 0.4738913088218909
8017624 -0.8870496459813466 0.4740449320473569
8019264 -0.887561465688322 0.4753313491058331
8020904 -0.8873806211526839 0.4748729013221925
8022544 -0.8866759722216074 0.47521569698371524
8024184 -0.8872489385366671 0.4754293932537104
8025824 -0.8867741036660975 0.4746969000957975
8027464 -0.8869257424052869 0.47507760818756506
8029103 -0.8869739284315666 0.4758463505513229
8030743 -0.8871610996191923 0.4758754900698295
8032383 -0.8867621667088529 0.47533567848206554
8034023 -0.886508348039791 0.47504490569656477
8035663 -0.8872371699799922 0.4761492688138569
8037303 -0.8869070324756996 0.47648489080123396
8038943 -0.8865502782619735 0.47562069759790404
8040583 -0.8865297093641051 0.4752926089556665
8042223 -0.8868172865006142 0.47568195469819385
8043863 -0.8870655544281932 0.4768516689486731
8045503 -0.8864937420102033 0.4764977078701151
8047143 -0.8860121802386575 0.4755284118806187
8048783 -0.8867052588524789 0.4756952692568523
8050423 -0.8867837834217538 0.47705746855821524
8052063 -0.885985076690096 0.4765950464285226
8053703 -0.8862995004890022 0.4761767708148503
8055343 -0.8864611261663098 0.47604741697937836
8056983 -0.8864597939186408 0.4765047846710509
8058623 -0.8864354192003437 0.4772824016959166
8060263 -0.8856877157270359 0.476511918154345
8061902 -0.8866230406047414 0.47637152075078587
8063542 -0.8864685664658887 0.4774232570687304
8065182 -0.886080826741528 0.47718136038592823
8066822 -0.8856712736996422 0.4772036075933391
8068462 -0.8856558363045042 0.4768540231099246
8070102 -0.885567659641656 0.4773282288139063
8071742 -0.8857316200198192 0.4773965394288431
8073382 -0.8854272978781275 0.477471811822199
8075022 -0.8853182174012852 0.47742495460024825
8076662 -0.8854719427869876 0.47830095435915143
8078302 -0.8862398781639234 0.4773272755469734
8079942 -0.885286479899563 0.47779588762451314
8081582 -0.8854028256134315 0.4784771812706708
8083222 -0.8853021387268638 0.4780792433613013
8084862 -0.885694755938621 0.4783631466048707
8086502 -0.8851543056608062 0.47788089916041177
8088142 -0.8854186151915671 0.4787586323621358
8089782 -0.8850838676832424 0.4789427278237928
8091422 -0.8848346704921103 0.4789791674986357
8093062 -0.8845896230108216 0.4785240552440887
8093062 -0.8840755958406715 0.4791936806305649
8094735 -0.8850736187962713 0.4792107336627593
8096409 -0.8854789242429305 0.4781416533292044
8098083 -0.8849929188899953 0.47814452385890305
8099757 -0.8853068680291603 0.47935839547039877
8101431 -0.8841704568155968 0.4808310162586369
8103105 -0.884619515680235 0.4787988321044481
8104779 -0.8847497573814356 0.4783228863796687
8106452 -0.8851108812255304 0.47872451467202215
8108126 -0.8846892210957233 0.4796226442683329
8109800 -0.8846227000711874 0.4797648172541959
8111474 -0.8843900719588484 0.4791600021276268
8113148 -0.884681607091759 0.4792217040699527
8114822 -0.8845103074902335 0.47961500170662036
8116496 -0.8845413037597396 0.48013335505507504
8118169 -0.8848505477120123 0.48020338307282645
8119843 -0.8844769326693678 0.4806002818886845
8121517 -0.8846269145768478 0.4791352940317925
8123191 -0.8840298731107269 0.4803011817992031
8124865 -0.8845727693063229 0.4803106838439101
8126539 -0.8843814402873247 0.48113189240209153
8128213 -0.8842164277310921 0.4806910475994436
8129886 -0.8838598794970877 0.4803661687152681
8131560 -0.8836069166788943 0.48096226738466785
8133234 -0.8835288279727723 0.4808206716434776
8134908 -0.8840218619273063 0.4815418934841479
8136582 -0.8846081655902128 0.4805140012503499
8138256 -0.8838539359301762 0.4815537944458664
8139930 -0.8836750986066138 0.480682393618307
8141603 -0.884216529743063 0.48081894520685714
8143277 -0.8844289594056818 0.48123117586508224
8144951 -0.8834929241403513 0.48136399852439404
8146625 -0.8835836422054947 0.4819134881681625
8148299 -0.8833147020956489 0.4817203647579046
8149973 -0.8837142250683409 0.48138423106032296
8151647 -0.88455367715951 0.48127943824258373
8153320 -0.8836350663245581 0.48193815944334534
8154994 -0.883488417170632 0.4823192287376544
8156668 -0.8821865036936768 0.48194521619662434
8158342 -0.8833470708533419 0.48212095042152137
8160016 -0.8838170679102388 0.4818654293199863
8161690 -0.8838823208104375 0.4826479765426095
8163364 -0.8825676931263162 0.4830925379501866
8165037 -0.8825564946413436 0.4828370867044439
8166711 -0.8830154436071526 0.4819079135458906
8168385 -0.8823676987570299 0.4831558194602295
8170059 -0.8829270448223752 0.4827423640572735
8171733 -0.8834900886719562 0.4829513046027796
8173407 -0.883610030833275 0.48327119578002314
8175081 -0.8821503282516497 0.4830831951102829
8176755 -0.8830968358154817 0.48289690432090954
8178428 -0.8830395899165043 0.4826198130834998
8180102 -0.8827461700836243 0.4833770406156953
8181776 -0.8826756872729243 0.4833996176844314
8183450 -0.8818955151255068 0.48434004195772806
8185124 -0.8824833965043698 0.48419846588659654
8186798 -0.8823550229244511 0.4829157376882314
8188472 -0.8829524115378832 0.4838147180029293
8190145 -0.8825109886579738 0.4838622614603789
8191819 -0.8822948954858317 0.4850624414461654
8193493 -0.8817461634224671 0.4836631321503433
8195167 -0.8824131847043863 0.4834376487194481
8196841 -0.8826559273709716 0.4840840837294214
8198515 -0.8826778434246487 0.484580213526315
8200189 -0.8821138076750343 0.4843647448673467
8201862 -0.8813214149921459 0.48386288172910097
8203536 -0.8828372602122307 0.48375165098985545
8205210 -0.8820379131571363 0.48493668299669856
8206884 -0.8825004171824801 0.48550400101800134
8208558 -0.8815869792295841 0.48477705148702016
8210232 -0.8811433633337772 0.4847217458075841
8211906 -0.8823061514423054 0.4844723318800667
8213579 -0.8817713718453123 0.48587502366220686
8215253 -0.8813856148225019 0.4851136402586726
8216927 -0.88077697221592 0.4858591821598219
8218601 -0.8821320116774329 0.4847746483647628
8220275 -0.8818233798394912 0.4852444630913978
8221949 -0.8819077119751547 0.4862885139096353
8223623 -0.8809429816893376 0.4863121174982851
8225296 -0.8811198599705432 0.48569452417465325
8226970 -0.8822566943999584 0.48483837736207525
8228644 -0.8818618102149292 0.48659256789443417
8230318 -0.8812016260210555 0.48627648543985225
8231992 -0.8806360937055919 0.4865469140626695
8233666 -0.8811286743112574 0.4855176631878625
8235340 -0.8812903316904743 0.48610867556826803
8237013 -0.88189453103999 0.48685449359450506
8238687 -0.8797308431639939 0.4868447638009124
8240361 -0.8805614533417426 0.48695874211799123
8242035 -0.8811566873903103 0.48598714323574843
8243709 -0.8816033262583866 0.48659833582093304
8245383 -0.8812782913274638 0.48669012398945005
8247057 -0.8802945801480884 0.4875609181126327
8248730 -0.8802862696037491 0.4865480051137733
8250404 -0.881218015786175 0.48649428058282207
8252078 -0.8810694730608218 0.48747811345708514
8253752 -0.8802074459748963 0.4883656148664853
8255426 -0.880195144576124 0.4877521166493995
8257100 -0.8795901051930126 0.4866765104523102
8258774 -0.8809338337210629 0.487082259068341
8260448 -0.8801320466146654 0.4880045395585748
8260448 -0.8799110298707998 0.48810364381639065
8262156 -0.8798247786424211 0.48827860598578887
8263864 -0.8798126344263921 0.4864802000614185
8265573 -0.8802027471772361 0.487491258366344
8267281 -0.8809146572037976 0.4876594646046189
8268990 -0.8807388677743743 0.48856379872861705
8270698 -0.8799693533927644 0.4883494703643642
8272407 -0.8791868310634033 0.48829439263797236
8274115 -0.8799253929074264 0.4878285081406497
8275824 -0.8799391869465307 0.48857638981053164
8277532 -0.8805884501228134 0.48847008762712274
8279241 -0.8795671037842163 0.4891450431900059
8280949 -0.8796785719623208 0.4893652391827178
8282658 -0.8787366261409211 0.48857781179655646
8284366 -0.8791587291599572 0.4884535914395831
8286075 -0.8803100882593905 0.48920526903148165
8287783 -0.8804221630320785 0.4893551206618222
8289492 -0.8795895636701601 0.48991687007985407
8291200 -0.8789317796357683 0.4896090375244031
8292909 -0.8786303345233039 0.48940517536279055
8294617 -0.8794745439771839 0.4892942449046529
8296326 -0.8798594382122399 0.48947929268533213
8298034 -0.8796083161966745 0.4895732567652661
8299743 -0.8789570716799132 0.490028688801888
8301451 -0.8781602060878947 0.49027618442764215
8303160 -0.8780836263102996 0.4898202944559601
8304868 -0.8789143539979858 0.4893049819026844
8306577 -0.8797028955159865 0.4898162628706376
8308285 -0.879001660720868 0.4899699948296223
8309994 -0.8789766853893729 0.49099477106490863
8311702 -0.8783597335719168 0.49040063443893706
8313411 -0.878012580087779 0.4898764693326623
8315119 -0.8790781744872455 0.4899436993078994
8316828 -0.8790622931403289 0.4907234748358007
8318536 -0.8787035621523466 0.4915703116630733
8320245 -0.8782031156791696 0.4915556857322944
8321953 -0.8778857943413607 0.4914375301911588
8323662 -0.8779035691728513 0.49015037329868905
8325370 -0.878408818895685 0.4912223458916807
8327079 -0.8785678970152428 0.49121834906680345
8328787 -0.878812129109236 0.4914399379803588
8330496 -0.8779918439748023 0.4915237325327557
8332204 -0.8769571439159317 0.4913387748275002
8333913 -0.8786332209339829 0.4914950289283643
8335621 -0.8784748698707041 0.49195799454602795
8337330 -0.8778331586599348 0.4919585630469703
8339038 -0.8782105147735497 0.49097683173349277
8340747 -0.8779861734361315 0.4916783586449663
8342455 -0.8782500676723248 0.49187201035449485
8344164 -0.8775549305695558 0.49239984466263653
8345872 -0.8774896101288594 0.49214434787278494
8347580 -0.8771588428888227 0.4921841184661704
8349289 -0.8786389246695494 0.4917495749191586
8350997 -0.8777150137071155 0.4924053016587877
8352706 -0.8782468714837386 0.49286446806695805
8354414 -0.8772036036528974 0.49336069094297225
8356123 -0.8773846742249132 0.4926500156839263
8357831 -0.8771535085774288 0.49237492810101036
8359540 -0.8780685048836735 0.4925327039826449
8361248 -0.8782802924004882 0.4925526580563669
8362957 -0.8774518018135902 0.4934718396190576
8364665 -0.8768479829968255 0.493390831439702
8366374 -0.8760340966767127 0.4934155161196894
8368082 -0.8774719556996101 0.4932932545201756
8369791 -0.8775635978035827 0.49316474985831293
8371499 -0.8773813882906306 0.4938918471002368
8373208 -0.877125265890433 0.49396327926044803
8374916 -0.8767795456713767 0.49359355509092434
8376625 -0.8758569389532869 0.49367693471295393
8378333 -0.8771336732297036 0.49370014090696973
8380042 -0.8762363953414035 0.4931321466032415
8381750 -0.8769248531950639 0.494663366130508
8383459 -0.8767642258977723 0.49389284177394066
8385167 -0.8757531040889 0.4944271913851454
8386876 -0.8760222188737116 0.49404540810553543
8388584 -0.8777588451017795 0.49406574745022697
8390293 -0.8767250212980601 0.4944791235441205
8392001 -0.8770082541524781 0.49518304203944147
8393710 -0.8761569489396567 0.49529304749497444
8395418 -0.8746514962414117 0.49514818577616165
8397127 -0.8762907148590492 0.49515077946363295
8398835 -0.8766535232855297 0.494099113780107
8400544 -0.8766460599683082 0.49500641013082425
8402252 -0.876263732306542 0.4953411605686803
8403961 -0.8758416523381053 0.4957391827291417
8405669 -0.8750511050502124 0.49566229898126934
8407378 -0.8753109279979306 0.4950524880226805
8409086 -0.8760893209478989 0.494654485826901
8410795 -0.8768589837737972 0.4958020513607238
8412503 -0.8760078745388409 0.4962982966395954
8414212 -0.875356378142831 0.4963157612188923
8415920 -0.8752063766464948 0.49610728171449653
8417629 -0.8759946348533826 0.4955177947162963
8419337 -0.8765412367037382 0.4957811375104796
8421046 -0.8763224310118584 0.49637176004285377
8422754 -0.8756137470724447 0.496856016247571
8424463 -0.8745620700016419 0.49707574967128487
8426171 -0.8747617522741484 0.4961877032958054
8427880 -0.8754767185954044 0.49560381890473826
8429588 -0.8756630018277871 0.49683550539360627
8431297 -0.8756537168131648 0.49729633102385074
8431297 -0.8754639796077464 0.49697587673618293
8433040 -0.875292967384129 0.4979483191625488
8434784 -0.8750963092419302 0.49719569484529297
8436528 -0.8750258933321038 0.49725736947558813
8438272 -0.8753204355383672 0.49669247010205086
8440016 -0.8749616881532799 0.49660923394735995
8441759 -0.8748620531445657 0.4967921186984542
8443503 -0.8752328356862975 0.4970786861170813
8445247 -0.8749961443332153 0.4982955073036876
8446991 -0.8744965222874103 0.4980484541052994
8448735 -0.8744677742741201 0.4977302955582971
8450479 -0.8741298801540824 0.4974881578127138
8452222 -0.8740820523108134 0.49753727228623446
8453966 -0.8746838352522908 0.49724680895923207
8455710 -0.8748827225559852 0.4973228175781194
8457454 -0.8750064938686084 0.4988789982786989
8459198 -0.8750043305635655 0.4985621298700127
8460941 -0.8746882722859589 0.4997247821069129
8462685 -0.8732264967169153 0.49867830255883017
8464429 -0.873485534877136 0.4983231008832903
8466173 -0.8737321912197038 0.49827014680246307
8467917 -0.874324799295555 0.49764493106918584
8469661 -0.8740961564506973 0.4984099006179947
8471404 -0.8745578405710193 0.499393695056021
8473148 -0.8740932733687852 0.4991386298242422
8474892 -0.8750999536224908 0.5002710816548033
8476636 -0.8736168211311324 0.4987634051749435
8478380 -0.8732469998413198 0.49913423122834943
8480123 -0.8732651981807685 0.4987274340972884
8481867 -0.8737500836349789 0.49937920499666905
8483611 -0.874116274878881 0.4995185051474827
8485355 -0.8734041804114561 0.49975681959500146
8487099 -0.8744213664820979 0.49984698487029683
8488843 -0.8731397777559305 0.4998378257882308
8490586 -0.8738581838102253 0.4995346425858211
8492330 -0.8730517986382696 0.4998909434913614
8494074 -0.8733975678357631 0.49979849625136996
8495818 -0.8738801101335912 0.5001578234203999
8497562 -0.8732793851789975 0.5006627620827823
8499305 -0.8729956312629522 0.5006607257244199
8501049 -0.8728759690568696 0.5001693023434001
8502793 -0.8726896510054813 0.4999688104051067
8504537 -0.87302845482291 0.5003601053545416
8506281 -0.8731131601188518 0.4998037940070131
8508025 -0.8727849036788098 0.5006661514789601
8509768 -0.8730998227687446 0.5012419616215904
8511512 -0.8735235225427188 0.5018713736051995
8513256 -0.8729790498143426 0.5021037448972128
8515000 -0.8726526500027744 0.5016460569991223
8516744 -0.8723261614708439 0.5009248947085185
8518488 -0.87247597171038 0.5017455655035262
8520231 -0.8727272430298945 0.5014507034162581
8521975 -0.872740025406665 0.5010300604089308
8523719 -0.8728660582597509 0.5014692443326384
8525463 -0.8728820149239492 0.5021643836030398
8527207 -0.8728556675638914 0.5025756296798555
8528950 -0.8718786481398901 0.5026702587679477
8530694 -0.8719788408373933 0.5020585199830988
8532438 -0.8715579657213967 0.5021359657844755
8534182 -0.8721339779439349 0.5011845658654122
8535926 -0.8723251039001072 0.5018514031432925
8537670 -0.872822335076057 0.5033216457763595
8539413 -0.8724806392391836 0.5028755331798876
8541157 -0.8730130807097708 0.5030896198756053
8542901 -0.8715171766378204 0.5028966893025368
8544645 -0.870589778044562 0.5022112223218779
8546389 -0.8715031222997286 0.5029932276691333
8548132 -0.8720529877078922 0.5026849804369523
8549876 -0.8720927560883609 0.5026886208566391
8551620 -0.872125232310319 0.5035475816793009
8553364 -0.8711764634509904 0.5040845025735431
8555108 -0.8717195832545243 0.503309706445684
8556852 -0.8715733424775718 0.5036092464426647
8558595 -0.8703904513565088 0.5030846931056929
8560339 -0.8710237868663638 0.5033851974013648
8562083 -0.8715941726027656 0.5036546889097782
8563827 -0.8716935127160048 0.5033373149702904
8565571 -0.8714684902359815 0.5039945293735143
8567314 -0.8716332203785365 0.5046422507656338
8569058 -0.8704994345101482 0.5041957303782677
8570802 -0.8709637246805965 0.5042177276998878
8572546 -0.8706555225558403 0.5045290273252048
8574290 -0.8708682460702255 0.5040697523735111
8576034 -0.8711685487896865 0.504654605982342
8577777 -0.8708309208290902 0.5049995744386535
8579521 -0.8710228228763306 0.5042024187412173
8581265 -0.8711566702550236 0.504438985400709
8583009 -0.870254818935247 0.5044468992905521
8584753 -0.8708105360027112 0.5052564206180731
8586496 -0.8711821997773787 0.5050781536147678
8588240 -0.870278663145267 0.5058755780450946
8589984 -0.8705238135232453 0.5046762801772122
8591728 -0.8700273120175406 0.5054252237946281
8593472 -0.8708083158432948 0.5050411513292627
8595216 -0.8704119925717416 0.5047683001506167
8596959 -0.8701097052293809 0.5053156894007194
8598703 -0.8704624118468862 0.5059059819531005
8600447 -0.8708116711961342 0.5057890704004329
8602191 -0.870527844658023 0.506037734594177
8603935 -0.8693784350020687 0.5070258542987974
8605679 -0.869718332830961 0.5063529600169511
8605679 -0.8702090872347653 0.5069564353038386
8607458 -0.8700939450798819 0.506970062153919
8609238 -0.8694819330890542 0.5076935657021869
8611018 -0.8699046171698606 0.5062304227819339
8612798 -0.8698193304862487 0.5055627846271378
8614578 -0.8695808340504719 0.5059445403274377
8616358 -0.8703279010247886 0.5062684613391167
8618138 -0.8704573666184979 0.5069838583946049
8619918 -0.870064993467603 0.5061567751822078
8621697 -0.8701240407267323 0.5071955095219021
8623477 -0.8695596236083607 0.5075727903641032
8625257 -0.8696892776279549 0.5073582510442527
8627037 -0.8683658564427772 0.5069713020953867
8628817 -0.8695282613109276 0.5075419451901635
8630597 -0.8693689949710623 0.5059155759112707
8632377 -0.8694070374944951 0.5068536119306077
8634157 -0.869152497821988 0.5075704725833674
8635936 -0.86915437694846 0.5079674894310212
8637716 -0.8698639501769523 0.5077124410261329
8639496 -0.8694807086821329 0.5074013221854927
8641276 -0.8689857111700064 0.5075376764797367
8643056 -0.8684302125743186 0.5086147512794685
8644836 -0.8687166019346939 0.5086718328726006
8646616 -0.8690536679463916 0.5081742018986558
8648396 -0.8691248844713799 0.5077663004778273
8650176 -0.8682909558431572 0.5082631968195849
8651955 -0.8684945693349696 0.5081887456839527
8653735 -0.8692936452155141 0.5081830079379812
8655515 -0.8686193631838208 0.5087888651957525
8657295 -0.8690849850566998 0.5087257890618735
8659075 -0.8682646384550398 0.5098535526907262
8660855 -0.8677129271287614 0.5100002390772247
8662635 -0.8685241333877475 0.5096127291617935
8664415 -0.8680747280638526 0.5094698403118133
8666194 -0.8683356455124944 0.5088924491941875
8667974 -0.8682732972175459 0.5082461378310033
8669754 -0.8684813154083799 0.5087745108738124
8671534 -0.8688163403275752 0.5088411854312099
8673314 -0.8687672804926946 0.5090646350027146
8675094 -0.8682288515105323 0.5093778328238757
8676874 -0.867947549100524 0.5097992319744488
8678654 -0.8677978035278329 0.5099545595442804
8680433 -0.8672605710293221 0.5107651370201195
8682213 -0.8677707988036044 0.5107673085370478
8683993 -0.8676002216222485 0.5108110812697009
8685773 -0.8676714056816618 0.5109574376262994
8687553 -0.8670649291318728 0.5111587662338902
8689333 -0.8678033461514396 0.5106929831388735
8691113 -0.8676845251999905 0.5102090597780101
8692893 -0.8675414985352228 0.5097461124773622
8694673 -0.8677512101301769 0.5098397426660256
8696452 -0.8682772921277204 0.5113809792078956
8698232 -0.8677612089304643 0.5109979333682735
8700012 -0.8674708998692681 0.5115432747472559
8701792 -0.8671770065493339 0.5113357362193613
8703572 -0.8669256590938413 0.5115285152387659
8705352 -0.8664754147628257 0.511846557075082
8707132 -0.8662321444028043 0.5122184996921633
8708912 -0.866910908448152 0.5112986126630594
8710691 -0.8662545166488208 0.5113612828423794
8712471 -0.867351425668152 0.5111575700014924
8714251 -0.8671123882140522 0.5116435738233531
8716031 -0.866984037331608 0.511834262097879
8717811 -0.8668055719903102 0.5121670720883119
8719591 -0.8666720157464202 0.5125266690726612
8721371 -0.8661917606239747 0.5127795711366917
8723151 -0.8659547432412729 0.5126269426191683
8724930 -0.8659488936537711 0.5124918345254005
8726710 -0.8667755671597479 0.5124603497420144
8728490 -0.8663435045515021 0.5121361224068768
8730270 -0.8663337128942105 0.5122950632546893
8732050 -0.8669277018908572 0.5116778601482412
8733830 -0.866402867139029 0.5128426393193076
8735610 -0.8662443866967953 0.5130043184951865
8737390 -0.8664797244467319 0.5140065994236097
8739170 -0.8660263181046387 0.5134266753215826
8740949 -0.8657023661148967 0.5140505324222278
8742729 -0.8663227502521772 0.5135255443995858
8744509 -0.865622130477339 0.5132785218037637
8746289 -0.8658806772313845 0.5126412862777505
8748069 -0.8658875914545247 0.5125510171503093
8749849 -0.8661746316994159 0.5130922590262169
8751629 -0.8661384392923612 0.5135253761113056
8753409 -0.8665515611362354 0.5137175992884173
8755188 -0.865397670421842 0.5139607625659726
8756968 -0.8654936456819652 0.5143843462586152
8758748 -0.8652582377158881 0.5141775957226058
8760528 -0.8643078266563275 0.5144902634320784
8762308 -0.8649935427942919 0.5150331266114118
8764088 -0.8647090428635746 0.5145932782340741
8765868 -0.8655987169953528 0.5137149865319235
8767648 -0.8651792964745735 0.5144218370217104
8769427 -0.865606346875776 0.5137554167018775
8771207 -0.8661828502514937 0.5146753006078467
8772987 -0.8652676325534289 0.5148282867867037
8774767 -0.8651322621569225 0.515302152806769
8776547 -0.8655059260984085 0.5152848333149331
8778327 -0.8647135291683168 0.5157710718967339
8780107 -0.8634048285416751 0.5154246632281085
8781887 -0.8641074553672211 0.5152601170064662
8783667 -0.8646184398849971 0.5148710747403314
8783667 -0.8645924132258986 0.5145293860212097
8785483 -0.8645677438006254 0.5149672930736301
8787300 -0.8649814351128277 0.5146443638361954
8789117 -0.8646712868378382 0.5149467795301934
8790933 -0.8648477703705658 0.5146686272467189
8792750 -0.8649466915699158 0.5161386697656817
8794567 -0.8646569824438233 0.5156498977584196
8796383 -0.8647544166150161 0.5163074807854624
8798200 -0.864187691698298 0.5163018723880035
8800017 -0.8633900013852811 0.5167961540536525
8801834 -0.8641086863326333 0.5172042342271705
8803650 -0.8636014780608717 0.5172739251964243
8805467 -0.8635422676483923 0.5164849351355172
8807284 -0.8627837723122788 0.5172401139455447
8809100 -0.863443902648921 0.5159661180707269
8810917 -0.8629548015458007 0.5159947872733738
8812734 -0.8636414580582179 0.5155944559605903
8814550 -0.8636406144366979 0.5159731735604765
8816367 -0.8635702261589556 0.5160700038625023
8818184 -0.8632192969951634 0.5161992290072204
8820001 -0.8643293505178666 0.5167041302171246
8821817 -0.8638818309340208 0.5166412144361509
8823634 -0.8639363794119143 0.5173567938490873
8825451 -0.8634923466177586 0.5173830490502545
8827267 -0.8637880080086756 0.5182697283526646
8829084 -0.862899512441036 0.5186559649715365
8830901 -0.8629417507109065 0.5186007322249738
8832717 -0.8626266903275268 0.5182741739253328
8834534 -0.8627720016658484 0.5186801040837937
8836351 -0.8620775825538098 0.5186058188615681
8838168 -0.8626163521788208 0.5185337462790672
8839984 -0.8621968385737192 0.5177366804587182
8841801 -0.8635763008988311 0.5179625669160134
8843618 -0.8626258184478314 0.5173737229780307
8845434 -0.8628303542549356 0.5177313309468499
8847251 -0.8622904048466057 0.5177179339961986
8849068 -0.8634852680238944 0.5182042581398686
8850884 -0.8626985611951276 0.518465492596101
8852701 -0.863170983338188 0.5183949711660439
8854518 -0.8631889655637516 0.5188011057296812
8856335 -0.8629585789418754 0.5185000852525417
8858151 -0.8630601589839932 0.5195822768094353
8859968 -0.8619668666899669 0.5201111979724614
8861785 -0.8622786765097343 0.5197631400277778
8863601 -0.8618919007152607 0.5203833519022084
8865418 -0.8615529989065628 0.5197983418896406
8867235 -0.8616987531550477 0.5201840701091863
8869051 -0.8628936102819341 0.5190005656809074
8870868 -0.8621308889470851 0.5193492984662679
8872685 -0.8619558477554446 0.519838712528699
8874502 -0.8626096226491982 0.5191031960474459
8876318 -0.862254254014035 0.519400500067396
8878135 -0.8622255018947066 0.5208764922976802
8879952 -0.8621516108211593 0.5197536523722923
8881768 -0.86215251480404 0.5198762448804228
8883585 -0.8624122757573179 0.5203913876687035
8885402 -0.8623277080682268 0.5210194947740001
8887218 -0.8617187935964173 0.5218968352990352
8889035 -0.8618115018857002 0.5216293158814638
8890852 -0.8619654944044604 0.5211560014659323
8892669 -0.8616094125264002 0.5215930769272424
8894485 -0.8614952747093655 0.5217520580272186
8896302 -0.8612011117727677 0.5218680533741293
8898119 -0.8609167652592332 0.5217874977818846
8899935 -0.8609308665320397 0.5216313209784774
8901752 -0.8609211567180114 0.5220813624286045
8903569 -0.8601843092912107 0.5222787076763846
8905385 -0.8602878412399637 0.5221977324490924
8907202 -0.8605165945899881 0.5215490209012942
8909019 -0.860629713647397 0.5221932973387402
8910836 -0.859736361491961 0.5220703699036594
8912652 -0.8601747025262146 0.522689515382192
8914469 -0.8606604305899674 0.5222558372485482
8916286 -0.8599665884570021 0.5226518709290455
8918102 -0.8600458866744369 0.5226015970664762
8919919 -0.8598747961772776 0.5223536167180199
8921736 -0.8597099914669337 0.5227481726313897
8923552 -0.8601864781798628 0.5220952155743431
8925369 -0.8601226296266822 0.5223506558591711
8927186 -0.8591266478977403 0.5219785934231804
8929003 -0.8599740895261947 0.5221834345696906
8930819 -0.8592372183809995 0.5217885852231883
8932636 -0.8592070020270265 0.5220542699168176
8934453 -0.8598245504914304 0.5226690819899253
8936269 -0.8597287064912184 0.5226718379912891
8938086 -0.8604675500670288 0.522691728873443
8939903 -0.8598843406564737 0.522950529827835
8941719 -0.8600703356575069 0.5224836695303621
8943536 -0.8605475608722151 0.5222587018203103
8945353 -0.8603339526406756 0.5224515526296618
8947170 -0.8602671165980672 0.523271765960739
8948986 -0.8600851321692811 0.5230521683323899
8950803 -0.8603072927268601 0.523506490588587
8952620 -0.8597666476988729 0.5240520567386076
8954436 -0.8595787841717576 0.5244390266860021
8956253 -0.8595410622097075 0.5238981334503259
8958070 -0.86005250010861 0.5241320024904293
8959886 -0.859642561789172 0.5240443710559324
8961703 -0.8594087916666867 0.5244321019754511
8963520 -0.8592367212157408 0.5244519826585669
8965337 -0.8600252247261113 0.5244168020574311
8965337 -0.8592621483842698 0.5237610735197404
8967191 -0.8601025081375665 0.5237534225434901
8969045 -0.859575483539654 0.5240059966046143
8970899 -0.8599749483311981 0.5237541545618966
8972754 -0.8594940449677593 0.5247931697276713
8974608 -0.8601320579684278 0.524753591558902
8976462 -0.8595228374607176 0.5251238754831451
8978316 -0.8596363442014575 0.524033819755328
8980171 -0.8591655576231014 0.5249908865064488
8982025 -0.8592830033283497 0.5250269243158364
8983879 -0.8595065280933785 0.5250741700449038
8985734 -0.8596291602405227 0.5249227197627083
8987588 -0.8591692932049585 0.5255985990421567
8989442 -0.858701291832417 0.5267908977248154
8991296 -0.8589954082064136 0.5264747725580877
8993151 -0.8588418201013002 0.5257738558912881
8995005 -0.858501665832414 0.5270276248077953
8996859 -0.8581889183847684 0.5265017287826218
8998714 -0.8581828131509673 0.526712142024354
9000568 -0.8577866393513911 0.526505583695069
9002422 -0.8578144092165063 0.5272655918518624
9004276 -0.8581799260627173 0.5272861551815812
9006131 -0.8575946477122115 0.5278879478536073
9007985 -0.8571127197995858 0.5272051381672318
9009839 -0.8572422774086501 0.5275030149089827
9011694 -0.8576191025489914 0.5274063326308072
9013548 -0.8571496433732113 0.527761880843674
9015402 -0.857038562721385 0.5274374423701833
9017256 -0.8567618125816949 0.5276465674229464
9019111 -0.8564244464069979 0.5280715706078948
9020965 -0.857169914732884 0.5281350255269818
9022819 -0.8559067788155842 0.5282240629739433
9024673 -0.8559916285105965 0.5278778470715482
9026528 -0.8568354752839599 0.5284923889524739
9028382 -0.8567153435523394 0.5275403146867234
9030236 -0.8566054156075403 0.5281229484778385
9032091 -0.8563363092618244 0.5280925865938754
9033945 -0.8561880515130061 0.5280559490452215
9035799 -0.8562562464433178 0.527946296071408
9037653 -0.8557119599035016 0.5278822118268159
9039508 -0.8560122425373468 0.527994079457326
9041362 -0.8563266506837771 0.5275956302537732
9043216 -0.8564567217389224 0.5278862523638366
9045071 -0.8565287908888287 0.5281314014752172
9046925 -0.8567057460778617 0.52808927797916
9048779 -0.8570422364829544 0.5283743523521635
9050633 -0.8570798759981421 0.5291492353391074
9052488 -0.8570507449093566 0.528317401417121
9054342 -0.8568064048998594 0.5291885829238201
9056196 -0.8569839349883928 0.5291476859829595
9058051 -0.8568898830658703 0.5298942578972355
9059905 -0.856152584786963 0.529761159013743
9061759 -0.8566616212074902 0.53066678445343
9063613 -0.8563557621162073 0.5305937521729208
9065468 -0.8554882717711758 0.5305935322426021
9067322 -0.8562948627618971 0.5301138350224125
9069176 -0.8561972954172047 0.5308665963782975
9071030 -0.8557981902760321 0.5302544435015178
9072885 -0.8559650181263225 0.5306750036875082
9074739 -0.8552889353681655 0.5305880058985175
9076593 -0.8551681882755562 0.5309815569869745
9078448 -0.8559130581988493 0.5305748863610035
9080302 -0.8550263605297198 0.5312072753238254
9082156 -0.8553419170672326 0.5307483159015146
9084010 -0.8549375170382917 0.531387062013283
9085865 -0.8554492753773679 0.5311654413460932
9087719 -0.854927016936175 0.5318086210493566
9089573 -0.8546761066529861 0.5312669649560191
9091428 -0.8542693402905986 0.5315554188544573
9093282 -0.8548186629919452 0.53165663145046
9095136 -0.8545048519770556 0.5322276594420885
9096990 -0.8545045559936598 0.5322516782692335
9098845 -0.854543174925427 0.5321434029103776
9100699 -0.8546261205478535 0.5322129716581862
9102553 -0.8543732045932843 0.5327043318631064
9104408 -0.8545892980417887 0.5318158690500044
9106262 -0.8548163378501679 0.5326308772469557
9108116 -0.8536990445537966 0.5324353504128588
9109970 -0.8536379762846678 0.5325742996096504
9111825 -0.8537594323507058 0.5322700044519016
9113679 -0.8531935276135565 0.532206803114008
9115533 -0.8527785203786618 0.5326083149657207
9117387 -0.853434063358983 0.5320433822868923
9119242 -0.8536714230747386 0.5322785543772357
9121096 -0.8541940526475412 0.5328160710068734
9122950 -0.8531188457277158 0.5321934686068353
9124805 -0.8531773237906168 0.5323448346007977
9126659 -0.8530442021027078 0.5322807819786012
9128513 -0.8532683664470302 0.5326738585181223
9130367 -0.8531720741709105 0.5324430478092685
9132222 -0.8527011058249455 0.5329089156218461
9134076 -0.8536367585758791 0.5329888911582024
9135930 -0.8532624145846323 0.5328524672555338
9137785 -0.8531306548089007 0.5324824940579918
9139639 -0.8533221505781555 0.5332549612930151
9141493 -0.8531719611575409 0.5326466702925129
9143347 -0.8532207504330338 0.5330328656285724
9145202 -0.8533510888894431 0.5324207853439881
9147056 -0.8530403485810075 0.5328052797091327
9148910 -0.8538197075533583 0.5329962522466242
9150765 -0.8541011111624832 0.5334537529080627
9150765 -0.8537377616216235 0.5333656959633675
9152657 -0.8529020749227725 0.5336278600817409
9154550 -0.8529574987775943 0.5333044133161106
9156442 -0.8522933000973585 0.5344991421641024
9158335 -0.8527121382150604 0.534146002810731
9160228 -0.8520679323226092 0.5339930110971723
9162120 -0.8519317835266396 0.5343277316834796
9164013 -0.8522503164269616 0.5346273009607643
9165905 -0.8513222170994255 0.5347950627286122
9167798 -0.8522625529518881 0.5348041254390129
9169691 -0.852327110185225 0.5353964826088605
9171583 -0.8520537551474173 0.5351854293621815
9173476 -0.8522229966912437 0.5351955149840715
9175369 -0.8524754491366302 0.5362908235113296
9177261 -0.8523385516093538 0.5353235734357549
9179154 -0.8516862470998605 0.5360166981954538
9181046 -0.8521536366989728 0.5353424825349972
9182939 -0.8525126127035709 0.5356770000063239
9184832 -0.8524781361312719 0.5357203189409457
9186724 -0.8520594825606774 0.536308967248646
9188617 -0.8527890415613528 0.5360858868939364
9190510 -0.8521451552204534 0.5369190796263773
9192402 -0.8524200365310406 0.5362380476842116
9194295 -0.8520032070781819 0.5362164116874484
9196187 -0.8521424394480502 0.5367397975753614
9198080 -0.8521574332629567 0.5368826516117032
9199973 -0.8514430202378028 0.5369600482791721
9201865 -0.8513240801085754 0.5368234779909182
9203758 -0.8516586006501622 0.5366538181684763
9205650 -0.8517753426520218 0.535832580068112
9207543 -0.851657506186168 0.5361607821499695
9209436 -0.8519615397373128 0.5360712015875834
9211328 -0.8516567747835843 0.5359574982163686
9213221 -0.8517095047317083 0.5360549298167464
9215114 -0.8507046491596154 0.5367721620966553
9217006 -0.8510233369670401 0.5370395802021396
9218899 -0.8512230661876528 0.5366091455339552
9220791 -0.8509246493648354 0.5370740186138353
9222684 -0.8505118510389114 0.5374425528293524
9224577 -0.8509241531566509 0.5373825281470186
9226469 -0.8501681289721964 0.5371614456329807
9228362 -0.8501047199159631 0.5381051448271374
9230255 -0.850569159705943 0.5376327263451572
9232147 -0.8501670368390503 0.5385292968495569
9234040 -0.8504997456440749 0.538644976125678
9235932 -0.8503198809846049 0.538392067710924
9237825 -0.8497138984333961 0.5380066079801817
9239718 -0.8501882328139746 0.538049951137429
9241610 -0.8496275443234017 0.5381394435147906
9243503 -0.8500786252501021 0.5382571454229854
9245396 -0.8498807221520105 0.5389623277120056
9247288 -0.8502575572021936 0.5389538516784242
9249181 -0.8502533331956569 0.5392977492542896
9251073 -0.8501892018062608 0.5387401422500845
9252966 -0.8497451001653262 0.5394751979904765
9254859 -0.8500466725223443 0.538812680070485
9256751 -0.8495992915491885 0.5399184935560322
9258644 -0.8495467055531379 0.5387796861868914
9260536 -0.8496396918731736 0.5401083699786677
9262429 -0.8502626822542864 0.539616465731797
9264322 -0.8501615091362441 0.5404124625805495
9266214 -0.8488851268681582 0.5393334850845769
9268107 -0.8490143710599988 0.5400891290404817
9270000 -0.8494155467302166 0.5400897102012279
9271892 -0.849256105380759 0.5398552824569672
9273785 -0.8493788294374535 0.5407860377825414
9275677 -0.8484971599697052 0.5401233960378444
9277570 -0.8492929506608294 0.5404649822953373
9279463 -0.8489497397278564 0.5405329616460781
9281355 -0.8488108807729224 0.5406704701045069
9283248 -0.8482309867606141 0.5404679428072785
9285141 -0.8493488375687315 0.5402770556373042
9287033 -0.8489328723578682 0.5410707772531298
9288926 -0.8487630765228038 0.5402948150451393
9290818 -0.8481543549423625 0.5408988506656797
9292711 -0.8484281691182026 0.5412862452716288
9294604 -0.8484705264100363 0.5412628263873657
9296496 -0.8480122182813551 0.5410999336278565
9298389 -0.848379406612906 0.5417275871902599
9300281 -0.8484387248703777 0.5411539477955767
9302174 -0.8480585016655614 0.5416631643443152
9304067 -0.8477874436874426 0.5413823540530062
9305959 -0.8482979174670173 0.541888429650248
9307852 -0.8488840707531726 0.5411820061122304
9309745 -0.8483969639878033 0.5416396574111187
9311637 -0.8483147573215247 0.5413633951641295
9313530 -0.8479123830034049 0.5419316762657216
9315422 -0.8483139626892627 0.542138285991914
9317315 -0.848489267937713 0.5419952434790002
9319208 -0.8483847428146678 0.5420819583267318
9321100 -0.8481443138782994 0.5423477834843854
9322993 -0.8478819260944161 0.5420400619386742
9324886 -0.8478815895769464 0.5424639930586789
9326778 -0.847369788528859 0.5424878309719288
9328671 -0.8476030538828214 0.5429208313896963
9330563 -0.847753358831137 0.542172050399313
9332456 -0.847588243727985 0.5428399404463281
9334349 -0.8470267266667016 0.5429022532013905
9336241 -0.8467079574629263 0.5444026142581745
9338134 -0.8468651082376081 0.5427442032575268
9340027 -0.8471111754978883 0.5426304532471735
9340027 -0.8466484680647116 0.5438366634063464
9341958 -0.8474849368145554 0.5434616968391456
9343890 -0.8460093209436562 0.5439445388788791
9345822 -0.8471799466160966 0.5440782852821437
9347754 -0.8471328778418691 0.543596348097541
9349685 -0.846545046136206 0.5437942091094361
9351617 -0.8464772487139604 0.5447489679233477
9353549 -0.8472917449434539 0.5445034255549923
9355481 -0.8467856883949311 0.5437031118029522
9357412 -0.8472953528434611 0.5443065950937721
9359344 -0.8467978530279556 0.5445922955902927
9361276 -0.8474608696198938 0.5439918390282618
9363208 -0.8462030782448118 0.5437073256123868
9365140 -0.8462015565895263 0.5436205274733156
9367071 -0.8458830303853255 0.5435092346331957
9369003 -0.8457403880075007 0.5443539525120996
9370935 -0.8457734497664765 0.5449375590763187
9372867 -0.8456807983177749 0.5453154596057548
9374798 -0.845234526906216 0.5463163934987313
9376730 -0.8460769634850237 0.5458414611782513
9378662 -0.8465531222829864 0.545464997255871
9380594 -0.8461547883086367 0.5450627685309367
9382525 -0.8457809214019038 0.5453013809606412
9384457 -0.8461091877722614 0.5450357816044178
9386389 -0.8462148248269106 0.5453784357558142
9388321 -0.8455302470171647 0.545015968911305
9390253 -0.8456562340324038 0.5458892719235751
9392184 -0.8453702653592607 0.5453097662870625
9394116 -0.845538866143432 0.5462045919069556
9396048 -0.8450042101633329 0.5455867861423459
9397980 -0.8455197373593937 0.5461035815302615
9399911 -0.8451843834784123 0.5454736749110778
9401843 -0.8457914235432881 0.5468436471805037
9403775 -0.8441499794675695 0.546493233600723
9405707 -0.8449366836979039 0.5470006041807455
9407638 -0.8450491846203627 0.5472128996698827
9409570 -0.8450626614833013 0.5475762504855877
9411502 -0.8450051981835398 0.5463335455813971
9413434 -0.845189160582888 0.5467300337884698
9415366 -0.8448525091042679 0.5474958968621589
9417297 -0.8457745219033022 0.5466659282561961
9419229 -0.844657227989698 0.5476234257325593
9421161 -0.8444769498839862 0.5464135644885836
9423093 -0.8442194260372943 0.5470315592915599
9425024 -0.8445437331659681 0.5464651304630656
9426956 -0.8439444660266946 0.5474308650325975
9428888 -0.8440886866971359 0.548016762831453
9430820 -0.8443354889827532 0.5473809708889927
9432751 -0.8441042171629441 0.5469608904574653
9434683 -0.8442671497184469 0.5475121667229939
9436615 -0.8441556963699742 0.5474734948109015
9438547 -0.8441615921527543 0.5477099173738744
9440479 -0.8442023898364988 0.547851581474527
9442410 -0.8436862757270044 0.5484686084397568
9444342 -0.843989733900258 0.5491766207865475
9446274 -0.8437244210172788 0.5493225119595682
9448206 -0.843713610774769 0.5496794954234661
9450137 -0.8433980118342564 0.5492571591006882
9452069 -0.8437684515432395 0.5493061818667713
9454001 -0.8436329012316717 0.548350593367024
9455933 -0.8432593366826688 0.549285982761673
9457864 -0.8433883959980994 0.5487488802032036
9459796 -0.8436842960828564 0.5494741307815129
9461728 -0.8432912284245189 0.5485521809709303
9463660 -0.8430493440151978 0.549357448746407
9465592 -0.84282119698703 0.5494578905283737
9467523 -0.8423778150412409 0.5502353769187157
9469455 -0.8429434343414787 0.5500900540836546
9471387 -0.8429275616647584 0.550492128283612
9473319 -0.8431909913408372 0.5502563775781697
9475250 -0.8434305400731386 0.5505372704345726
9477182 -0.8426851275735622 0.5501957019925107
9479114 -0.8434224446287881 0.5506178844372827
9481046 -0.8429460088564615 0.5501412320904434
9482977 -0.8429623505285366 0.5500663337796765
9484909 -0.8422629368498755 0.5503016378347642
9486841 -0.842166495278238 0.5500440473705964
9488773 -0.8422663639558176 0.5504840482390232
9490705 -0.8427979116864556 0.5508638567954544
9492636 -0.8419560200379331 0.5511341494257541
9494568 -0.8426424139533069 0.5508248156736812
9496500 -0.8426749028280892 0.5512041679162528
9498432 -0.8426079781732515 0.5516254781804879
9500363 -0.8421547742293742 0.5514290797603706
9502295 -0.8422121659031666 0.5507341125496904
9504227 -0.8423159687138342 0.5510940862650701
9506159 -0.8418804969375945 0.5518375936207199
9508090 -0.8414381933352775 0.5516389140163187
9510022 -0.8418906829475316 0.5524368392755448
9511954 -0.8413820638836454 0.5521336454074804
9513886 -0.8412871734816264 0.5525998374252585
9515818 -0.8415276997320962 0.5520776762570032
9517749 -0.8418867718353215 0.5522414916803285
9519681 -0.8415624037152163 0.5522126424160927
9521613 -0.8413947377340928 0.5515602849384819
9523545 -0.8420608629637223 0.5513902090996423
9525476 -0.8414750897301757 0.5517925730521472
9527408 -0.8413191394976101 0.5520536352613049
9529340 -0.8410487640727046 0.5523778474728887
9531272 -0.8410705075678964 0.5532270328311083
9533204 -0.8408952974842324 0.5523475697724614
9533204 -0.8409237491625102 0.5527109400928356
9535175 -0.8404387110559942 0.552826791395162
9537147 -0.8407854526341034 0.5524831014970019
9539119 -0.8403337788195732 0.5529598507683998
9541090 -0.8407053483263016 0.5529733958896119
9543062 -0.8402249475408048 0.5543209678365235
9545034 -0.8405454588770449 0.5538416691908933
9547006 -0.840161168284584 0.553657760826712
9548977 -0.8405283975885031 0.5534596980597489
9550949 -0.8400960861012353 0.5542010298702127
9552921 -0.8407932565095957 0.5535066275658481
9554893 -0.8404110840491184 0.552960239333151
9556864 -0.8400075177686667 0.5534122722153655
9558836 -0.8400745436049091 0.5533429702717736
9560808 -0.8404021351124173 0.5549449037851633
9562779 -0.8393306890330701 0.5552561465740481
9564751 -0.8392670466464723 0.554718671325713
9566723 -0.8405122664749239 0.5546013257180363
9568695 -0.8397983244747926 0.5541944008885868
9570666 -0.8397323895447206 0.5541885056059381
9572638 -0.8400797909756338 0.5542279739094191
9574610 -0.8397747229675907 0.554611822555098
9576582 -0.8395162516110555 0.5547064066098369
9578553 -0.8396049644154505 0.5547120249610851
9580525 -0.8392635162865469 0.5565563381096316
9582497 -0.8394310906307855 0.5553661591589806
9584468 -0.8395978935328091 0.5562839139462487
9586440 -0.8388583301596506 0.5553347113461068
9588412 -0.8408865751094806 0.5541603855847865
9590384 -0.839358013636868 0.5550681959978395
9592355 -0.8389640987759079 0.5549814670426889
9594327 -0.8388619519413485 0.5559739185871775
9596299 -0.839024484716803 0.5562323402958784
9598271 -0.8387511199763084 0.5565240241505659
9600242 -0.8384662644431919 0.5565051786943007
9602214 -0.8387644212985288 0.5565707342769849
9604186 -0.8392249330047733 0.5569350177419874
9606158 -0.8391155335616469 0.5558989684653983
9608129 -0.838773475147847 0.5555344504971315
9610101 -0.8381366751817053 0.5560907440444507
9612073 -0.8377904142983511 0.5565330626708382
9614044 -0.8381514398286743 0.5572620818366013
9616016 -0.838204613773455 0.5575773344154741
9617988 -0.8382414822226135 0.5573543332586536
9619960 -0.8382564723923773 0.5575708255139975
9621931 -0.8381100001340457 0.5571493548495454
9623903 -0.8382238147849994 0.5573016405164036
9625875 -0.8385600657470509 0.5567250048131744
9627847 -0.8383432628107096 0.5574236365661784
9629818 -0.8378204540767753 0.5570838817542308
9631790 -0.8386568660381891 0.5573297253306447
9633762 -0.8372872464179859 0.5575267553449434
9635733 -0.8370556850118481 0.5582027900451308
9637705 -0.837801510438666 0.557793175413258
9639677 -0.8377383445212336 0.5578127099949844
9641649 -0.8373648810983207 0.5584154485610577
9643620 -0.8374607215612428 0.5582476485591542
9645592 -0.8378248113289678 0.5583575600676394
9647564 -0.8376272101774083 0.5587427099062828
9649536 -0.8376797439308251 0.5574028499042846
9651507 -0.8373112087920579 0.5585685551192936
9653479 -0.8365823366014504 0.5591225118670601
9655451 -0.836923172745875 0.5589210168741646
9657422 -0.8369732754660841 0.5594108911622041
9659394 -0.8370744777721874 0.5592104780009333
9661366 -0.8363259620881403 0.5591412132059335
9663338 -0.8368018583718182 0.5595062793778263
9665309 -0.8365859325095643 0.5591315225702093
9667281 -0.8370494430375851 0.5594792894547427
9669253 -0.8369832076532652 0.5593061335042921
9671225 -0.83615303607242 0.5595042033428026
9673196 -0.8364412219338091 0.5595598154104957
9675168 -0.8367341904964615 0.5605536652006304
9677140 -0.8364655424058461 0.5605955375943654
9679112 -0.8360415543751057 0.560737534888417
9681083 -0.8359350539586341 0.560550377291592
9683055 -0.8366743562439466 0.5600801215516826
9685027 -0.836582612626511 0.5600103362163249
9686998 -0.8357706689395061 0.5601395138703436
9688970 -0.8358134167066295 0.5603619493906615
9690942 -0.8354020295700915 0.5608551275514615
9692914 -0.8366619561497453 0.5607861204019825
9694885 -0.8354548664520685 0.561120002191292
9696857 -0.8359626001104772 0.5615943952663585
9698829 -0.8347885630925691 0.5612209610942245
9700801 -0.8356107301865361 0.5614114197741598
9702772 -0.8362110116283721 0.5611927789498662
9704744 -0.8359202094497408 0.5610981841634918
9706716 -0.8355100662054629 0.5616497149555816
9708687 -0.8354473476176064 0.5617883711880827
9710659 -0.8354739866843862 0.5620537632264155
9712631 -0.8346519603142125 0.5615831484848093
9714603 -0.8350858743581662 0.5615484617579367
9716574 -0.8350510920657517 0.5620167241039984
9718546 -0.8354884651175244 0.5615185032187318
9720518 -0.8353552901901801 0.5617632347610682
9722490 -0.8344017914402087 0.5621902442702843
9724461 -0.8338407091782905 0.5616722908759919
9726433 -0.8348243537340251 0.5625774511961776
9728405 -0.8346879826475542 0.5625942205524728
9730377 -0.8339101422294198 0.5625829547711373
9730377 -0.8341595369569892 0.5629506658030532
9732389 -0.8344574890779268 0.5624744352306669
9734402 -0.8345069961327927 0.562504989665455
9736414 -0.8341116261069869 0.562736692810798
9738427 -0.8337111124631165 0.5631695610073395
9740439 -0.8341544324480304 0.5635261254711564
9742452 -0.8342973081023537 0.5639128860835317
9744464 -0.8338064332083335 0.5627643586861971
9746477 -0.8340533300895671 0.56361353790527
9748489 -0.8334487530495809 0.5631305487448284
9750502 -0.83414179449115 0.563293662706524
9752514 -0.8333313560207908 0.5641316922835724
9754527 -0.834091495078126 0.5641719204398002
9756539 -0.8342835121190121 0.5640098268658841
9758552 -0.8335313873232343 0.5637815708703603
9760564 -0.8335973202510557 0.5644108598340902
9762577 -0.8335366258293889 0.5635448765812662
9764589 -0.8330549534761191 0.5638179147693408
9766602 -0.8335273599208716 0.5641328420651676
9768614 -0.8336911910610785 0.564539577684718
9770627 -0.8331831711204692 0.5640974914753158
9772639 -0.8332688169634458 0.5641265148934613
9774652 -0.8327611237624819 0.5647895419015898
9776664 -0.8328669008616485 0.5642951014195295
9778677 -0.832426014775809 0.5650207722644218
9780689 -0.832766610256193 0.5648173498568314
9782702 -0.8331747193729412 0.5652958320982518
9784714 -0.8326243766292057 0.5646763650752233
9786727 -0.8325994193108547 0.565425866770883
9788739 -0.8326665992019818 0.5651674304471476
9790752 -0.8327558997023203 0.5652070851559539
9792764 -0.8324793794184377 0.5656690737519112
9794777 -0.8328142540965641 0.5656598056080616
9796789 -0.8322248969447317 0.5656323328680358
9798802 -0.8326402056595028 0.5658790879745682
9800814 -0.83195611116691 0.5662063642773275
9802827 -0.8321704916928675 0.5656935988913808
9804839 -0.8322661222444891 0.5662340646761183
9806852 -0.8325499373445289 0.5670012096664142
9808864 -0.8319365747732927 0.5663616971233765
9810877 -0.8316265993468355 0.5662389033255012
9812889 -0.8313164144508178 0.5665703114400643
9814902 -0.8319415833325003 0.5669585280136472
9816914 -0.8319831316041106 0.5664973766028383
9818927 -0.8313510065119939 0.567134206489606
9820939 -0.8327697994748073 0.5664717024727199
9822952 -0.8321713722059825 0.5661434912144384
9824964 -0.8305952166888873 0.5669200465180138
9826977 -0.8316783664783086 0.5678672086139405
9828989 -0.8310073853881286 0.5678460591874102
9831002 -0.8312635965841843 0.5678457809283062
9833014 -0.830739681950566 0.5680797865793944
9835027 -0.830779907947759 0.5679626986847762
9837039 -0.8309174372356245 0.5676524795428866
9839052 -0.8310571784890052 0.5676474238322483
9841064 -0.8306048990821218 0.5680635831453096
9843077 -0.8307012959402145 0.5687016188130137
9845089 -0.8298984216673272 0.5681629607747787
9847102 -0.8313705477004208 0.568658341844538
9849114 -0.8309525945038092 0.568463321283077
9851127 -0.8303673604958436 0.5680136047733412
9853139 -0.8304658869241981 0.5682406424220571
9855152 -0.830021068976854 0.5688783429048047
9857164 -0.8298088633198181 0.5694127853063257
9859177 -0.8305739774225943 0.5684816900507238
9861189 -0.8303203294488029 0.5690790518603929
9863202 -0.8297189469240167 0.5684402551783523
9865214 -0.8290547649622397 0.5690053720423242
9867227 -0.8296230132073401 0.5699744733633755
9869239 -0.8296140504688954 0.5703872696937202
9871252 -0.8297701393086939 0.5692688138352894
9873264 -0.830026797945725 0.5690881923388325
9875277 -0.8292360722721925 0.5696185205142877
9877289 -0.8287915933380525 0.5700814122203668
9879302 -0.8297551618149343 0.5702496574835276
9881314 -0.8292940168806257 0.5707109040562554
9883327 -0.8299249097704517 0.5696470782109923
9885339 -0.8285170120770619 0.5705924127344552
9887352 -0.8289907297382288 0.5696233487904518
9889364 -0.8289585836884255 0.5705092325954979
9891377 -0.8294125986996005 0.570339421757638
9893389 -0.8291600926048227 0.5706946423239171
9895402 -0.8276485803857359 0.5711914904809882
9897414 -0.8286381587933986 0.5711281574220618
9899427 -0.8294360569527025 0.5701708252936608
9901439 -0.8295095804578332 0.5707654714974136
9903452 -0.82807050969554 0.5708515951950194
9905464 -0.8287392134404118 0.5719350894215115
9907477 -0.827480086306559 0.5722532401334485
9909489 -0.8288938424160113 0.5719054028836487
9911502 -0.8289981063366326 0.5716972198425154
9913514 -0.8283350024895307 0.5712496903306787
9915527 -0.827548732993347 0.5723642702045216
9917539 -0.82750886339892 0.5727990713972377
9919552 -0.8277546318274563 0.5727803630282529
9921564 -0.8276299682734518 0.572771380943826
9923577 -0.8282420201790267 0.5713866952940035
9925589 -0.8265097328663065 0.5716674543317054
9927602 -0.8276321361510758 0.572455407990371
9929614 -0.8268356641242801 0.5741588441350347
9931627 -0.8276726826249331 0.5731151114085831
9931627 -0.8280341912996707 0.5729100921754153
9933681 -0.827200047388205 0.5722900869320204
9935735 -0.8273583485021986 0.572085281886163
9937789 -0.8265645299268349 0.5744296042495296
9939843 -0.8262785128314764 0.5739654638351486
9941897 -0.8269338234589524 0.5740221388392707
9943951 -0.8269914796162032 0.5724783117841916
9946005 -0.8266709736416158 0.5732954439356039
9948060 -0.8259390837829129 0.5741361925351751
9950114 -0.8271919151187954 0.5744934676755353
9952168 -0.8268260097213564 0.5741849545489851
9954222 -0.827528378494959 0.5730394714062963
9956276 -0.8259627911699833 0.5739036661793808
9958330 -0.8255176562628281 0.5744745633859507
9960384 -0.8258269179854312 0.5755193560336093
9962438 -0.8262827588455668 0.5748461974358365
9964493 -0.8262490580539019 0.5738824725849658
9966547 -0.8255856094084986 0.574076473875197
9968601 -0.8250558461898292 0.5754362580722014
9970655 -0.8247323602050687 0.5757603587726751
9972709 -0.825667356249374 0.5751063552800093
9974763 -0.8262045078011504 0.574949545590171
9976817 -0.8252577692748411 0.5749722472878644
9978871 -0.8247079997158744 0.5761663161777921
9980926 -0.8257322206151864 0.5759551247827647
9982980 -0.8258600435456215 0.5754912737753748
9985034 -0.8256880172861203 0.5756464028979071
9987088 -0.8250264129021073 0.5756748765573391
9989142 -0.8245060132160945 0.5764712518447456
9991196 -0.8241915823814336 0.575824426797662
9993250 -0.8249142684554073 0.5762731577548564
9995305 -0.8251165367252759 0.5758329843224702
9997359 -0.8236469479147458 0.5765624866439644
9999413 -0.8254271033804733 0.5767089702951103
10001467 -0.8242470471769208 0.5764710386026481
10003521 -0.8241386888405844 0.5766291294546543
10005575 -0.8251275988105767 0.5767275755045498
10007629 -0.8249327551438795 0.5756937321016954
10009683 -0.8233529113289787 0.5763349640770954
10011738 -0.8236587207050817 0.5774986533753854
10013792 -0.8243533383958193 0.5778100526517209
10015846 -0.82423538317286 0.5768620479408838
10017900 -0.8239269736656498 0.5765147219693897
10019954 -0.8227833213968795 0.5778550874323504
10022008 -0.8229836102450657 0.5779962801188137
10024062 -0.8231668197901388 0.5780036192986877
10026116 -0.8241243167833547 0.5778090432627778
10028171 -0.8231633741050395 0.5772667849328202
10030225 -0.8225383884347044 0.5783680072884083
10032279 -0.8226958653558579 0.5791261569245405
10034333 -0.8229704777825535 0.5794456822913776
10036387 -0.8233761405740255 0.5786794051163086
10038441 -0.8230932794743381 0.5784943338065794
10040495 -0.8222713194683621 0.5794981620055446
10042550 -0.8224298618980103 0.5792228302840283
10044604 -0.8227340793806629 0.5788778026398299
10046658 -0.8228884464962389 0.5778916974726588
10048712 -0.8228618253466009 0.5788439488830387
10050766 -0.8214181017692016 0.5790396491993879
10052820 -0.8225908394171977 0.579790521488885
10054874 -0.8226378683092322 0.5791699402247087
10056928 -0.8229756783065858 0.5790260694100117
10058983 -0.8213044795636801 0.5796402212586698
10061037 -0.8216770621136607 0.579903174513883
10063091 -0.8211565805039212 0.5803711946633537
10065145 -0.8223685617855708 0.5798794677014762
10067199 -0.8221195656578916 0.5796893570196678
10069253 -0.8205291868928217 0.5791616762063553
10071307 -0.8209866901724588 0.5802858248863676
10073361 -0.820567025269418 0.5809759676031311
10075416 -0.8218768619596661 0.5803680666860385
10077470 -0.8211954919911464 0.5804302522699901
10079524 -0.8211053669816377 0.5809979316924249
10081578 -0.8201828610464346 0.5813926210212093
10083632 -0.8212748928358742 0.581288084785338
10085686 -0.8215937724193125 0.5806642285268558
10087740 -0.8206973760913776 0.5806224027732658
10089795 -0.8203086244179135 0.581371655140602
10091849 -0.8202393657679544 0.5816836940701053
10093903 -0.8204863683269501 0.5817008363679813
10095957 -0.8208376949892887 0.5814882814307804
10098011 -0.8207574555279306 0.5814319817607053
10100065 -0.8197978563925532 0.5815997548042925
10102119 -0.819741657821922 0.5817364205569735
10104173 -0.8195620686533407 0.5827247986635546
10106228 -0.820190361061742 0.581904090775232
10108282 -0.8198250370658067 0.5815161505993608
10110336 -0.8193639521713958 0.581724853487645
10112390 -0.8198075663842948 0.5816533191827354
10114444 -0.818774731834784 0.5821001416976367
10116498 -0.8205524243984054 0.582523598950363
10118552 -0.820006756973476 0.5822857246472187
10120606 -0.8199098735919148 0.5823520266476762
10122661 -0.8191496737284963 0.5820466900608735
10124715 -0.819244345298928 0.5837046798157158
10126769 -0.8198829477341124 0.5834920417957898
10128823 -0.8192779270207694 0.5824625169288599
10130877 -0.8188669686531809 0.5823209955402322
10132931 -0.8175962599761711 0.5829856119862343
10134985 -0.8184442832369603 0.583937455006957
10137040 -0.8192363683558637 0.5837676523500896
10137040 -0.8185050428663134 0.5839022723891052
10139136 -0.8189434525030889 0.5839172516713793
10141233 -0.8201214354509416 0.5825930938835243
10143329 -0.8177649570525052 0.5836702483433861
10145426 -0.8177894145661364 0.5850165336198241
10147523 -0.8186275504258252 0.5847828382377213
10149619 -0.8193483535056248 0.582753585270493
10151716 -0.8180113455086488 0.5843289286983194
10153812 -0.8179177538887343 0.5852452099341177
10155909 -0.8191810105394876 0.5846898561381365
10158006 -0.8181028381044245 0.5839110431198058
10160102 -0.8179404689349487 0.5843644276066857
10162199 -0.8178049346740031 0.5857920076207226
10164296 -0.8178739631126909 0.5848363659063932
10166392 -0.8179174074076246 0.5853196982979928
10168489 -0.8168337218309839 0.5852144665520094
10170585 -0.8179772589672889 0.5857324895351361
10172682 -0.8170327579990022 0.5855495634339102
10174779 -0.8177537428340154 0.5855059011893994
10176875 -0.8173410480795411 0.5852234117102624
10178972 -0.8169574856906476 0.5861182780918619
10181069 -0.8163518990500002 0.5868700254402361
10183165 -0.8169496391988479 0.5860038452101126
10185262 -0.8176697595285293 0.5854197707466418
10187358 -0.8163362056954231 0.5863354500699706
10189455 -0.8165839083985559 0.5870093201484086
10191552 -0.8166711841813613 0.5856309617614942
10193648 -0.8173189133556203 0.5855014044124296
10195745 -0.8155634649853514 0.5870149208548011
10197841 -0.8159876634521995 0.5873739799130328
10199938 -0.8169620343625664 0.5872088624996871
10202035 -0.8165251453008762 0.5855829318175937
10204131 -0.8155120568374294 0.587300691581945
10206228 -0.8155634484602996 0.587693441680512
10208325 -0.8169297221236045 0.5868121992189076
10210421 -0.8160315269986944 0.5858777330533234
10212518 -0.8155181866756631 0.587602890522954
10214614 -0.8152103532997907 0.588167457177497
10216711 -0.8162415374626448 0.5873421979734275
10218808 -0.8162661137041278 0.5870995049919998
10220904 -0.8147857408002317 0.5876894667656322
10223001 -0.8157032696555218 0.5885100597570396
10225098 -0.8150684838381065 0.5879756086883341
10227194 -0.8162366678894084 0.587370133856826
10229291 -0.8141281297725658 0.5883640257212345
10231387 -0.8146304373366637 0.5888136036710075
10233484 -0.8146169740556302 0.5895969209544847
10235581 -0.8156183236335596 0.588509897438425
10237677 -0.8147290225108476 0.5884886779142493
10239774 -0.8141722341500645 0.5886287573804094
10241871 -0.8144531130542522 0.5890826422542764
10243967 -0.8150307491490768 0.5892112011493978
10246064 -0.8152895145840864 0.5881187957256859
10248160 -0.8143060940174609 0.5896737071948102
10250257 -0.8138549710584541 0.5895079703854678
10252354 -0.8139022137202181 0.5900294537386304
10254450 -0.814985416176408 0.5889668703408759
10256547 -0.8137829070024025 0.5891555729122705
10258643 -0.8135785488451542 0.5898406267565559
10260740 -0.8135128395564954 0.5906742023512217
10262837 -0.8137732898856564 0.5904461662861804
10264933 -0.8142689125893972 0.5900452619159791
10267030 -0.8128273815693754 0.5906877274972699
10269127 -0.8136677210394807 0.5904952279430175
10271223 -0.8143523761483031 0.5909841321799341
10273320 -0.8138624681614712 0.5900645251354492
10275416 -0.8131176467504052 0.5909172780290927
10277513 -0.8134934272477118 0.5912880719913095
10279610 -0.8140943590049216 0.5907607900121257
10281706 -0.8130782808151903 0.5909180162960805
10283803 -0.812398241084601 0.5912505100291016
10285900 -0.8121162742627773 0.5908892297185441
10287996 -0.8132245915239108 0.5909569109623254
10290093 -0.8129654992650033 0.5913079325952889
10292189 -0.8119212668022427 0.5909683314176836
10294286 -0.8125745598283404 0.591846815349223
10296383 -0.8126485202798929 0.5918832844351073
10298479 -0.812828535766875 0.5909251394089261
10300576 -0.8116756383155405 0.592134181651068
10302672 -0.8114860121007045 0.5927112371426976
10304769 -0.8127868050592967 0.5918782619542743
10306866 -0.8119232889638538 0.5909067083529088
10308962 -0.8119737511628987 0.5931802564384467
10311059 -0.8112744715539516 0.5930081568947051
10313156 -0.812930338504612 0.5920304955160699
10315252 -0.8115856065618349 0.5918377924613154
10317349 -0.8110105280084681 0.5927888394130943
10319445 -0.8113428143039113 0.5931025012328378
10321542 -0.8117697721378933 0.5921427297086467
10323639 -0.8116947924571029 0.5923679196696426
10325735 -0.8111787703257871 0.5928443300783862
10327832 -0.8115125738666711 0.5933215701499843
10329929 -0.8111197274224425 0.5932402228828996
10332025 -0.8112035689603934 0.593350302715781
10334122 -0.8098194368015537 0.5940118558865508
10336218 -0.8105037123132954 0.593385586693737
10338315 -0.8102817108566223 0.5941143280978107
10340412 -0.8114470047590383 0.592755166620576
10342508 -0.8104367775418702 0.5938620690795304
10344605 -0.8096890682323874 0.5942416235996396
10346702 -0.8108166210693091 0.5947220531082382
10346702 -0.8109573617165275 0.5936293367680872
10348841 -0.8103613594486975 0.5948717476562265
10350981 -0.8105066686749705 0.5942062501812857
10353121 -0.8108581282710565 0.5945706349396989
10355261 -0.8090440216618618 0.5950251711542788
10357401 -0.8108680736636804 0.5943905561203258
10359541 -0.8100285253894469 0.5936684121633229
10361681 -0.8092920167145322 0.5948939499250427
10363821 -0.8107810135070745 0.5949601829083978
10365961 -0.8096443632559769 0.5944543855167208
10368101 -0.8090460807898254 0.595541199294542
10370241 -0.8094599711287012 0.5956707079523804
10372381 -0.8100964794688776 0.5950838752420375
10374521 -0.8081168878824074 0.5957474050914814
10376661 -0.8091914226858138 0.5959473528527107
10378801 -0.809431686877355 0.5956548811840737
10380941 -0.8082073887979807 0.5956397278804828
10383081 -0.8094970107403683 0.5962280114046288
10385221 -0.8088692352580124 0.5960254116182423
10387361 -0.8087644958633019 0.5959810559206601
10389501 -0.8084144660167486 0.5961896441247846
10391641 -0.8089486830946458 0.5959194001542728
10393781 -0.808291691211376 0.5971787146832956
10395921 -0.8081784566269553 0.5961180858888891
10398061 -0.8090431681989798 0.5965605625684097
10400201 -0.807638481222306 0.5972984515426675
10402341 -0.8085397484054346 0.5972176895464046
10404481 -0.808783780109923 0.5971067505585905
10406621 -0.8076916289603329 0.5966374469748402
10408761 -0.8082395635043672 0.5978503688113609
10410901 -0.8077101224344135 0.5968568581696833
10413041 -0.8067182464213423 0.598027570595302
10415181 -0.8074964271121751 0.5978385471611437
10417321 -0.8082069443266438 0.5974524957490698
10419461 -0.8073467442913573 0.5976016575728749
10421601 -0.8073243617585331 0.5987399193412682
10423741 -0.8077692976854534 0.5980902844001835
10425881 -0.8072997320722003 0.5979181474104238
10428021 -0.8064594331526513 0.5986030329631746
10430161 -0.8072025348280844 0.5975534121347523
10432301 -0.8058809138688413 0.5978090506564971
10434441 -0.8068791058023549 0.5982142678805997
10436581 -0.8071765733322543 0.5986236002247871
10438721 -0.8073108261560064 0.5989099397621463
10440861 -0.8064094923826144 0.5988043115086558
10443001 -0.8066419057935621 0.5983414768783376
10445141 -0.8064531087539419 0.5994208007279868
10447281 -0.8064696845884656 0.5994458414793423
10449421 -0.8057810263591786 0.5987526663042926
10451561 -0.8061456521900274 0.6003983661630163
10453701 -0.8066264686987119 0.6001133825665765
10455840 -0.8060699350985445 0.5989188994146084
10457980 -0.8053676009176269 0.6001273468466871
10460120 -0.8054226625348611 0.6005153224557788
10462260 -0.8064929133859784 0.5993563353211379
10464400 -0.8050596421458321 0.5991551863460877
10466540 -0.8057630221033836 0.6009414859046552
10468680 -0.8056323938716871 0.6001536389776603
10470820 -0.805160561332188 0.5997867276676392
10472960 -0.8043304268514369 0.600898889539084
10475100 -0.8060405047584802 0.6009148432370336
10477240 -0.8052185251919705 0.6001039943229457
10479380 -0.8041951273133534 0.6004443371477806
10481520 -0.8045687531617145 0.6015893545982517
10483660 -0.8054462512936791 0.6004275241771279
10485800 -0.805095610306784 0.6004858072110996
10487940 -0.8047165206619864 0.601893298126632
10490080 -0.8050550810037527 0.6017078366712293
10492220 -0.8046140632817601 0.601176622551296
10494360 -0.80408888266313 0.6016369329724757
10496500 -0.8044449902393707 0.6020378720504351
10498640 -0.8040482669798847 0.6017346143465162
10500780 -0.8047348948904708 0.6010937878858721
10502920 -0.8036391925393602 0.6024982946553485
10505060 -0.804755983734891 0.6013057806803884
10507200 -0.8043664533439046 0.6020538236897773
10509340 -0.8036445236707137 0.6017664218983528
10511480 -0.8037371576890082 0.6026548669335307
10513620 -0.803381845948883 0.6020500437201295
10515760 -0.8040613147909572 0.6024048568922394
10517900 -0.8026407141158032 0.6029722316878537
10520040 -0.8034635519655953 0.6024958703749811
10522180 -0.8040277846094941 0.6029021604039476
10524320 -0.8034317222837618 0.6022287289960065
10526460 -0.8031776133112187 0.6033787559474642
10528600 -0.8031374771128998 0.6036680356925288
10530740 -0.8032172492874549 0.6020061074717623
10532880 -0.8025537950757221 0.6036550341285651
10535020 -0.8028977520937524 0.6036752190431934
10537160 -0.8035791002576654 0.6034141642477132
10539300 -0.802177250894017 0.6032804381825329
10541440 -0.8032082342549197 0.6047231716877713
10543580 -0.8032621460438195 0.603524840709261
10545720 -0.8021787087872484 0.6028897179784566
10547860 -0.8022011232350884 0.6051079837695506
10550000 -0.8027251851648742 0.60400581484392
10552140 -0.802065375477916 0.6035821698635725
10554280 -0.8014164005735531 0.6045269238885866
10556420 -0.8023623767161169 0.6047833854451048
10558560 -0.8023677847108566 0.6040800684490023
10560700 -0.8020548995914104 0.6035875154572304
10560700 -0.8015753224870619 0.6037443745289603
10562884 -0.801259986426727 0.6044941911780544
10565068 -0.8016553911947434 0.6051656218186604
10567252 -0.801493897700578 0.6041923360594249
10569436 -0.8009976631001189 0.6055447283516543
10571621 -0.8011982334826935 0.6057515122542034
10573805 -0.8016248840436274 0.6052133786705635
10575989 -0.80029996526691 0.6053635436020537
10578173 -0.8014240257748809 0.6060021194772489
10580358 -0.8006911128660117 0.6053992152263363
10582542 -0.8009414433387227 0.6057774380584131
10584726 -0.8007216512040481 0.6063962306608942
10586910 -0.8002827358676259 0.6062731751319234
10589094 -0.8005392046218963 0.6061221208122268
10591279 -0.7999742686803761 0.6066641048431597
10593463 -0.8010379238517705 0.605882066075493
10595647 -0.8004991350428556 0.6066643204240398
10597831 -0.8000116039535725 0.6065893484129884
10600016 -0.800081738821528 0.6063949974441599
10602200 -0.799557264435541 0.6071332613056671
10604384 -0.800098780673739 0.6072891846952849
10606568 -0.8007113439514805 0.6067958121454705
10608753 -0.799306060639043 0.6078217725227686
10610937 -0.7996354811457561 0.6073500784778376
10613121 -0.7993577007497418 0.6070874019065513
10615305 -0.7998380095591249 0.6074225864096363
10617489 -0.7995575546801744 0.6066583320588302
10619674 -0.7999963713911443 0.6071531835444587
10621858 -0.7986034208209636 0.6080549452566629
10624042 -0.7992034789517988 0.607768048248854
10626226 -0.7991023536078555 0.6075223281110609
10628411 -0.7989835933325456 0.6081362956423233
10630595 -0.7996456538939355 0.6082640705035698
10632779 -0.7989264868692675 0.608105010041133
10634963 -0.7978831581868305 0.6081374901815602
10637148 -0.7985569319082257 0.607892147473907
10639332 -0.798442034859715 0.608063047653231
10641516 -0.7981583646988155 0.6083146697263956
10643700 -0.7989248664830577 0.6090617716968948
10645884 -0.7980345346779366 0.6091605572740771
10648069 -0.7983990628078339 0.6093903858171918
10650253 -0.7977404900407009 0.6090723076476969
10652437 -0.7988040656663488 0.6088868319664121
10654621 -0.7976821765930809 0.6096283437896286
10656806 -0.7974262607202254 0.6089608002540042
10658990 -0.7975350410970523 0.6097299541734345
10661174 -0.7969926451440855 0.6096030651453235
10663358 -0.7982047877144687 0.6104373136527264
10665543 -0.7971782809647677 0.6096849050317442
10667727 -0.7973385138461617 0.6095937547083019
10669911 -0.7969780718811883 0.6104564135309662
10672095 -0.7971077825317546 0.6094769503427307
10674279 -0.7974228981368938 0.6103752395949239
10676464 -0.7965622314640508 0.6104996185782434
10678648 -0.7970094179311175 0.610077292203711
10680832 -0.797531194370528 0.611037103086432
10683016 -0.7961614193507177 0.6109749177966048
10685201 -0.796300811124216 0.6102612105051434
10687385 -0.7972963964693808 0.6110073340677419
10689569 -0.796571728561424 0.6110310924292471
10691753 -0.7965132937635719 0.610938858363029
10693938 -0.7970381145624786 0.611424427844227
10696122 -0.7962485568993768 0.6116780517169614
10698306 -0.7954698182697962 0.6114121653782714
10700490 -0.7966211016029479 0.6122207948139762
10702674 -0.7958622405606676 0.612135577120722
10704859 -0.7960466417102557 0.6112092600049969
10707043 -0.7961327886902526 0.6125321232217341
10709227 -0.7958279574398182 0.6119660608606798
10711411 -0.7952335522022715 0.6122547329002543
10713596 -0.7955221929406345 0.6130226932426136
10715780 -0.7955776520338107 0.6119937800055681
10717964 -0.7951748419081579 0.6124236093509213
10720148 -0.7953461558857029 0.612547692543291
10722333 -0.7956815153675869 0.6124225172859362
10724517 -0.7951058188389749 0.6125109966314957
10726701 -0.7951116221837259 0.6130599547105685
10728885 -0.7942396998298181 0.6125707634954616
10731069 -0.7950028569275511 0.6127324057408924
10733254 -0.7950087866650197 0.6135172857720806
10735438 -0.7946346167846825 0.613142413820985
10737622 -0.7946364805980224 0.6129233166363187
10739806 -0.7940109633096503 0.6137149679433003
10741991 -0.7943941039621794 0.6138393819454974
10744175 -0.794753591413277 0.6135756646406563
10746359 -0.7946710551666861 0.6131824411212521
10748543 -0.7941257398351199 0.613708132309605
10750728 -0.7935920525800982 0.6139293060733111
10752912 -0.7944260423671602 0.613837840446535
10755096 -0.7938089039735531 0.6139921477016395
10757280 -0.793893218955969 0.6145558952969031
10759464 -0.7935752469571257 0.6135997240259702
10761649 -0.7933542885599506 0.6142950840706297
10763833 -0.79341371888241 0.6151208559786802
10766017 -0.79313217568873 0.614493478295649
10768201 -0.7931248673650941 0.6145169261231438
10770386 -0.7933770885059825 0.6154025168105882
10772570 -0.7930237520588688 0.6147004586685804
10774754 -0.793271330999235 0.6145252661523908
10776938 -0.7933519407802456 0.6155632083619097
10779123 -0.7927562189375509 0.61551232722658
10779123 -0.7925476259796803 0.6157236393864476
10781352 -0.7928646512301941 0.6164315106487408
10783581 -0.7924324763898002 0.6151149245949286
10785811 -0.792336415940258 0.6162428035570936
10788040 -0.7922478761508411 0.6155210879500943
10790270 -0.7919342462223707 0.6157909961104777
10792499 -0.7922924479046902 0.6164924924853101
10794728 -0.7925385991124717 0.6153250646243399
10796958 -0.7917793878149414 0.6168964326598428
10799187 -0.7924134822847182 0.6160085701949906
10801417 -0.7918899916682184 0.6162776540239333
10803646 -0.7914088362280766 0.6172880446957913
10805876 -0.7923517524219544 0.6157673970774437
10808105 -0.7906899216236203 0.6174081529694407
10810334 -0.7919523891461014 0.6172638225589541
10812564 -0.7917353903130412 0.6156771731477447
10814793 -0.7914942373823612 0.6180983218968098
10817023 -0.7917587344323261 0.6172972113082849
10819252 -0.7906387871564171 0.6165557401296868
10821481 -0.7902835418714119 0.6175862918436558
10823711 -0.7912679436611432 0.6178330959028502
10825940 -0.7903308599200657 0.6179402472216386
10828170 -0.791507217008252 0.617638315533997
10830399 -0.7907229194233608 0.6174621359124037
10832629 -0.7903577606232026 0.6191868177101584
10834858 -0.7908322849833362 0.6176192448835867
10837087 -0.7897005502398368 0.6183769214895249
10839317 -0.7906444270556108 0.6184361549563083
10841546 -0.7904613871666418 0.6174277727191435
10843776 -0.7901663374146823 0.6193413147399564
10846005 -0.7903579391377779 0.6187872478497852
10848235 -0.7893809035911106 0.6183727517358948
10850464 -0.7898812663899426 0.6193358209066596
10852693 -0.7898033885765344 0.6186050262700242
10854923 -0.7893579716918809 0.6194624148970659
10857152 -0.7895355719167966 0.6193359064241653
10859382 -0.7896918373192853 0.6187826484438103
10861611 -0.7890949726089821 0.6204726197792931
10863840 -0.7894087306278863 0.6191791234975866
10866070 -0.7876990625236905 0.6198633897625838
10868299 -0.7899901221601202 0.6192260084478521
10870529 -0.7897036740330479 0.6192413621147007
10872758 -0.7890993557553275 0.6202972032902621
10874988 -0.789473978442232 0.6198968590049052
10877217 -0.7882022598841376 0.6198590860826694
10879446 -0.7887745206608355 0.6201677327903464
10881676 -0.7889972546046169 0.6208841383235919
10883905 -0.788101283813684 0.6204900809945864
10886135 -0.7881462406702968 0.6213908787666627
10888364 -0.7877202229646507 0.6203569879090196
10890594 -0.7883137951409346 0.6212266927117085
10892823 -0.7879659893222094 0.6218385885734151
10895052 -0.7882496928331053 0.6204509935637912
10897282 -0.7876462254062988 0.6212205150209769
10899511 -0.7875146468744476 0.621471755155182
10901741 -0.7871621449492167 0.621079265427688
10903970 -0.787111126530189 0.6216375473983146
10906199 -0.7875345650482043 0.6205979947553304
10908429 -0.7873747644356442 0.6226075818868988
10910658 -0.787235158098263 0.622019998791161
10912888 -0.7872097785655434 0.6208917819014504
10915117 -0.7870299915066837 0.6226052843921188
10917347 -0.7870780061394985 0.6211403152599339
10919576 -0.7863931642159204 0.6231923310465846
10921805 -0.7870507345730937 0.6222854236629578
10924035 -0.7863740652596027 0.6225445579964191
10926264 -0.7871938025492682 0.6231292489955688
10928494 -0.786504389414373 0.6223610281346937
10930723 -0.7861894884066725 0.6232681869725764
10932952 -0.7862515145286421 0.623074091269773
10935182 -0.786231971253861 0.622694408986071
10937411 -0.7868901679285096 0.623933636410651
10939641 -0.7857013869668913 0.6234170420212146
10941870 -0.786005984032402 0.6234647244515799
10944100 -0.7860466561296374 0.6233828805332593
10946329 -0.7859860023431735 0.623880912374248
10948558 -0.7856569337647661 0.6236582467917609
10950788 -0.7854267892081458 0.6241806268133895
10953017 -0.7854504144618947 0.6235561343595101
10955247 -0.7846586466207871 0.6255300227724836
10957476 -0.7854457206987686 0.6236965595036874
10959706 -0.7856478882152607 0.6240836206883977
10961935 -0.7849269630015813 0.6250739573884768
10964164 -0.7860930787485028 0.6232157525952385
10966394 -0.7850405383684949 0.6245614309695676
10968623 -0.7848654747334051 0.625038190895257
10970853 -0.7845255684827959 0.623976692342908
10973082 -0.7843421611654631 0.626276818981049
10975311 -0.7852104955973931 0.624278977674374
10977541 -0.7839018832386713 0.6259590821108787
10979770 -0.7844521516720624 0.6245495865094631
10982000 -0.7838132875728759 0.6250672801161875
10984229 -0.7841381751153721 0.6264522774179829
10986459 -0.7842808944351412 0.6244858860510409
10988688 -0.783490952141618 0.6257640468879518
10990917 -0.784048096227119 0.6258497567767758
10993147 -0.7836762477875051 0.6251408945169861
10995376 -0.7838520082788546 0.6262452330296266
10997606 -0.7840054656955671 0.6258509360850032
10999835 -0.7833415425389444 0.626638786911056
11002065 -0.7828550423361601 0.6252785002395737
11002065 -0.7831564714621375 0.6254175330237643
11004340 -0.7833425599953077 0.6269637016914907
11006616 -0.7827102605079787 0.6263403257265877
11008891 -0.782922465551714 0.6271003896949178
11011167 -0.7835578242392582 0.6267537246715694
11013442 -0.781598313592983 0.6274279537941659
11015718 -0.7830398785789214 0.6268785609015387
11017993 -0.7820739199439313 0.6277472885858615
11020269 -0.7822144127102959 0.6266872611040287
11022544 -0.7816079664213161 0.6272401295880556
11024820 -0.7824020595398348 0.627745048493689
11027095 -0.782329144119661 0.6269363489445064
11029371 -0.7817963963271891 0.6276354110432103
11031646 -0.7819958140340836 0.6272732328310869
11033922 -0.7828748649614836 0.6277461930536712
11036197 -0.7820916220468827 0.6277772616072538
11038473 -0.7817177147805227 0.6281267564792964
11040748 -0.7825861586869953 0.6280674331682525
11043024 -0.7818331007781316 0.6284331582387676
11045299 -0.7819081215525839 0.6285087313136495
11047575 -0.7812307318246209 0.6283210463149281
11049850 -0.7810738605395927 0.6282459640417639
11052126 -0.7814161681816243 0.6294895280021882
11054401 -0.7811675905776838 0.6284654813111502
11056677 -0.7811622757454755 0.6291903960660064
11058953 -0.7809005970096167 0.6292443167780647
11061228 -0.7806471540652071 0.6294030093004666
11063504 -0.7813467154401496 0.6289670388651368
11065779 -0.779553140485175 0.6294600748632351
11068055 -0.7808389818327205 0.6297959764169027
11070330 -0.779984519689234 0.629574321573563
11072606 -0.7807860466997593 0.6300925199786223
11074881 -0.7803508432016086 0.6297478335344346
11077157 -0.779923825397731 0.6304598704603875
11079432 -0.780571352584067 0.6289786673636433
11081708 -0.7798279229412172 0.6306510001961887
11083983 -0.7801979252902451 0.6296186977630882
11086259 -0.7802194965070893 0.6302090828123581
11088534 -0.779626790245324 0.6306204770013087
11090810 -0.7796503305247919 0.6312062469077881
11093085 -0.7795527838213624 0.6305891354920835
11095361 -0.7799280937841434 0.6304964641672635
11097636 -0.779498497551991 0.6306724866203822
11099912 -0.7795873000424746 0.6312400440272532
11102187 -0.7786165725235012 0.631040764705328
11104463 -0.778507857976219 0.6318153079350188
11106738 -0.7789234602152059 0.6312294341036124
11109014 -0.7787799111947535 0.631707270358199
11111289 -0.7789454281984849 0.6315293732612389
11113565 -0.7791645222595824 0.6324108149405767
11115841 -0.7784899384031024 0.631392647569526
11118116 -0.7785386307410133 0.631740849316137
11120392 -0.7783342887215606 0.6314021178302945
11122667 -0.7773864849324802 0.6324753162823633
11124943 -0.7780678972841041 0.6319297105687353
11127218 -0.7782182702923303 0.6319584231744234
11129494 -0.7780572291023301 0.6327593493840892
11131769 -0.7780892134983863 0.6317234042324118
11134045 -0.7780198727540469 0.6337813932599823
11136320 -0.7780996610852752 0.6317119227076555
11138596 -0.7768766843202 0.6326367190717913
11140871 -0.7773487046016745 0.6328533029995459
11143147 -0.7764999069436461 0.6334980897310571
11145422 -0.7778448317721747 0.6339568693049004
11147698 -0.7770619893749264 0.6332870689202166
11149973 -0.7772626909678954 0.6339765405613099
11152249 -0.7774521632095903 0.6329563086293373
11154524 -0.7763553859633141 0.6338588726956734
11156800 -0.7777262115298089 0.6336106647001779
11159075 -0.7761134473290915 0.6341101676930252
11161351 -0.7766523451572243 0.6333170231892932
11163626 -0.7765234282876282 0.6341600987978856
11165902 -0.7762070814559514 0.6349632530278989
11168177 -0.7769569748534765 0.6338611899997468
11170453 -0.7760644637595958 0.6347281560113912
11172729 -0.7761995064723731 0.6334522899079887
11175004 -0.775658497338561 0.6346156928584645
11177280 -0.7758681923213558 0.6339882979702629
11179555 -0.7756210223848835 0.6345858981229108
11181831 -0.7755186773239211 0.6356668443969657
11184106 -0.7755992695861993 0.6344213744762459
11186382 -0.7755827325899822 0.636295725040686
11188657 -0.775956676831164 0.6351666519260257
11190933 -0.7751128302781944 0.635921739899263
11193208 -0.7753430421014668 0.6353071780143966
11195484 -0.7743525756753711 0.6355304403915852
11197759 -0.7748787565113602 0.6363662068190629
11200035 -0.7746437636059926 0.6352676831984208
11202310 -0.7745571358969483 0.6370213088172347
11204586 -0.7747532470344209 0.6354393414825077
11206861 -0.7738395715759695 0.637117574729924
11209137 -0.7747580426758188 0.6358571330770371
11211412 -0.7735518646957804 0.6365080564267657
11213688 -0.7739972163372641 0.6354070877304335
11215963 -0.7743654507875871 0.6362707421957078
11218239 -0.7743202424616167 0.6373137539181064
11220514 -0.774442374062181 0.6355295842489377
11222790 -0.7735397370150006 0.6378553795778872
11225065 -0.7744195798007873 0.6369929926513692
11227341 -0.7736110521396009 0.6372531438839801
11229617 -0.77352759762025 0.6382335830247939
11229617 -0.7730590881143378 0.6384999685629303
11231939 -0.7738758355475187 0.6372345441941549
11234262 -0.7728168489648536 0.6377385033348746
11236584 -0.7734918075501619 0.6368964011735609
11238907 -0.7722297105720304 0.6377859872994167
11241229 -0.7734216575178277 0.637428305653901
11243552 -0.7729150703385467 0.63796886369066
11245875 -0.7730917607766503 0.63784918410843
11248197 -0.7725240147728719 0.6382363500031359
11250520 -0.7729500505991478 0.63788970592183
11252842 -0.7718665404771398 0.6386027198194397
11255165 -0.773256222033862 0.6387289385230175
11257488 -0.7713799131578196 0.6386285129972109
11259810 -0.7726978236266536 0.6382827237117221
11262133 -0.7712969748852894 0.6396436073068722
11264455 -0.7721896342563411 0.6380786099043696
11266778 -0.7723111023553572 0.6385839106811617
11269101 -0.7718945339103929 0.6394652250714038
11271423 -0.7710471733671576 0.6398541413257479
11273746 -0.7717145692531002 0.6390480542006496
11276068 -0.771242565972838 0.6396008150284292
11278391 -0.7715236375532333 0.6397228026605308
11280713 -0.7707053500667863 0.639165364564307
11283036 -0.7714710129854242 0.6400535975720922
11285359 -0.7718286482939136 0.6399117630630071
11287681 -0.7708102507557011 0.640366333541411
11290004 -0.7709057285845217 0.6392345237425232
11292326 -0.7711137141883665 0.6407740401779499
11294649 -0.7707680993928827 0.6400204968979436
11296972 -0.7711861336746544 0.6407418385388151
11299294 -0.7707937909386544 0.6405697248336557
11301617 -0.7700949855404313 0.6405106458889094
11303939 -0.7704155824198305 0.6406585634559181
11306262 -0.7696093982496582 0.6418786469233045
11308585 -0.7706168549052287 0.6409497408661321
11310907 -0.7698670397111097 0.6416799980967162
11313230 -0.7698195938400754 0.6417643181179917
11315552 -0.7696987952743685 0.6419495763387733
11317875 -0.7702720229079616 0.6411757266901008
11320198 -0.7693678966274575 0.6419158861071521
11322520 -0.7699474508557722 0.6419394586277296
11324843 -0.768461230709395 0.6420589567443246
11327165 -0.7696593096081327 0.6411796790475259
11329488 -0.7685580228933826 0.6433206100456718
11331810 -0.7691571218092997 0.6418170367199867
11334133 -0.7683999282055576 0.6424684513450616
11336456 -0.7694486296460961 0.6430176880459522
11338778 -0.767523967884523 0.6423256421588033
11341101 -0.769038951250076 0.6429547899827596
11343423 -0.7686059522374884 0.6429461025778729
11345746 -0.7680448079332831 0.6425095475215082
11348069 -0.7683408562422673 0.6431349539669245
11350391 -0.7675642044092598 0.6429620066660202
11352714 -0.7677943045611133 0.643626606784497
11355036 -0.7685515485162292 0.643077655192262
11357359 -0.7671676538858285 0.6440861192412598
11359682 -0.7684277324858694 0.642786179516545
11362004 -0.7672585171241822 0.6449449637254959
11364327 -0.7678141611731348 0.6426030794709019
11366649 -0.7673820053426743 0.6445783485458264
11368972 -0.767060817237118 0.6436801600825804
11371294 -0.767149344720195 0.6445338947301832
11373617 -0.7676064450783078 0.643631366798966
11375940 -0.7659958745772903 0.6448059384166048
11378262 -0.7675203312243967 0.6444870466354785
11380585 -0.7665303818325115 0.6451424280662846
11382907 -0.7671042067128248 0.644295666984286
11385230 -0.7668512594543114 0.6456135441243039
11387553 -0.7666764559744703 0.6453350296633291
11389875 -0.7660832204129367 0.645219322394655
11392198 -0.7665757705829536 0.6453783762454407
11394520 -0.7652982278520539 0.6451410653553439
11396843 -0.7663717892401736 0.6455644022302447
11399166 -0.7653059404748253 0.645683604521283
11401488 -0.7659442358822076 0.6452523229258424
11403811 -0.7661446436208336 0.6453706481849707
11406133 -0.7654930810159623 0.6456738549728589
11408456 -0.7654216291645908 0.645685527447384
11410779 -0.765676981130182 0.6464254499861714
11413101 -0.764763879325437 0.6459245149344582
11415424 -0.7656524963715756 0.6465377928971926
11417746 -0.7644426006163165 0.6463199729988631
11420069 -0.765582086641813 0.6462775409478096
11422391 -0.7648611249865687 0.6462178504240333
11424714 -0.7644994851412628 0.6471187018052904
11427037 -0.7651218363284578 0.646151978936938
11429359 -0.7645135324113239 0.6474415171713599
11431682 -0.7643186818391157 0.646346809788272
11434004 -0.7642935246922792 0.6480537036592798
11436327 -0.7646211680662883 0.647280311117739
11438650 -0.7643949082985754 0.6478490863530538
11440972 -0.7642002095146102 0.6469916660482541
11443295 -0.7631328975753434 0.6480563716407678
11445617 -0.7644346308216943 0.6477603636805561
11447940 -0.7638774898296317 0.6484968926192218
11450263 -0.7636702289876075 0.6467400036529024
11452585 -0.7637395451962204 0.6488675239713063
11454908 -0.7633253219233155 0.6481120261429018
11457230 -0.7640443866775063 0.6481792585785321
11459553 -0.7644076932657341 0.6484485100702022
11461876 -0.7624227768801558 0.6485130669637449
11461876 -0.7630785526318676 0.6484285488179511
11464246 -0.7628757348389122 0.6485823970718005
11466617 -0.76291946966071 0.6484637603253213
11468987 -0.7630099318251639 0.6494597005761559
11471358 -0.7628300284466345 0.6481875709623534
11473729 -0.7626560945834416 0.6493649252497352
11476099 -0.7624254701106657 0.6493650281780722
11478470 -0.7628746971134597 0.6490967598863425
11480841 -0.7611510436887315 0.6503195063045893
11483211 -0.7626785820958872 0.6490972206726969
11485582 -0.7616427742970815 0.650443252903184
11487952 -0.7616526460428188 0.6490954988133533
11490323 -0.7616343910917195 0.650839620403749
11492694 -0.7615796069522485 0.6504963126462551
11495064 -0.7624203253617856 0.6492250348564337
11497435 -0.7614602529923427 0.6510394398448428
11499806 -0.7622086274300987 0.6497300107746582
11502176 -0.7616290250444091 0.649862066688684
11504547 -0.7607890016751124 0.650874820489132
11506917 -0.7616509598387858 0.6505760107190819
11509288 -0.7604804104537463 0.6511356238720455
11511659 -0.760774596851248 0.6510344270647532
11514029 -0.7601170336243794 0.6508409286220078
11516400 -0.7597290690089399 0.6511314768056484
11518771 -0.7601446366752109 0.6514919309164164
11521141 -0.7596789380463477 0.6515034766103243
11523512 -0.7607429995297805 0.6513414348769123
11525883 -0.7603075175411175 0.65189177691154
11528253 -0.7602946627577578 0.6514471153444507
11530624 -0.760500389303484 0.6524199200442331
11532994 -0.7597887368036988 0.6513027857667366
11535365 -0.7605024379354474 0.6521980900830875
11537736 -0.7588240829721205 0.6519373463351443
11540106 -0.7596429587924322 0.651330673086433
11542477 -0.7592626393698685 0.6531436889330516
11544848 -0.7582499994954564 0.6521205995510343
11547218 -0.7599192679364193 0.6530798518820483
11549589 -0.7584626774147186 0.6532023708490415
11551959 -0.7593101460437867 0.6520577471616712
11554330 -0.759251362498251 0.6530369989631917
11556701 -0.7585902739563518 0.6529652824489223
11559071 -0.7589488666656209 0.6529986042388175
11561442 -0.7587407544751825 0.6535844963963966
11563813 -0.7584446605963427 0.6531156291460778
11566183 -0.7580164780254134 0.6540883327644424
11568554 -0.7586473708773239 0.6538357923793491
11570924 -0.7579291748169543 0.6544181988947642
11573295 -0.7572385571759793 0.6534696802586171
11575666 -0.7581875949617967 0.6545907607240912
11578036 -0.7571282342934261 0.6550903880631009
11580407 -0.7576466019596084 0.6541230759424843
11582778 -0.7567251430589086 0.6544207226817885
11585148 -0.7577462047727774 0.6545116860966593
11587519 -0.7571372626429481 0.6550248601883533
11589890 -0.7575216467540016 0.6545990645036647
11592260 -0.7571361358568376 0.6549522326580896
11594631 -0.7566809930239574 0.6544701671035379
11597001 -0.7572565405246023 0.6550698524614659
11599372 -0.7561583269058639 0.6554284086145858
11601743 -0.7573039224932837 0.6551609837787399
11604113 -0.7563657269782134 0.6559485548698305
11606484 -0.7569457499076888 0.6553349430551157
11608855 -0.7553926829754187 0.6563004395849712
11611225 -0.7565654937548875 0.6555108698321513
11613596 -0.7551778985333643 0.6555101395041311
11615966 -0.7562906281844134 0.6554254693963737
11618337 -0.7560034320257306 0.656402747884547
11620708 -0.7555073723281266 0.6562323382856803
11623078 -0.7557223359163691 0.656314814548932
11625449 -0.755349962850213 0.656562896473708
11627820 -0.7555741225730417 0.656384640792183
11630190 -0.7551256803854525 0.656264324846657
11632561 -0.7546777600539334 0.6571160046290591
11634931 -0.7547375879497026 0.6568089114388675
11637302 -0.7552691413898223 0.6569559540543508
11639673 -0.7549149561639922 0.6568439056477584
11642043 -0.7552586113087374 0.6566941453658592
11644414 -0.7544702134940265 0.6575667274418086
11646785 -0.7547665300534382 0.6575552238337011
11649155 -0.7546404408222186 0.6579741600401074
11651526 -0.754918532096282 0.6579234369771814
11653897 -0.7532276975600813 0.6578199285680657
11656267 -0.7542669118404647 0.6581163833353018
11658638 -0.7536437371238475 0.6583667214900332
11661008 -0.7546224926270204 0.6578653453703336
11663379 -0.753396363509934 0.6584864334907772
11665750 -0.7537644106455119 0.6579556586480827
11668120 -0.7539922334154232 0.658927513581459
11670491 -0.7532449864279953 0.658273094727963
11672862 -0.7539516782558087 0.6587770826115013
11675232 -0.7536011255064315 0.658176443093989
11677603 -0.7533262746418437 0.6591474112139878
11679973 -0.7525147598946746 0.6593551514117646
11682344 -0.7531345205399669 0.6592293491437996
11684715 -0.752088013731282 0.6603820042227669
11687085 -0.7533564393846985 0.6589509837422372
11689456 -0.7528470431022728 0.6600380956006351
11691827 -0.7521804471856793 0.65948098258043
11694197 -0.7526488547559212 0.660077573641704
11696568 -0.7522524803962146 0.6595318878908856
11698939 -0.7510640679914372 0.661224810231306
11698939 -0.7515511098063227 0.6608342438851412
11701358 -0.7521815861858268 0.6594686664158873
11703778 -0.7526610865530945 0.6599057683681075
11706197 -0.7505413210061929 0.6614182932065089
11708617 -0.7518432548619307 0.6603329889509022
11711037 -0.7517135177269281 0.661330364213697
11713456 -0.7510664180565203 0.6610477152557976
11715876 -0.7521434433784427 0.6612753891105064
11718296 -0.7506934733513494 0.6610213995462519
11720715 -0.7515013522073918 0.660497106352253
11723135 -0.7500995504689111 0.6617904508079707
11725555 -0.750959322157116 0.661335688102521
11727974 -0.7516848665128628 0.6615907587436886
11730394 -0.7503795522245216 0.661571852952306
11732814 -0.7513738562230398 0.6610199152997673
11735233 -0.7501109078718594 0.6632168860480766
11737653 -0.7500128827820717 0.6611097883685425
11740073 -0.7505725363834689 0.6627490083317806
11742492 -0.7492936153522949 0.6620200326288602
11744912 -0.7507929215847426 0.6617567895638578
11747332 -0.7497968902466727 0.6633529770045073
11749751 -0.7498755231200049 0.6621484976127382
11752171 -0.7498051447585098 0.6632972477847969
11754590 -0.7496548888108295 0.6626882821310117
11757010 -0.749694952407367 0.6631853004916932
11759430 -0.7487079059678493 0.6630692617614652
11761849 -0.7497000438458292 0.6632695888789979
11764269 -0.7480240290525216 0.6639228055569961
11766689 -0.7496805445758041 0.662878551163114
11769108 -0.7491826669830228 0.66364519791942
11771528 -0.7478671254369406 0.6632035277735215
11773948 -0.749785414278151 0.6636296602214579
11776367 -0.7475831117272297 0.6646663135038021
11778787 -0.7477454232605564 0.6630146789857403
11781207 -0.7484405218356625 0.6646535369592557
11783626 -0.7478365689150946 0.6638667439886078
11786046 -0.7484250522363715 0.6635004928506169
11788466 -0.7471634260112983 0.6655537098038832
11790885 -0.7476082929021759 0.6638533635861654
11793305 -0.7476208915279539 0.6649287461600527
11795725 -0.747830353597568 0.6648065392822965
11798144 -0.747252138951858 0.6648508119216633
11800564 -0.7462772948189778 0.6649190789895207
11802983 -0.7478905810236482 0.6651610662609141
11805403 -0.7464668771463964 0.666217823388493
11807823 -0.7474549941212182 0.6649333212857069
11810242 -0.7467547071914025 0.6657252208461365
11812662 -0.7463055416979945 0.6649852615771729
11815082 -0.7472449702889689 0.6652575927416176
11817501 -0.7461721100897435 0.6663196169328313
11819921 -0.7466505554265568 0.6659690267804856
11822341 -0.7465882827285696 0.6665027400020624
11824760 -0.7461366879450669 0.6658134857750376
11827180 -0.7456133978781327 0.666647855821707
11829600 -0.7460158537310722 0.6661932105284725
11832019 -0.7440922891043651 0.6677341760620861
11834439 -0.7463475516706849 0.6666760032032759
11836859 -0.7458414856365878 0.6672620006939917
11839278 -0.7448646828565798 0.6664947876156708
11841698 -0.7456200641690232 0.6664403535190633
11844118 -0.7443740784149185 0.667443839466399
11846537 -0.7450251464097957 0.6666722159699288
11848957 -0.7450476058430257 0.6677237402371485
11851376 -0.7443076433969132 0.6672199792645431
11853796 -0.7452645292418498 0.6672928149095969
11856216 -0.7442596204653251 0.66781170828437
11858635 -0.7447065625335033 0.6675754086947988
11861055 -0.7440704135049654 0.6680337235415996
11863475 -0.7442634880182998 0.6675143553235463
11865894 -0.7441458384042834 0.6681086784571119
11868314 -0.7431583972941234 0.6680181578370253
11870734 -0.7444017080763974 0.6683166847658265
11873153 -0.7434019579816622 0.6689916648424143
11875573 -0.7435870709910389 0.6674431869174147
11877993 -0.7437251749197147 0.6694199277128254
11880412 -0.7426979699055895 0.6690878442570878
11882832 -0.7435889033024792 0.6685749631662743
11885252 -0.742793766052122 0.669785693088967
11887671 -0.7427584245301035 0.6687671570714446
11890091 -0.743975948085603 0.6700438506543347
11892511 -0.7421935245505489 0.6702833516800148
11894930 -0.7429939402777233 0.6688496220658902
11897350 -0.7417679994143551 0.6703051945533528
11899769 -0.7429889007835229 0.66954808945956
11902189 -0.7418584955498359 0.6699629260619542
11904609 -0.7417088569862598 0.6699254080572306
11907028 -0.7425344489425083 0.6703022503712527
11909448 -0.7407973519091257 0.6694008340877273
11911868 -0.742168567291127 0.6702828992677142
11914287 -0.7409931653295865 0.6713445508173923
11916707 -0.7419343241773851 0.6704998300793169
11919127 -0.7417878473243811 0.6704410206097056
11921546 -0.7400557877032097 0.6705259548915462
11923966 -0.7410242781690438 0.6703126640191158
11926386 -0.741362218610076 0.6719084658701907
11928805 -0.7408869100689681 0.6706749220603744
11931225 -0.7411906241418935 0.6713841941299744
11933645 -0.7396212072991096 0.6718659947336652
11936064 -0.7408134458300074 0.6715782786199799
11938484 -0.7400999175439482 0.6727177359776214
11940904 -0.7400888244461753 0.6719401226402187
11940904 -0.7400827586414886 0.6719077750123612
11943373 -0.7401740360641247 0.6722145647259137
11945843 -0.7397446507659122 0.6722584453663456
11948313 -0.7400491388369986 0.6712562333559476
11950782 -0.7399185891069856 0.6727899057449763
11953252 -0.7389883433602743 0.6725556027502373
11955722 -0.7392920639326148 0.6721777945266736
11958191 -0.7397579171779461 0.6730809571696315
11960661 -0.7394523706879769 0.6732684073039426
11963131 -0.7392145779191616 0.6727882046579408
11965601 -0.7390195070136906 0.6741428430233901
11968070 -0.7393090055448562 0.6728160973578416
11970540 -0.7388904123775412 0.6734323842359367
11973010 -0.7381364099252715 0.6732878930056675
11975479 -0.7386423368516537 0.6728926487280602
11977949 -0.7388977565506907 0.6738891789444947
11980419 -0.7373976516024854 0.6741938846856385
11982889 -0.7385021447953639 0.6735393983197739
11985358 -0.7385255125361658 0.6743089553868657
11987828 -0.7369198998162887 0.6737016448977508
11990298 -0.7390298884618395 0.6732223252598557
11992767 -0.7371254296870652 0.6754653886949571
11995237 -0.7373911955683214 0.6734998099253764
11997707 -0.7390304801327826 0.6746961997690784
12000177 -0.73610639789295 0.6755907735334076
12002646 -0.7363140248759749 0.674051140467065
12005116 -0.737946898077628 0.675574070243088
12007586 -0.73597729274193 0.6751812406833498
12010055 -0.7366294672531016 0.6745327930131109
12012525 -0.7376626107815265 0.6759851228191283
12014995 -0.7356279145637505 0.6757291585537476
12017465 -0.7370872428781945 0.675262035749508
12019934 -0.736912461731016 0.6769274979598627
12022404 -0.7356094570566073 0.675470869185218
12024874 -0.7363466358491477 0.6756777351441543
12027343 -0.7361742773177417 0.6763887145176741
12029813 -0.7351018269583883 0.675742918412718
12032283 -0.7363055646480091 0.6754450992989925
12034752 -0.7348882387577679 0.6772797703007367
12037222 -0.7348764133974951 0.6760147095026119
12039692 -0.7354746827264161 0.6769539817065157
12042162 -0.7345401308009943 0.6775316651233039
12044631 -0.7342922501096928 0.6759944971103936
12047101 -0.7354618762037823 0.6774191626296568
12049571 -0.7341095571214357 0.677660479025703
12052040 -0.7346235102997407 0.6763169933840487
12054510 -0.7346994639954105 0.6779368084592766
12056980 -0.7333458498389384 0.6774935873360206
12059450 -0.7350732228785657 0.6768889355241886
12061919 -0.7338554444757245 0.6785097999873227
12064389 -0.7333328248467553 0.6778223566522159
12066859 -0.7345515082439086 0.6769238773213405
12069328 -0.7330055837798338 0.678665674617263
12071798 -0.7332975798033581 0.678148928093357
12074268 -0.7338769438214953 0.6778680243642798
12076738 -0.7332772122336023 0.6785945001887038
12079207 -0.7326018420084361 0.6784884892994016
12081677 -0.7336759349685604 0.6785992532422435
12084147 -0.7325914653630771 0.6789204376320102
12086616 -0.7323672351091034 0.6786205301464119
12089086 -0.733188293414054 0.6797940188812286
12091556 -0.7318942525910883 0.6788871173926343
12094026 -0.7323314857953223 0.679157946244524
12096495 -0.7329242899645243 0.6796308906780941
12098965 -0.7317133608520421 0.6785864937809978
12101435 -0.7326955550991971 0.6792497702694021
12103904 -0.7322144277682995 0.6807290666015933
12106374 -0.7308033605255088 0.6791739759482601
12108844 -0.732295024416295 0.6802173462870861
12111313 -0.7322842404357686 0.6807899826687585
12113783 -0.7305012022884437 0.6800784806486581
12116253 -0.7323231509114949 0.6806412725108762
12118723 -0.7310345180625207 0.6808259417996163
12121192 -0.729867677378707 0.6799199954910758
12123662 -0.7318955436018154 0.6803329492658764
12126132 -0.731003064940383 0.68097548791262
12128601 -0.7300019140911373 0.6807518746427413
12131071 -0.7307393291633204 0.6815686284505305
12133541 -0.7306620848360934 0.6810711024566279
12136011 -0.7298543939311503 0.6815458127049994
12138480 -0.730322203090045 0.6817003076103231
12140950 -0.7297401204467138 0.6813725509968203
12143420 -0.7304412224913871 0.6818922862670266
12145889 -0.7294568591897623 0.6814752064424967
12148359 -0.7300982117785229 0.6814571010187552
12150829 -0.7296071571308935 0.6828465492944121
12153299 -0.7285713518405088 0.6822656557238753
12155768 -0.7293085779418823 0.6823162081435646
12158238 -0.7286590334359303 0.6833652298296925
12160708 -0.7281675866192301 0.6833141063059786
12163177 -0.7297354748734065 0.6822925990038449
12165647 -0.7286486862425718 0.684107591102425
12168117 -0.7273320219724639 0.6827701993468782
12170587 -0.7295385640262049 0.6820107916201493
12173056 -0.7279022503958142 0.6832750847316451
12175526 -0.727148533716199 0.682813507376384
12177996 -0.7286699096563127 0.6829944377429756
12180465 -0.7275974622223133 0.68409786149536
12182935 -0.7278283303760551 0.6832917240121273
12185405 -0.7280256239957115 0.6841248388472462
12187875 -0.7274298636388179 0.6840515124043152
12187875 -0.7269699117872958 0.6836780100441178
12190395 -0.7270359971886704 0.6841155420397483
12192916 -0.7282036442643497 0.6846094394339481
12195437 -0.7265464472914741 0.6844816125089875
12197958 -0.7275048412819658 0.6842112616578637
12200478 -0.7274816749322516 0.6848604523433642
12202999 -0.7258463708911224 0.685115934532166
12205520 -0.7255740753276821 0.6844424338162131
12208041 -0.7271109904335163 0.6843163262227925
12210562 -0.7264824208191494 0.6854736903496288
12213082 -0.7254704209217129 0.6853941836420172
12215603 -0.7264049522420902 0.6838511133059874
12218124 -0.726201128887018 0.6853973574638912
12220645 -0.7256189598933572 0.6868396385194498
12223165 -0.7251383748372322 0.6856442140100331
12225686 -0.7258428114798924 0.6853820886669038
12228207 -0.7255371846500968 0.6865796673619099
12230728 -0.7244804748757516 0.6861906870476424
12233249 -0.7255336959544824 0.6857379906426305
12235769 -0.7248998207686593 0.6869918027946339
12238290 -0.7248016916690588 0.6868397341128551
12240811 -0.7242568653306046 0.68613871134029
12243332 -0.7251424012948823 0.6870008270970772
12245852 -0.7238509333343351 0.68678114461537
12248373 -0.7238777167882363 0.6859652201355614
12250894 -0.7243340279457322 0.6875361013254313
12253415 -0.7237309423826733 0.6875202372716447
12255936 -0.7231174907744268 0.6869488935576192
12258456 -0.7245304970841141 0.6875238989374538
12260977 -0.723543885778896 0.6880811970375064
12263498 -0.7222908798149225 0.6881625447769394
12266019 -0.7231608519378995 0.687705757038608
12268539 -0.724298128186022 0.6882532310486625
12271060 -0.7221862330961482 0.6887040253954773
12273581 -0.7226605251972232 0.6877354684198868
12276102 -0.7233199968107743 0.68788636540021
12278623 -0.7225699106446097 0.689090322306015
12281143 -0.7219601374364957 0.6892813317261474
12283664 -0.7220275591821134 0.6884724354024181
12286185 -0.7218541455994095 0.6890634704009311
12288706 -0.7212671944003268 0.689697555988845
12291226 -0.7219974533184628 0.6888208454811962
12293747 -0.7221549248738391 0.6893705986541153
12296268 -0.7211947992213791 0.6891572506134773
12298789 -0.7214391413295033 0.6894413915726761
12301310 -0.7215682382225713 0.6892877879918008
12303830 -0.720420139781157 0.6901679097232681
12306351 -0.7212404482812355 0.6891401821597812
12308872 -0.72115035143856 0.6903954523157481
12311393 -0.7204693913127195 0.6911274090981953
12313914 -0.7200219508926717 0.6903303203707644
12316434 -0.7204748371055179 0.6903139781080737
12318955 -0.7204153516097387 0.6908334634701286
12321476 -0.7194431206641415 0.6911689087181624
12323997 -0.720267118272195 0.6895275064740364
12326517 -0.7197305233700093 0.6912230956909361
12329038 -0.7191179769707784 0.6917507158989259
12331559 -0.7193597642451544 0.690835154969901
12334080 -0.7196428698897566 0.6909732936129306
12336601 -0.7189522948325301 0.6917154571836865
12339121 -0.7190129255147192 0.6914207332674999
12341642 -0.7190402723514379 0.6924346567290612
12344163 -0.7188996578246442 0.6923487879664962
12346684 -0.7191367303465963 0.6920650285234543
12349204 -0.7185386830503521 0.6914514951524087
12351725 -0.7184996976247102 0.6922404064627208
12354246 -0.7177704433210556 0.6927895273752018
12356767 -0.7187525177411377 0.6920351451492619
12359288 -0.718343215368335 0.6933164134213929
12361808 -0.7175673678538573 0.6933655667762646
12364329 -0.7171289673355821 0.6924638881565738
12366850 -0.7182257387399245 0.6931206640300394
12369371 -0.7172129022405143 0.6944434171469754
12371891 -0.7165227189059208 0.6930780347455237
12374412 -0.7176671677688788 0.6927384305649067
12376933 -0.7165999163399819 0.6936317509172566
12379454 -0.7163350200525315 0.6939160792181699
12381975 -0.7170540549802279 0.6935854870659737
12384495 -0.7169939478395738 0.6945135779295675
12387016 -0.7159354060681793 0.6951553793785744
12389537 -0.7163516323052362 0.6936577196302419
12392058 -0.7168392534468648 0.6945277853271717
12394578 -0.7153696879421801 0.6949460795798216
12397099 -0.7151733852093037 0.6949052116117904
12399620 -0.7158135600329693 0.6938658800701564
12402141 -0.7157885293322914 0.6959005960800925
12404662 -0.714743751574173 0.6954117026301379
12407182 -0.7150802590940272 0.6948158384246703
12409703 -0.715728881097956 0.6949033247106688
12412224 -0.7149656659570002 0.6951833028052855
12414745 -0.714467980605461 0.6953517276650732
12417265 -0.7154558720879691 0.6956394787660425
12419786 -0.7140140077889774 0.696124120449911
12422307 -0.7138526332354308 0.6956349220588299
12424828 -0.7148410114194392 0.695852201838257
12427349 -0.7141872111426504 0.6966950484457325
12429869 -0.7137939337255487 0.6962504387671369
12432390 -0.7143440818219547 0.695542213972103
12434911 -0.713430076487087 0.6969920176902908
12437432 -0.71287010422981 0.6968802792800959
12439953 -0.7135438827810512 0.6969571783894353
12439953 -0.7128214063416357 0.6974273544325557
12442525 -0.7122380585144322 0.6977988208865579
12445098 -0.7130309429770598 0.6968932592936262
12447671 -0.7129599376136385 0.6969166258514049
12450244 -0.7125836442038576 0.6979661272499504
12452817 -0.7117893181432671 0.6974530622409649
12455390 -0.7124456516635788 0.6968798174581693
12457963 -0.7128866053422301 0.6982129650215271
12460536 -0.7118391417761222 0.6976684634188902
12463109 -0.7114482362951767 0.6985492568910365
12465682 -0.7119903327402767 0.6981294983228437
12468255 -0.7120735418341014 0.6980649455371856
12470828 -0.7115164774074312 0.6984919504174891
12473400 -0.7111552616747416 0.6999071234290183
12475973 -0.7099895976978241 0.6988947385262027
12478546 -0.7108433281118516 0.6982394003622143
12481119 -0.7121138698218145 0.6988641047434461
12483692 -0.7102933171906606 0.7004307090238333
12486265 -0.7101652127882595 0.6991070249620746
12488838 -0.7114755226785826 0.699108021987115
12491411 -0.7105252170516803 0.6999767137919694
12493984 -0.7096819918622164 0.700185940400942
12496557 -0.7097433575706521 0.6997156735793288
12499130 -0.709774710184925 0.6996712240657404
12501703 -0.7098301270144238 0.7002840532551573
12504276 -0.7092645051157743 0.7006442594129108
12506848 -0.7090990451553707 0.6999871095757901
12509421 -0.7088447896633904 0.700743930877662
12511994 -0.7092615857306541 0.7004265428411778
12514567 -0.7084256202150565 0.70083761112225
12517140 -0.7084767346020547 0.7007971066819495
12519713 -0.7088140677040459 0.7005610743332996
12522286 -0.70924735039116 0.7009004316218528
12524859 -0.7081120238755908 0.7018146744527172
12527432 -0.7079225117867717 0.7014401358243879
12530005 -0.7079398801424849 0.7009241321367983
12532578 -0.7081225643937352 0.7021578216012654
12535151 -0.7071087501631098 0.7018013002156374
12537723 -0.7075956632501289 0.7016003208860908
12540296 -0.707034347137135 0.7018707462867413
12542869 -0.7072652314351952 0.7019804178781666
12545442 -0.7065188462429849 0.7026430649702146
12548015 -0.7062281582961051 0.7029313833157738
12550588 -0.7067452879829645 0.7022771496522632
12553161 -0.7056879152863533 0.7028748368630422
12555734 -0.706071553732404 0.7026710240305944
12558307 -0.7059134826228258 0.7031495502815635
12560880 -0.7051762767566794 0.70282739779613
12563453 -0.7061114202370095 0.7034554849458963
12566026 -0.7051819568159708 0.7038098002690021
12568599 -0.7058311608010668 0.7029744053793943
12571171 -0.7057997862111303 0.7038312210899466
12573744 -0.7048185293925592 0.7045141919448485
12576317 -0.7043724896878315 0.70431469088412
12578890 -0.7052487030155963 0.7033090066807525
12581463 -0.705115738989719 0.7045782620389014
12584036 -0.7039291159676119 0.7051836092454489
12586609 -0.704072369153589 0.7051810194457153
12589182 -0.7043389782627556 0.7033931944880742
12591755 -0.7042186254211081 0.7052311986919075
12594328 -0.7031388778509133 0.7052713500900822
12596901 -0.7035202813272058 0.7053991945449716
12599474 -0.7034948055857057 0.7042844701776972
12602046 -0.7033756612765449 0.7054636088770404
12604619 -0.7032494195260642 0.7060703731726198
12607192 -0.7029021806458493 0.7058598851066723
12609765 -0.702914975282543 0.7052949948533952
12612338 -0.70240193052322 0.7052428731161721
12614911 -0.702295945776823 0.7061601304834444
12617484 -0.7019181816687208 0.7059989779878417
12620057 -0.7018248864575182 0.7056467008841858
12622630 -0.7021628378228888 0.706471849587227
12625203 -0.7019463842961936 0.7065253658567999
12627776 -0.7013364939443836 0.7069116958454282
12630349 -0.7009432919847506 0.7066546674745758
12632922 -0.701551011656802 0.7063124840810969
12635494 -0.7011054395598688 0.7074959456086527
12638067 -0.7002682286366504 0.7077714008731347
12640640 -0.700752510983514 0.7072912248280497
12643213 -0.7005840721997195 0.7070673565163921
12645786 -0.7005802299767185 0.7072692417607828
12648359 -0.700240746107832 0.7080764749908364
12650932 -0.6996926510476124 0.7073827854462981
12653505 -0.7007221409134129 0.7078387074386923
12656078 -0.7001152070922748 0.7080518786658673
12658651 -0.6995217989091709 0.70864264636311
12661224 -0.6993348408799643 0.708631784573618
12663797 -0.6999460801063553 0.7080542148677379
12666369 -0.6984346334446758 0.7089757577250972
12668942 -0.6991476676868423 0.7088772769139933
12671515 -0.6985225728189004 0.709315415292283
12674088 -0.6988577749224478 0.7085602835649439
12676661 -0.6980183258906153 0.7093196695865245
12679234 -0.6984052536869517 0.709397646901771
12681807 -0.6976483165512579 0.709604906349817
12684380 -0.6980453674788183 0.7096324956473719
12686953 -0.6976347361919472 0.7098681480432232
12689526 -0.6970508530724132 0.7101407212423103
12692099 -0.6966431576444934 0.7099556789760327
12694672 -0.697070900124755 0.7100854955588684
12697245 -0.6970625325939229 0.7106244554284601
12697245 -0.697047823425358 0.710458390499466
12699871 -0.6964020490833226 0.7112382473766389
12702497 -0.6960295410580234 0.7112583872523438
12705123 -0.6958770514361344 0.7107019488799927
12707749 -0.6960153418555018 0.7108508036344667
12710375 -0.6958171519063575 0.711584194669312
12713001 -0.6960931209563934 0.7110994696968862
12715627 -0.6959234349239822 0.7112513988625782
12718254 -0.6950972491020391 0.7115704101814823
12720880 -0.6949247514646725 0.7117609249810055
12723506 -0.6946218230857022 0.7116352017549168
12726132 -0.6950888672571652 0.7125000273407929
12728758 -0.6951577326888531 0.7120873686065452
12731384 -0.6947683593857005 0.712385755769343
12734010 -0.6944832254913609 0.7124207933903993
12736636 -0.6941234459884134 0.7130429069078663
12739263 -0.6942666520970937 0.7127836677962556
12741889 -0.6931244973325651 0.7125250451344316
12744515 -0.6937095951724659 0.7135847359085563
12747141 -0.6938241320677914 0.71281324111842
12749767 -0.6940405021622833 0.7125560909849288
12752393 -0.692902240147948 0.7136140412442321
12755019 -0.6924296307677518 0.7144512678476842
12757645 -0.6924774017891339 0.7147792304136036
12760272 -0.6917215735177117 0.7134103504992826
12762898 -0.6922926811126286 0.7136506323522771
12765524 -0.6923610885175275 0.7136785633054268
12768150 -0.6923015236332227 0.7141112938467491
12770776 -0.6917309761644944 0.7145244783404927
12773402 -0.6913507789359489 0.7148594871379529
12776028 -0.6910864120159449 0.714704264534623
12778655 -0.6907798801057653 0.7147284290179196
12781281 -0.690823692841577 0.715253221763898
12783907 -0.6911176956591571 0.7146302652297505
12786533 -0.6904697500411002 0.71470209685855
12789159 -0.6911855561285768 0.7147620219436448
12791785 -0.6902844367629134 0.7159351794877044
12794411 -0.6897004394441929 0.7161211482984696
12797037 -0.6891291105776541 0.7158810656951208
12799664 -0.6892133699501996 0.7156308095352188
12802290 -0.6903376983205244 0.7155767594823618
12804916 -0.6899356879288514 0.7159739103060682
12807542 -0.6891155526304092 0.7159596746623802
12810168 -0.6884124379132408 0.7171802127667304
12812794 -0.688008122368146 0.7178590102802579
12815420 -0.688049819497436 0.7165671217199436
12818046 -0.6883991065155416 0.7161659997318195
12820673 -0.6884490732271009 0.7169345113932748
12823299 -0.6879221279897155 0.7180513773624994
12825925 -0.687481308438558 0.7172707470778582
12828551 -0.6876177424531165 0.7175816492040855
12831177 -0.6877946979357311 0.7184346421478643
12833803 -0.6860348408514964 0.71791422408719
12836429 -0.6870572080408109 0.7176119171455707
12839056 -0.6871611447911832 0.7179016101972792
12841682 -0.6867724813138071 0.7183705075066741
12844308 -0.6864889419672562 0.7185328780550875
12846934 -0.6858396270001539 0.7187799321722702
12849560 -0.6853670018549592 0.718839837581452
12852186 -0.6847338584041185 0.7188708898553224
12854812 -0.6864179006850644 0.7186643256155963
12857438 -0.6850367675667135 0.7195102253208729
12860065 -0.6846141806374182 0.7198100504742273
12862691 -0.6847567252888068 0.7191492638048246
12865317 -0.6853532313847847 0.7197707149329997
12867943 -0.6847515536324607 0.7199192968856065
12870569 -0.6837758652776131 0.7199074627698134
12873195 -0.6840033182886386 0.7199755955012808
12875821 -0.6837400626716735 0.7199679857348295
12878447 -0.6835637450643626 0.7198603153428412
12881074 -0.6835792825003074 0.7207575268758142
12883700 -0.6828704779923419 0.7208239323987095
12886326 -0.6829286012490288 0.7209668829090368
12888952 -0.6822780552256499 0.7209907726951619
12891578 -0.6833932701208291 0.7209095887317433
12894204 -0.6824797923892366 0.7209818898170126
12896830 -0.6824649442687936 0.7215479069098248
12899457 -0.6823989128139284 0.721743930763211
12902083 -0.6819275705042583 0.722351617597908
12904709 -0.6815487778995379 0.7216289076287854
12907335 -0.6809558977162805 0.7217018933005251
12909961 -0.681387043890413 0.7221979135655267
12912587 -0.6813225081865737 0.7223380596105192
12915213 -0.6807135892403475 0.7229659878658272
12917839 -0.67986610638763 0.7231586559283667
12920466 -0.6807785728723184 0.7221451538883605
12923092 -0.6804823175514522 0.7221305226809573
12925718 -0.6801464391662941 0.7231432410383121
12928344 -0.679373619150101 0.7234625861180836
12930970 -0.6784490766401724 0.7231639146097005
12933596 -0.6791492640223671 0.7227001790493195
12936222 -0.6790742641383036 0.7234154634646986
12938848 -0.6787982518390138 0.7241103463432683
12941475 -0.6789943445310023 0.7239550873711063
12944101 -0.6784235125586731 0.7245021557664643
12946727 -0.6781172206128669 0.7239233957154134
12949353 -0.677410344205145 0.7239399336419671
12951979 -0.6778930138383447 0.7239835075198761
12954605 -0.6768668202832745 0.7250510853780275
12957231 -0.6762529819501157 0.7251572660474055
12959858 -0.6770490943584951 0.724568881937168
12959858 -0.6770223858152999 0.7249606520958267
12962538 -0.6759538917754709 0.7254195283382497
12965218 -0.6765251457804418 0.7251643440380294
12967899 -0.6761875731535159 0.7250122245623678
12970579 -0.6762545778469616 0.725049276623357
12973260 -0.67575103464615 0.7253278535533674
12975940 -0.6755852472418737 0.725955283610793
12978621 -0.6755074130066852 0.7264308670926849
12981301 -0.6750748034366542 0.7259470748444009
12983982 -0.6744796999291289 0.7266021219416707
12986662 -0.6745059271590733 0.7267865752920234
12989342 -0.6746568607567212 0.7266301136357013
12992023 -0.6740462867797989 0.7263929719886808
12994703 -0.6738848743252248 0.727290102289988
12997384 -0.673839277987302 0.7270254530677158
13000064 -0.6732263911598968 0.7273646710525496
13002745 -0.6723367410360309 0.7276458949374426
13005425 -0.6726693137276321 0.727142456761565
13008106 -0.6724226384319058 0.7270364909576867
13010786 -0.672342101752282 0.7273759432072042
13013467 -0.6724983316331866 0.7276233147728056
13016147 -0.6727578920770191 0.7287602189573489
13018827 -0.6718877670112544 0.7284558045353106
13021508 -0.6709842076756086 0.7283315526434551
13024188 -0.6712163355931687 0.728307222819897
13026869 -0.6710688308015684 0.7284953408678614
13029549 -0.6706550111659199 0.7283186114555557
13032230 -0.6712403387903222 0.7280323563762872
13034910 -0.6706952670774381 0.7292976996697931
13037591 -0.6704902282509614 0.7295669262530107
13040271 -0.6695968165378995 0.7292111471312615
13042951 -0.6693562607991458 0.7296864996263117
13045632 -0.6695446469328213 0.7299165175672075
13048312 -0.6689349852793257 0.7296684959363059
13050993 -0.668612546278983 0.7292903974229251
13053673 -0.6687116472834409 0.7300814750783196
13056354 -0.6684490305875886 0.7306874770225595
13059034 -0.6675379267579566 0.7305856932431429
13061715 -0.6678401278998637 0.7306625118485561
13064395 -0.6676890581750841 0.7308806238181567
13067076 -0.6671390532491792 0.7307571892804746
13069756 -0.6672107180001009 0.7305866120853316
13072436 -0.6667135824038778 0.7312635784551944
13075117 -0.6665633312782325 0.7320434383270606
13077797 -0.6658270983196622 0.7315066152269606
13080478 -0.6653336743520031 0.7307292088033903
13083158 -0.6655979190331284 0.7316805556667209
13085839 -0.6646234272289 0.732141320131145
13088519 -0.6650049527388023 0.7314760427890437
13091200 -0.6644213127266794 0.7315086702171231
13093880 -0.6645983969956523 0.7321930921013856
13096560 -0.664315386610345 0.7326610216563998
13099241 -0.6639337792241182 0.7324851096585926
13101921 -0.6639757768606783 0.7327333681047075
13104602 -0.6637326794192243 0.7323119864674461
13107282 -0.6637894484706557 0.7326916191497057
13109963 -0.6625247207716148 0.7325451742571771
13112643 -0.662372033499877 0.7331462841623326
13115324 -0.6614574567617385 0.7340875489933988
13118004 -0.6623835523396081 0.7338207535523258
13120685 -0.6615452532922144 0.733348446424331
13123365 -0.6620101793947292 0.7337105229914376
13126045 -0.6618470686760674 0.7339256912508758
13128726 -0.661584262116957 0.7339672579526498
13131406 -0.6606746907111526 0.7339984954248013
13134087 -0.6600003600324763 0.7344788462773078
13136767 -0.6599194301342073 0.734858615873346
13139448 -0.6598914037716532 0.7348921267401787
13142128 -0.6595068145212505 0.7343487772925773
13144809 -0.6594479147175392 0.7344246355894134
13147489 -0.6587657165132667 0.7348333445522068
13150169 -0.658884126060461 0.735585631113099
13152850 -0.6583091312194732 0.7359712705686383
13155530 -0.6576101814392297 0.7354162395865834
13158211 -0.6575361155315551 0.7360003597041946
13160891 -0.657494693601107 0.7353757793409523
13163572 -0.6573226441410165 0.7359703686720223
13166252 -0.6574776194258882 0.7356339444857489
13168933 -0.6567874370351487 0.7358622656203654
13171613 -0.6571428189845321 0.73622835030469
13174294 -0.6562904296351414 0.7366550203111675
13176974 -0.6551647751456477 0.7364521268355901
13179654 -0.6548776147763509 0.7371209238110422
13182335 -0.6551749729082271 0.7367169376579344
13185015 -0.6550340432227088 0.7372735528437486
13187696 -0.6542504770621714 0.7368722655776543
13190376 -0.6547909093730276 0.7372647024127031
13193057 -0.6543366626724969 0.7380339100749712
13195737 -0.6531000229678836 0.7381173712361442
13198418 -0.6529247021695656 0.7376940235948908
13201098 -0.6525932898770053 0.7377011407129412
13203778 -0.6530681222070546 0.73728766645716
13206459 -0.6522982861101537 0.737679039181938
13209139 -0.652279260240479 0.7381441566333755
13211820 -0.6524538049359477 0.7383354165117401
13214500 -0.651047295026023 0.7381229188883406
13217181 -0.6507096617470594 0.738199093307218
13219861 -0.650799352077277 0.7391038368382224
13222542 -0.6509036076097203 0.7390855654800984
13225222 -0.6509255462597353 0.7391656855017846
13227903 -0.6494133633832472 0.7388389381211421
13227903 -0.6498179474221626 0.7396558531858775
13230638 -0.6494469939183435 0.739517663513161
13233374 -0.649066831169102 0.7394595671352293
13236110 -0.6483172571947804 0.7386400038213798
13238846 -0.6495946182212347 0.7389315961996067
13241582 -0.6491017834756999 0.7392468167597946
13244318 -0.6477908935868241 0.7394704199768246
13247054 -0.6474646205236146 0.7401968124375314
13249790 -0.6474368778875914 0.7400888834641043
13252526 -0.6462178421430791 0.7404743486803631
13255261 -0.646120292403505 0.7405092174267318
13257997 -0.6465448786340178 0.7408253877995162
13260733 -0.6454224909281301 0.7404629687263447
13263469 -0.6450302894064642 0.7405290026977009
13266205 -0.6450423043210936 0.7402282441729248
13268941 -0.6445325236558764 0.7407558679493194
13271677 -0.6452621402508715 0.7410512193502381
13274413 -0.6443292566172482 0.740307058699213
13277149 -0.6439896119348525 0.7408269885705836
13279884 -0.6435547074896167 0.7413760250747211
13282620 -0.6434725748629057 0.7419120096333476
13285356 -0.6418452692593084 0.7416684991469217
13288092 -0.642033874751737 0.7415776544757806
13290828 -0.6416093684873778 0.7422596378790468
13293564 -0.6413280739004021 0.7415335625813075
13296300 -0.64126614413512 0.7419318693053542
13299036 -0.6408976127853693 0.7424592648074453
13301772 -0.6407545811500401 0.7423556644962804
13304507 -0.640025778700606 0.7421275427859882
13307243 -0.6402052476882476 0.7420547474825631
13309979 -0.6398987954876617 0.7426797587107647
13312715 -0.6403376337772354 0.74261673652028
13315451 -0.639366658496738 0.7423159403334989
13318187 -0.6387250919166384 0.7430745819095573
13320923 -0.6379327989933128 0.743005611551932
13323659 -0.6376982841961811 0.7430334296513029
13326395 -0.6372035441294053 0.7435206501786462
13329130 -0.63595721101324 0.7433633190540225
13331866 -0.636363267308375 0.7435688412174298
13334602 -0.6357363711415088 0.7435800026052046
13337338 -0.635375690984676 0.7444428684918576
13340074 -0.6352526760447251 0.743409060705827
13342810 -0.6350374643068419 0.7434047538751323
13345546 -0.6348402914974495 0.7435981532820652
13348282 -0.6345924297303487 0.7439853867362609
13351018 -0.6341119478752029 0.7423173753556284
13353753 -0.6343794764941927 0.7434906923445265
13356489 -0.633658144624004 0.7440398879711262
13359225 -0.6327537901019893 0.745249377090083
13361961 -0.6325293170871619 0.7439509348070414
13364697 -0.6319786289425917 0.7447324905631015
13367433 -0.6312763738941692 0.7450249040350421
13370169 -0.6311923391864097 0.7443433331767279
13372905 -0.630906599120057 0.7442126743899118
13375641 -0.63023951838767 0.7443064224335223
13378376 -0.6298315752475878 0.7446126153374221
13381112 -0.62914191617954 0.7446630033692335
13383848 -0.6286776603599885 0.7445360956838699
13386584 -0.628705161795352 0.7457619141453937
13389320 -0.628327400826601 0.7451980988242529
13392056 -0.6275905658424731 0.7456001332328079
13394792 -0.627223300961857 0.745600560543238
13397528 -0.6268581152200264 0.7457562494035066
13400264 -0.6273764461992448 0.7450392790779393
13402999 -0.6262051695903141 0.7457073465250652
13405735 -0.6257647648597529 0.745112580295692
13408471 -0.6258081428227502 0.7457349444566724
13411207 -0.6253989154336292 0.7451892341941923
13413943 -0.6250961217166945 0.744790573004426
13416679 -0.6247324135650488 0.7451255193171759
13419415 -0.6240728357407325 0.7450407177291912
13422151 -0.6231951857795529 0.7455352220154645
13424887 -0.6236450554443342 0.7460796199162633
13427622 -0.622449586618246 0.7461971092213878
13430358 -0.6225401999194792 0.7465557672992468
13433094 -0.6222248321339022 0.7460791825379277
13435830 -0.6218517230749276 0.7454490037905492
13438566 -0.6215466343700448 0.7462300129507231
13441302 -0.6212674675634714 0.7457909303830975
13444038 -0.6203967209278902 0.746182312692279
13446774 -0.6207280693582595 0.7455566697354131
13449510 -0.6198967224149382 0.744777755004182
13452245 -0.6193729419903744 0.7453148319304432
13454981 -0.6188750547561159 0.7460885305693807
13457717 -0.6186584538391611 0.7458705090040038
13460453 -0.6183322652310891 0.7457581374876949
13463189 -0.6176478209263782 0.7473993948973492
13465925 -0.6170498133902891 0.7462745344182654
13468661 -0.6172606043980841 0.7469308492892601
13471397 -0.6164253746573005 0.7464764793905795
13474133 -0.6160309414701951 0.7465082271223488
13476868 -0.6154572581017824 0.7461652019499211
13479604 -0.6156091254429109 0.7459701676666844
13482340 -0.6146972989403485 0.7464191387186164
13485076 -0.6140322362798022 0.7457028376570917
13487812 -0.6141329057009027 0.7458309052442491
13490548 -0.6133896087570339 0.7460465880443986
13493284 -0.6130362111033159 0.7457630727160145
13496020 -0.612776479220662 0.7467256806195547
13498756 -0.6121559801767975 0.7468692690833336
13501492 -0.6121785904768304 0.7465709719999042
13501492 -0.6121331659308066 0.7464268848472817
13504284 -0.6113020296060174 0.7465871624985684
13507076 -0.6109432664759298 0.7460758778855682
13509869 -0.6105852337393116 0.7462778751992142
13512661 -0.610364526814534 0.746787254834286
13515454 -0.6096992750629782 0.7464094437090737
13518246 -0.6092677773980351 0.7461540274987444
13521039 -0.6090538050955643 0.7467433282261232
13523831 -0.609069442867666 0.7467920105592304
13526624 -0.6080619863890627 0.745464615557306
13529416 -0.6081268642430835 0.7453526438285281
13532209 -0.6081190561347883 0.7463213995048121
13535001 -0.6069315626798828 0.746423141082546
13537794 -0.6067150917811536 0.7457130119204799
13540586 -0.6063514714320167 0.7465722391931918
13543379 -0.6064754402369604 0.7461022014771211
13546171 -0.6053902849353952 0.7466540443344483
13548963 -0.6052236684824142 0.7460163702162989
13551756 -0.6040109227203605 0.7459483302709534
13554548 -0.6037116314027607 0.7460020175371089
13557341 -0.6033505940032133 0.7464570804264746
13560133 -0.603034297851808 0.7462904756963722
13562926 -0.6019877028675686 0.7459058908903556
13565718 -0.6018524131668387 0.7460781045309806
13568511 -0.6018405102881769 0.7461808534356849
13571303 -0.6016024845080012 0.7464088272366916
13574096 -0.6005023460875052 0.746387940546255
13576888 -0.6005523775200656 0.7465952048200288
13579681 -0.6000297594870422 0.7465040948012529
13582473 -0.5993297032263888 0.7463779658893804
13585266 -0.5992215743893529 0.7463898958644708
13588058 -0.5986048574570894 0.7463279183268234
13590851 -0.5981376906968978 0.746846574116507
13593643 -0.5977897553816207 0.7462551038629356
13596435 -0.5974115770226549 0.7462513147463304
13599228 -0.5970483821948288 0.7458756763714229
13602020 -0.597087851106868 0.7459870895604241
13604813 -0.5964612664840647 0.7459028916907113
13607605 -0.596098260355359 0.7458897139817906
13610398 -0.5965152926809053 0.745561806783142
13613190 -0.5957615201450456 0.7458465130602345
13615983 -0.5944854388331349 0.7460756659065015
13618775 -0.5948013429143187 0.7450828027368217
13621568 -0.5938271529807421 0.7459839110382378
13624360 -0.5938440490290733 0.7459523906006853
13627153 -0.5926342782530275 0.7455000568731259
13629945 -0.5927890520411048 0.7457103094097001
13632738 -0.5918912360451977 0.7460793640576441
13635530 -0.5920670996180191 0.7457827129152585
13638323 -0.5918123909073334 0.7464992988541591
13641115 -0.5906121688231458 0.7468956683042167
13643907 -0.5902075538085011 0.7466171330502007
13646700 -0.5903557025842842 0.7460184160969239
13649492 -0.5899157854024849 0.7469626801751057
13652285 -0.5890452869729371 0.7465230756395326
13655077 -0.5882307812183594 0.746912605516298
13657870 -0.5877836699883534 0.7465850024708021
13660662 -0.5870289223296611 0.7464675392433106
13663455 -0.5868447621086177 0.7468615269407426
13666247 -0.586513264747183 0.7471334299627566
13669040 -0.5863234238861406 0.7475142568089866
13671832 -0.5858884430759748 0.7471257048297882
13674625 -0.5851554736732161 0.7474270767237533
13677417 -0.5842623708795328 0.7482855388003484
13680210 -0.5836137600458383 0.7475387700522098
13683002 -0.5834085132447444 0.7470635473356181
13685795 -0.5831197936077274 0.7472995256015813
13688587 -0.5824843789672285 0.7475194527952731
13691379 -0.5809644409099626 0.7473822517829856
13694172 -0.5815845529993231 0.7470598930770709
13696964 -0.5806205623008904 0.7467383186306836
13699757 -0.5802071763796065 0.7474909994433577
13702549 -0.5797671549448733 0.747049308165167
13705342 -0.5792632484946609 0.7468253143749569
13708134 -0.5792615361135266 0.746922383796347
13710927 -0.5779256372200177 0.7469733270000489
13713719 -0.5777196256718645 0.7470996997454324
13716512 -0.5777042595587143 0.7473637134921834
13719304 -0.5775188585081846 0.7471604322375932
13722097 -0.5761402085101772 0.7476499437780955
13724889 -0.575637183364852 0.7466203725361908
13727682 -0.5757412334680005 0.747098596209573
13730474 -0.5752465895041853 0.7470831049145764
13733267 -0.574710622670916 0.7475237748179508
13736059 -0.5731557713342108 0.7474126387887293
13738851 -0.573365680078308 0.7472733577450441
13741644 -0.5737295248375651 0.7477349209696196
13744436 -0.5723683016865941 0.7472847797117601
13747229 -0.5716874942877281 0.7474521533493453
13750021 -0.571379591655613 0.7478796930032673
13752814 -0.5704178089682943 0.7477646174135035
13755606 -0.571045060054712 0.7474058427864053
13758399 -0.5688501589152848 0.7479275843681167
13761191 -0.5685179395392891 0.747782040763512
13763984 -0.568501998645249 0.748028107773475
13766776 -0.5674090479809153 0.7485086150802128
13769569 -0.5669217160118883 0.7482057785334767
13772361 -0.5663044395283301 0.7489917432233363
13775154 -0.5653428816977792 0.7487033592098409
13777946 -0.5649562733637313 0.7488147117332039
13780739 -0.5639720947571312 0.7490061623754977
13780739 -0.5636394051903093 0.7487882727545726
13783589 -0.5623239747181178 0.7487431479372444
13786439 -0.5615184387254382 0.74876429662948
13789289 -0.5600562052523369 0.749197153611353
13792139 -0.5597281996167527 0.7494769459132039
13794990 -0.5598412408607725 0.7494998635647511
13797840 -0.5581690929032914 0.7494290435508156
13800690 -0.5571717792665902 0.7496673472758644
13803540 -0.5569593080914738 0.7497051773199445
13806391 -0.5570430719699369 0.7495461884965254
13809241 -0.5558809316252119 0.7489706848238555
13812091 -0.5548190590572741 0.7485333578352333
13814941 -0.5541512939222686 0.7492316206340192
13817791 -0.5534403446894582 0.7490757668353678
13820642 -0.552247584630283 0.7492622010905946
13823492 -0.5509173434218827 0.7497325092533409
13826342 -0.549687150748914 0.7503359400322731
13829192 -0.5493312558951472 0.7501984837253413
13832043 -0.5485479738658972 0.7504604789020878
13834893 -0.5461287268100413 0.7498049861296485
13837743 -0.5451928525314969 0.7499688400840296
13840593 -0.545065632031618 0.7501069211411927
13843444 -0.5437760027723084 0.7503597775737009
13846294 -0.5426910810750463 0.7502128784120246
13849144 -0.5410790685370137 0.7499331428454055
13851994 -0.5416784872621415 0.7496960310019889
13854844 -0.5400361317530559 0.7496051528118921
13857695 -0.5385875826974329 0.7491908007956379
13860545 -0.5374394250756047 0.7493228351182097
13863395 -0.5372781750389019 0.7492274934066102
13866245 -0.5357702136998471 0.7491879540398008
13869096 -0.5348414889513062 0.750260906078661
13871946 -0.5331516546947331 0.749489506744699
13874796 -0.5321177039251598 0.7488010080212876
13877646 -0.5309059970119401 0.7495781673838637
13880497 -0.5298308747150089 0.7499700121101366
13883347 -0.5274318650860519 0.7492693010053885
13886197 -0.5255478108806986 0.7490828832366861
13889047 -0.5253347339098567 0.7494227800998357
13891897 -0.5239320798208426 0.7497797862624912
13894748 -0.5213384511809838 0.7493954414613574
13897598 -0.5202705564237138 0.7488454329511639
13900448 -0.5199150060943188 0.7493349996128814
13903298 -0.5180221089195944 0.748921084464888
13906149 -0.516151345889768 0.7485053809046804
13908999 -0.5151153647889879 0.7482519296333197
13911849 -0.5144119858512618 0.7478697961690152
13914699 -0.5128985749966555 0.7477785827374491
13917550 -0.5102991444414242 0.7471430118865108
13920400 -0.5084897064649886 0.7468571951202989
13923250 -0.5064988284241004 0.7461548359759187
13926100 -0.504548306030609 0.746440208508109
13928950 -0.5032525190577861 0.7464531932240324
13931801 -0.5020579936061184 0.7459032263952017
13934651 -0.5002669235870203 0.745796031025142
13937501 -0.4981345239658348 0.7453691534758303
13940351 -0.49636556469445703 0.7452924808087346
13943202 -0.4955986960844324 0.7444324492038238
13946052 -0.4929055143541288 0.7443449810587285
13948902 -0.491498930968875 0.7434653016851452
13951752 -0.48943539854821605 0.742551124256541
13954603 -0.487492343366862 0.7423810463622785
13957453 -0.48613827435046875 0.7415361954679494
13960303 -0.4832938627421372 0.7399697878011459
13963153 -0.4804915546859304 0.7393681848261271
13966003 -0.47861335302044483 0.7388652734674482
13968854 -0.4773539511669815 0.7386334967419671
13971704 -0.4739290126391793 0.7368526668673347
13974554 -0.4713771496026223 0.7357063807015684
13977404 -0.4698786648572595 0.735244377390106
13980255 -0.46738734724358294 0.734669995429908
13983105 -0.4639199982754277 0.7328703586180262
13985955 -0.46138614279253665 0.7314731260617882
13988805 -0.46049608550788773 0.7312010486213429
13991656 -0.45769452811540823 0.7301494256557818
13994506 -0.45531829548740294 0.7285048329121467
13997356 -0.4520200349834903 0.72680187057603
14000206 -0.45027981290205227 0.726374156071857
14003056 -0.44748545242766496 0.7247195742845259
14005907 -0.44444219989536105 0.7226418648970951
14008757 -0.44199744464315976 0.7197090087543848
14011607 -0.4395407201437297 0.7189156655071716
14014457 -0.4369518094051333 0.7169040334534428
14017308 -0.4340428510112135 0.7147256392705035
14020158 -0.42994818237432864 0.7107312076400841
14023008 -0.42725268838426017 0.7099661406073349
14025858 -0.42533457875761466 0.7085140524180994
14028709 -0.42238781544215936 0.7069630276509177
14031559 -0.4185517080425348 0.7025971339191286
14034409 -0.41661740987013907 0.700134199536224
14037259 -0.41388117679332487 0.698381739826508
14040109 -0.4105037059295637 0.6959929146931997
14042960 -0.4074152203121448 0.691151711094286
14045810 -0.4049946326709858 0.6869015636602206
14048660 -0.40166908837177123 0.6846805639124617
14051510 -0.3994958465044861 0.6818771005859617
14054361 -0.3958786080864678 0.6762846532702764
14057211 -0.39293167764583276 0.6711270170558093
14060061 -0.3908517437986728 0.6693190173374082
14062911 -0.38825564467236745 0.6646477114481152
14065762 -0.3845761344116823 0.6588007961160917
14065762 -0.3844123765327701 0.6587874722190962
14068671 -0.3830736722693255 0.655470316212204
14071580 -0.38045903841192547 0.6505850390839191
14074489 -0.37750874342705226 0.6438307178759455
14077398 -0.3751961050908614 0.6366320165597492
14080307 -0.3723300927579017 0.6343479891237016
14083217 -0.3701377860975574 0.6286702625294204
14086126 -0.3679975591967734 0.6218982998207663
14089035 -0.36708060110718693 0.6135371512957627
14091944 -0.36543869234540244 0.6075868228201583
14094853 -0.36415151480054353 0.6020545354984062
14097762 -0.36140619017961745 0.5956646572434742
14100672 -0.36188142658166705 0.5855584596375155
14103581 -0.3619817548137395 0.5784744117670053
14106490 -0.36075410662510216 0.5723949422880086
14109399 -0.3594766216253633 0.5656138056434701
14112308 -0.36241502477745596 0.5546763433373239
14115218 -0.3643716219264164 0.5466714163093417
14118127 -0.3627817997780636 0.5413512149270829
14121036 -0.3639753841375823 0.5329633432941976
14123945 -0.3689174190184411 0.522069428997177
14126854 -0.3720171392717844 0.5126140192891068
14129763 -0.3720283057585618 0.5064339595228543
14132673 -0.3753757243396461 0.4986730858477173
14135582 -0.38076695761006807 0.48890954799467207
14138491 -0.3865726600418853 0.48058219811879527
14141400 -0.3886408528693645 0.47359602257619804
14144309 -0.3932633891985717 0.4657438722574116
14147219 -0.4006860589793177 0.4560255562442777
14150128 -0.4080256725829362 0.44812655680476426
14153037 -0.4121301007882478 0.4421362077706176
14155946 -0.4182024608107214 0.434569596879698
14158855 -0.4266966263381981 0.4275352236292836
14161764 -0.4373931249640767 0.4207586391204171
14164674 -0.4431852411359974 0.415864817537993
14167583 -0.4501049713742796 0.41032971235232935
14170492 -0.4584598490351591 0.4039559454287367
14173401 -0.47095973503464933 0.4007500974564416
14176310 -0.47959328431345744 0.39672996393517324
14179220 -0.4863573156557347 0.39216289554892436
14182129 -0.49379965225418804 0.38823817682231204
14185038 -0.5061010547733926 0.3866394989707096
14187947 -0.5143961263108897 0.38309893643303344
14190856 -0.527181249760665 0.3843663851773216
14193765 -0.5370886219800387 0.38384038548972654
14196675 -0.5432898251113585 0.3814585368618821
14199584 -0.5524061737819603 0.38086789445974
14202493 -0.5638992296726327 0.38309974758482956
14205402 -0.5731345353121122 0.38494047790368463
14208311 -0.5796274816097202 0.38383463025350834
14211221 -0.5881877191288235 0.3852233359662997
14214130 -0.597825164977553 0.38783283422350234
14217039 -0.6066325673621933 0.39124285185011076
14219948 -0.6123866252994467 0.39163823760312566
14222857 -0.6195497824506505 0.3939894170470844
14225766 -0.6273864362787348 0.39840785952170665
14228676 -0.6344964660330559 0.4027976699827971
14231585 -0.6405645469646641 0.4040674208378339
14234494 -0.6473381563067658 0.4082577195706314
14237403 -0.6535898304807113 0.41212978255085947
14240312 -0.659751051019633 0.4167255709034794
14243221 -0.6646646866717317 0.41924467888724476
14246131 -0.6696810024920807 0.4228954161343471
14249040 -0.6745594397286475 0.42770806679259604
14251949 -0.6796497620164742 0.43380327857273865
14254858 -0.684287292225444 0.4382274064199149
14257767 -0.6880315465014272 0.44073811813012975
14260677 -0.6921828222185291 0.4435706745148085
14263586 -0.6956288311376108 0.45002387137433053
14266495 -0.6989079169041246 0.45536829664242917
14269404 -0.7022875332471809 0.45826685270698325
14272313 -0.7050968420524623 0.46229028105100994
14275222 -0.7081219206096411 0.4676870518911002
14278132 -0.7106049450463786 0.47288297906293514
14281041 -0.7134764983407477 0.4757027747390121
14283950 -0.7161068938890762 0.48018966148112313
14286859 -0.7183194581290671 0.48416437560929676
14289768 -0.7205612197195784 0.4887645155147974
14292678 -0.722221903994877 0.4913305829679931
14295587 -0.7237726983326825 0.4949067777047178
14298496 -0.7246910762393571 0.5001393163166626
14301405 -0.7272066540422254 0.5049864249183262
14304314 -0.728034398796273 0.5074332953273282
14307223 -0.7297911998638617 0.5118322200451942
14310133 -0.7309545250419153 0.5149775810261542
14313042 -0.732050758374848 0.518361780764298
14315951 -0.7324764429160762 0.521783863619276
14318860 -0.7334559369548034 0.5256591890511499
14321769 -0.7349608785599372 0.5286722104396092
14324679 -0.734659896208169 0.5329146748754487
14327588 -0.7357845658588976 0.5353965093447144
14330497 -0.7366408089937578 0.5384509942005005
14333406 -0.7369777581610949 0.5415486219299476
14336315 -0.7377029175077076 0.5448547520180578
14339224 -0.7378132358978847 0.5484375104437555
14342134 -0.7382383972786253 0.5507716089932982
14345043 -0.7389715905110692 0.5536656218399132
14347952 -0.7381665439179194 0.5568096989066939
14350861 -0.7382525018973551 0.5599011174069666
14353770 -0.7381593447967053 0.5624461385599663
14356680 -0.7387510218846014 0.5653811614768197
14356680 -0.7392174403815068 0.5652591793542875
14359649 -0.7389694533824819 0.5676631085252176
14362618 -0.7393558075829714 0.5701219500750854
14365588 -0.7392800852207303 0.5721521066005754
14368557 -0.7395493040352528 0.574950995399625
14371526 -0.7387522413485914 0.5785080952417357
14374496 -0.7388659894544326 0.5809669914963802
14377465 -0.7397150495170298 0.5818946444665186
14380434 -0.7385721300716941 0.5841807422842893
14383404 -0.7382102788596735 0.5871129946968571
14386373 -0.738027630665352 0.590128143032554
14389342 -0.7384585548918714 0.5917919808140691
14392312 -0.738321053087067 0.5939296055679948
14395281 -0.7381642133828217 0.595345620546646
14398250 -0.7371953760176488 0.5972323450747951
14401220 -0.7372448111054742 0.6000202341882247
14404189 -0.736984835603829 0.6014759073595027
14407158 -0.7366432229216712 0.6036674377308008
14410128 -0.7359556504961292 0.6050075941571321
14413097 -0.7360289637810842 0.6073192545755841
14416067 -0.7368847797083844 0.6094445554824376
14419036 -0.7353918695314658 0.6114327902833947
14422005 -0.7345738870383274 0.6137250325842055
14424975 -0.7345923583162282 0.614866759683227
14427944 -0.7347168171108583 0.6158607561579725
14430913 -0.7340261073738538 0.6173974905191069
14433883 -0.7335327361440833 0.6197974205714393
14436852 -0.7322378900576131 0.6213887481960284
14439821 -0.731829665324717 0.6230017931685853
14442791 -0.7325754822789324 0.6244487378621862
14445760 -0.7322988649068406 0.626216002634729
14448729 -0.731329146743881 0.6270443487528647
14451699 -0.7306988392120883 0.6283412055217278
14454668 -0.730343710453869 0.6301887287830782
14457637 -0.729837291129022 0.6319525541282516
14460607 -0.7300994008915179 0.6326460693311073
14463576 -0.7293097844026154 0.6338030907786762
14466545 -0.7292538930807921 0.6354027398901627
14469515 -0.7284546471606115 0.6370073787202054
14472484 -0.7274986649413708 0.6382977441614107
14475454 -0.7272094969302115 0.639622467527716
14478423 -0.7269564928152449 0.6410921190652122
14481392 -0.7266244090230569 0.6419212265005751
14484362 -0.7262184985269892 0.6430152800244334
14487331 -0.7258997477490243 0.6440173582036877
14490300 -0.7252426403450897 0.645769590146106
14493270 -0.7246390803810342 0.6469196473659331
14496239 -0.7234552862059854 0.6481581058170255
14499208 -0.72356052520951 0.6497846622158022
14502178 -0.7235714596572314 0.6503474613430005
14505147 -0.723513859421521 0.650682720736718
14508116 -0.7226079509541112 0.6518214588703624
14511086 -0.7216952889873703 0.6532680871373404
14514055 -0.7216881368091342 0.6538275000209016
14517024 -0.720845296981846 0.6549726974278292
14519994 -0.7208472781601204 0.6562731263133625
14522963 -0.719446356624282 0.6573441514398695
14525932 -0.7199018920308267 0.6583187110472554
14528902 -0.7189072908319855 0.6588153524882413
14531871 -0.7191632755506903 0.660075310999091
14534841 -0.718318236337992 0.661365698214243
14537810 -0.7180148399497914 0.6626658605287392
14540779 -0.7179143111076008 0.6633007512590957
14543749 -0.7169504249810567 0.6634588665557263
14546718 -0.7167890571443475 0.6642472783084268
14549687 -0.7164405229501724 0.6647252819292632
14552657 -0.715654279337566 0.6662038871835186
14555626 -0.7158533933830794 0.6669035846391
14558595 -0.7155264400162565 0.6675631473660615
14561565 -0.7138017754761344 0.6683930685227918
14564534 -0.7137767207973479 0.6693683704223516
14567503 -0.714018277802351 0.6704794673345871
14570473 -0.713275155136247 0.671825320790661
14573442 -0.7138860836035603 0.6716594086565666
14576411 -0.7123782460100841 0.6728658920302069
14579381 -0.7123031538738642 0.67326014561105
14582350 -0.7116012608414755 0.6741421494367131
14585319 -0.7108803348149347 0.6750275276530024
14588289 -0.7109334525168934 0.6760650052985098
14591258 -0.710555454982519 0.6763630521046866
14594228 -0.7100228781253549 0.6763886774230851
14597197 -0.709660499589595 0.6778014810690681
14600166 -0.7087670756993041 0.6784700955667043
14603136 -0.7086621044861383 0.678877935565451
14606105 -0.7088368110750877 0.6796250139843267
14609074 -0.7085356507532881 0.6804970165620262
14612044 -0.7074979738037682 0.6813881352230154
14615013 -0.7073429666442221 0.6822633435040715
14617982 -0.7065990175128236 0.6831217641897613
14620952 -0.7068856867779351 0.6831634185045685
14623921 -0.705857703214787 0.6835488915637659
14626890 -0.7054052031253248 0.6839570910949228
14629860 -0.7050413997029437 0.6848821555920784
14632829 -0.7049194767250001 0.6863576624946733
14635798 -0.7047211487647884 0.6865823023605924
14638768 -0.7042478700224488 0.6866869085101588
14641737 -0.7030326904960075 0.6875572229004655
14644706 -0.7033235979456043 0.6874428942507553
14647676 -0.7028855741112602 0.688630384539956
14650645 -0.7023833087747667 0.6893194953145617
14653615 -0.7018053449895346 0.6902077222576287
14653615 -0.701539777669451 0.69002037759182
14656645 -0.7027256123589399 0.6909817345195611
14659676 -0.7018088152293511 0.6899121529976455
14662707 -0.7005935267211784 0.6911164430245873
14665738 -0.7004438374575107 0.6924765979733651
14668768 -0.7009958196243318 0.6927973141998008
14671799 -0.700403100817635 0.6921351827673329
14674830 -0.6995752120153161 0.6934174813292976
14677861 -0.6984903194309295 0.6942485244352724
14680891 -0.6992339842150481 0.6960205562061748
14683922 -0.6986500309039966 0.6944867491011741
14686953 -0.6980341000727965 0.6951883616706911
14689984 -0.6971369755656432 0.6965639289180485
14693015 -0.6967727374134706 0.6972064134949654
14696045 -0.6979756277313434 0.6965313128032775
14699076 -0.6963025156538343 0.697421640933467
14702107 -0.6968018561321623 0.6985687519741665
14705138 -0.6959822525522421 0.6993139041692967
14708168 -0.6958900559935465 0.6987644074093983
14711199 -0.6949724287181744 0.6990210799922331
14714230 -0.6948483594065622 0.701174107629493
14717261 -0.6952051478546515 0.7013501010088662
14720291 -0.6943926411981582 0.7006374293523748
14723322 -0.693571861656629 0.7006602510444043
14726353 -0.6933921692324094 0.7028897496150643
14729384 -0.6929475084597682 0.7036229739219969
14732415 -0.6931137297206511 0.7034434594161333
14735445 -0.6924819512995084 0.7031852729431034
14738476 -0.6922888226523478 0.7039614962769198
14741507 -0.6923989142168145 0.7050238871827994
14744538 -0.6921148968123089 0.7044830243580558
14747568 -0.6908957144492063 0.7045620911315671
14750599 -0.6901494183418813 0.7052021286937163
14753630 -0.6908310355204474 0.7072198205460594
14756661 -0.6905561856594412 0.7066874791704368
14759691 -0.6904893813016596 0.7059849229761006
14762722 -0.689794531846138 0.7067100403866604
14765753 -0.688452509081873 0.7079036392322389
14768784 -0.6891008209232162 0.7090848021931259
14771815 -0.6892668206877323 0.7083297617482217
14774845 -0.6885029190396297 0.7083895089015316
14777876 -0.6881233202365028 0.7091391716979097
14780907 -0.6871932285213831 0.7098264981189686
14783938 -0.6878665437818777 0.7107958117010864
14786968 -0.6869750432615555 0.710232552627201
14789999 -0.6861075368085774 0.7110129543555426
14793030 -0.6862044328784807 0.7117394732540923
14796061 -0.6867192545637238 0.7106683934121845
14799091 -0.6858322042337506 0.7110218068337549
14802122 -0.6855523577011028 0.7126977120128288
14805153 -0.6848784546873685 0.7134997991282654
14808184 -0.6855935753735688 0.7128358933216132
14811215 -0.6840384388101951 0.71289934803657
14814245 -0.6842134673964032 0.7138818241408043
14817276 -0.6847971011930011 0.7145770703016865
14820307 -0.683854009618428 0.7146422459780043
14823338 -0.6837412538988479 0.7147529846749323
14826368 -0.6836785606681468 0.7148677008705738
14829399 -0.6827381763063526 0.715415887823285
14832430 -0.6833119454533784 0.7157898515265335
14835461 -0.6825584754665767 0.7161978008746038
14838491 -0.6823408395799893 0.7165097290190666
14841522 -0.6821736294536715 0.7175017978283855
14844553 -0.6819753323749794 0.716964599689572
14847584 -0.6815122376204942 0.7168624463736237
14850615 -0.6810132621482483 0.7178420302137838
14853645 -0.6814951181608153 0.7188557290065695
14856676 -0.6813443875648952 0.7178386370136572
14859707 -0.6798105353058205 0.7182807407366876
14862738 -0.6798870518289295 0.7188433569235311
14865768 -0.6803350897503583 0.7194817175561528
14868799 -0.6805864620281341 0.7194509179685643
14871830 -0.6789017921358419 0.7200899190476109
14874861 -0.6793028027262545 0.7205288105076748
14877891 -0.6794193245838209 0.720718478512289
14880922 -0.678930177348715 0.7211621652058532
14883953 -0.678356011155075 0.7210311998414547
14886984 -0.677701438627609 0.7215909102840842
14890015 -0.6774342011151537 0.7223202904334769
14893045 -0.6785212421683459 0.7227293200397226
14896076 -0.677861094824295 0.7216593332160781
14899107 -0.6769421963141362 0.7222525863803915
14902138 -0.6770713015737966 0.7236855467901248
14905168 -0.6772812678384589 0.7231249695449576
14908199 -0.6765515457767887 0.723807686011268
14911230 -0.6765615153093713 0.7244394006111078
14914261 -0.6761057378517511 0.7244298985198795
14917291 -0.6758033272671478 0.7231409647811886
14920322 -0.6753469574345441 0.7245347258338676
14923353 -0.6752037153706705 0.7251254077483021
14926384 -0.6752634798977011 0.7251583297037151
14929415 -0.6747268698574591 0.7249503103611378
14932445 -0.6749667403896612 0.7261272137748799
14935476 -0.6749076942429632 0.7254080838641913
14938507 -0.6739136289735149 0.7262831399907829
14941538 -0.6740634846762326 0.7273136014448272
14944568 -0.6743651419921599 0.7275916803992443
14947599 -0.6734267196413317 0.7267331335284558
14950630 -0.6722033350339431 0.7276977223994299
14953661 -0.673973468910141 0.7275409360815177
14956692 -0.6737188265349893 0.7282482964407165
14956692 -0.672742363082781 0.7288718238403178
14959785 -0.6735850847488217 0.7283203948124405
14962878 -0.6732974626240472 0.7279977441562384
14965972 -0.6720074678811241 0.7292754453385543
14969065 -0.6714636211590898 0.730045800578842
14972159 -0.672845385247417 0.7286583512718887
14975252 -0.6716721391575519 0.7297794420364402
14978346 -0.6716279254716933 0.7298311723076458
14981439 -0.6718806402361392 0.7304418944540874
14984533 -0.6707451973242634 0.7297977416702781
14987626 -0.6707609967746133 0.7309036151881414
14990719 -0.6707477377553908 0.7311458483440404
14993813 -0.6702407025872822 0.7305545540251933
14996906 -0.6702960544193336 0.7317911107123485
15000000 -0.6700165460839078 0.7320631680745102
15003093 -0.6699302613181132 0.7312708484966183
15006187 -0.669282609353204 0.7324764563720232
15009280 -0.6695445937493995 0.7328995102396485
15012374 -0.6697781398643974 0.7318425375629279
15015467 -0.6688730953005768 0.7334376413395566
15018561 -0.6681569000300127 0.7342504319118608
15021654 -0.66865839467213 0.7331168178711855
15024747 -0.6672008759186218 0.7339391797309738
15027841 -0.6683378857245401 0.7335552783376065
15030934 -0.6681861630727006 0.7338613746756156
15034028 -0.6674578646045614 0.734308716224738
15037121 -0.6676027677090083 0.7348299388058144
15040215 -0.6677897565209077 0.7346075349115991
15043308 -0.6674268561675105 0.734662326941852
15046402 -0.6666292837261231 0.7351576813633189
15049495 -0.6671454812458539 0.7362932479762742
15052588 -0.6668071635925338 0.735391009227344
15055682 -0.6655456236144993 0.7366265404145504
15058775 -0.6660804136235196 0.7370010842652057
15061869 -0.6658281751956355 0.7363634553244964
15064962 -0.665565589361104 0.7364864096711985
15068056 -0.6657033950479789 0.737589843591557
15071149 -0.6656981242123389 0.7374123972754931
15074243 -0.6647775792534486 0.7376408067023599
15077336 -0.6649279391846911 0.7381685896508046
15080430 -0.6648186501185219 0.7382794373411873
15083523 -0.6650056681740939 0.7376344658269621
15086616 -0.6647693439798815 0.7386552250015844
15089710 -0.6645879255201408 0.7388043671692628
15092803 -0.6635787762395994 0.7388233904326965
15095897 -0.6632402876839109 0.7395034077510199
15098990 -0.6633226776836463 0.73991153236334
15102084 -0.6641743645276968 0.7395113342475056
15105177 -0.6621478395896946 0.7395248436630032
15108271 -0.6626285161493333 0.7405981451045736
15111364 -0.6628034580688519 0.7402000499975842
15114457 -0.6622996106583157 0.7405326519978589
15117551 -0.6631028560225131 0.7410103606592965
15120644 -0.662667136381671 0.7420469094670176
15123738 -0.6618550488088438 0.7409432218979525
15126831 -0.6615709284103234 0.7412300427012575
15129925 -0.6611858478040429 0.7421048720733309
15133018 -0.6622723899729439 0.7413746069136387
15136112 -0.6610333110709574 0.7421007807665663
15139205 -0.6604750754530965 0.7426357580436896
15142299 -0.6618583461368407 0.7418947115475198
15145392 -0.6601082358716287 0.7426301828905278
15148485 -0.6601885349113513 0.7430695339696415
15151579 -0.660853694792471 0.7429844153812846
15154672 -0.6600637914401679 0.7433018708903534
15157766 -0.6595152739877297 0.7436255413883095
15160859 -0.6593751726957182 0.7438176467085217
15163953 -0.6597874262814653 0.7430848902467666
15167046 -0.6590987904071456 0.7439634673187847
15170140 -0.6588954693748135 0.7446870303595609
15173233 -0.6593708492605078 0.7446408766225986
15176326 -0.658621477905626 0.7451883233325025
15179420 -0.6580075630215726 0.7453754502600521
15182513 -0.6587112679321077 0.7449408088943187
15185607 -0.6577736818917229 0.7455297205171131
15188700 -0.6570942580397064 0.7461746038289995
15191794 -0.657785475787477 0.7456785119640218
15194887 -0.6574215762356895 0.7458501847919796
15197981 -0.6571289576971132 0.7464740837779315
15201074 -0.6575094023014622 0.7468380272876379
15204168 -0.6569366338079138 0.7459930040150846
15207261 -0.6567654044782368 0.7465873945797453
15210354 -0.6563120807602115 0.7473180756292124
15213448 -0.656467794715736 0.7471766328032757
15216541 -0.6566699392617655 0.7475827021839397
15219635 -0.6556130681525981 0.748367570105626
15222728 -0.6565576755563987 0.74790330049837
15225822 -0.6550523619469778 0.7480052615646992
15228915 -0.6547447760413024 0.7493277981962312
15232009 -0.6553905410379315 0.7488570931172158
15235102 -0.6547479570934414 0.7484494232340141
15238195 -0.6550826310997893 0.7487692796885796
15241289 -0.6553625625462265 0.7493965166119725
15244382 -0.6545102919239137 0.7491871600778874
15247476 -0.6542252102588271 0.7494502002382794
15250569 -0.654688240034192 0.7506843353754656
15253663 -0.6546959901433983 0.7501984268569137
15256756 -0.6536501218228457 0.7504587654847088
15259850 -0.6531905160145884 0.7502875886572046
15262943 -0.6542663206412163 0.750431661494301
15266037 -0.6531192949473194 0.7506450203825423
15266037 -0.6540176346404927 0.7507072663197683
15269194 -0.6539109448024931 0.7514759824644264
15272351 -0.6532746896544301 0.7518914776057614
15275509 -0.6531499861022158 0.7514565355045758
15278666 -0.6520050303284446 0.7511986833551703
15281824 -0.6522151446510601 0.7515673170124028
15284981 -0.6523445725119214 0.7514921192795619
15288139 -0.6521601881684359 0.7525828503976665
15291296 -0.6525439171128924 0.7518183617025054
15294453 -0.6519658682840395 0.7529175370593395
15297611 -0.6515615850975617 0.7531295545833419
15300768 -0.6514435827810574 0.7532575431228765
15303926 -0.65100805214086 0.7530777496800244
15307083 -0.6514434434679135 0.753911703249247
15310241 -0.650499054986635 0.7539099075414805
15313398 -0.6507123574337935 0.7543071121311491
15316555 -0.6512815030751686 0.7537942689436483
15319713 -0.6496374408414851 0.7543260776901838
15322870 -0.6505384056534815 0.7549703394025902
15326028 -0.6495299791303887 0.7546360487887355
15329185 -0.6491223254256955 0.7549939795266137
15332343 -0.6498847129086336 0.7549632963073278
15335500 -0.6492071081607983 0.7553878862605016
15338657 -0.6489846492362883 0.7555918265446233
15341815 -0.6496510770003779 0.7547075910530667
15344972 -0.6488264889653236 0.7557305791980143
15348130 -0.6484555694840957 0.7562538244270898
15351287 -0.6486484818328373 0.7564666224802837
15354445 -0.6478567513257734 0.7564859467071421
15357602 -0.6482239994541092 0.7566262230640161
15360759 -0.6475801286191055 0.7565934917785591
15363917 -0.6475266961591621 0.7569111577175809
15367074 -0.647842959755317 0.7567408231241614
15370232 -0.6470281167741352 0.7570977140739378
15373389 -0.6471084581321165 0.757707109506308
15376547 -0.6470388575171819 0.7581153414625824
15379704 -0.6463559938652628 0.7583009888864662
15382861 -0.6465699232128138 0.7578745531928656
15386019 -0.6462651397652035 0.7584474341056651
15389176 -0.6462057670238411 0.7589793613343307
15392334 -0.6467610831755627 0.7586452009515028
15395491 -0.6458267406006911 0.7599947951256305
15398649 -0.645905884020988 0.7593664286123153
15401806 -0.6450767342562528 0.75927643125904
15404963 -0.6453738821268589 0.7588260881570864
15408121 -0.6452681701438099 0.75969632546027
15411278 -0.6448282541038469 0.7604033695501169
15414436 -0.6453120549737342 0.7595804765200868
15417593 -0.6445199521366 0.7606608481347962
15420751 -0.6443891463435983 0.7604619913021644
15423908 -0.644214802505238 0.7600052474956565
15427065 -0.6434184707362708 0.7610300230293491
15430223 -0.6442155308544631 0.7608706090282088
15433380 -0.6436024087471569 0.7606935624063971
15436538 -0.6440563556227098 0.7618048885796749
15439695 -0.6437525004903851 0.7606524965717935
15442853 -0.6424697785131412 0.7621296325158258
15446010 -0.643924190126366 0.7617086792445882
15449167 -0.6431638275385455 0.7613805607945887
15452325 -0.642378491313339 0.7630044504868261
15455482 -0.6423873306168548 0.7619470321182806
15458640 -0.6413258919352206 0.7625299913813989
15461797 -0.6429928187476105 0.7632871343155334
15464955 -0.6422455431807659 0.7622060796254766
15468112 -0.6414086576631682 0.7636694119293704
15471269 -0.642397582459753 0.7632501619191696
15474427 -0.6409571830963103 0.7631245440683839
15477584 -0.6414295938811799 0.764446793154583
15480742 -0.6412034857472895 0.7634630181729376
15483899 -0.641046830532876 0.7646195959033223
15487057 -0.6412648163202397 0.7640967937808987
15490214 -0.6397220360655727 0.763844257817841
15493371 -0.6408195300225228 0.7653208772973887
15496529 -0.6402980261346288 0.7639437407405352
15499686 -0.6395474757082676 0.7657929636638192
15502844 -0.6407110948889619 0.7650465322299029
15506001 -0.6394990574599477 0.7647647941173517
15509159 -0.6401268220504556 0.7661431071009729
15512316 -0.63994214965719 0.7652075256078832
15515473 -0.6386811593242975 0.7665932062872675
15518631 -0.6397063004144767 0.7659311359374346
15521788 -0.6389257666551256 0.7651500897323739
15524946 -0.6391220448086494 0.7667090315489558
15528103 -0.638965388171324 0.7658311292108734
15531261 -0.6380605078824796 0.7669802948020467
15534418 -0.6380764848802645 0.7670414017835904
15537575 -0.6375565958113397 0.7667062059192781
15540733 -0.6384656555424846 0.7670515306192996
15543890 -0.6377077780778068 0.7675280921786957
15547048 -0.6374287356511468 0.7676607691151183
15550205 -0.6379289890350075 0.7682106600383906
15553363 -0.6370082423394715 0.7686122666478097
15556520 -0.6364694761802854 0.7684865844587723
15559677 -0.6368011701875087 0.7681513609556844
15562835 -0.6369952277560724 0.7684124346476037
15565992 -0.6360279512825323 0.7690906813290694
15569150 -0.6371902078689254 0.7695500206896916
15572307 -0.636246918633217 0.769087306584119
15575465 -0.6363933905647108 0.7696605793280833
15578622 -0.6360657522847962 0.76920802258338
15581780 -0.6350114275927318 0.7697952603989197
15581780 -0.6347956213456669 0.7690240944807104
15585002 -0.6359392743803668 0.7697251321443338
15588225 -0.6350493153544797 0.7687225009584795
15591448 -0.635852104579217 0.7700600670641774
15594670 -0.6352583614382391 0.7692580701575278
15597893 -0.6350331189316046 0.771097118646841
15601116 -0.6344017552981358 0.7698817611641474
15604339 -0.6341530177290703 0.7711039780106518
15607561 -0.6334288160617482 0.770028470372885
15610784 -0.6337774111656858 0.7705992438490642
15614007 -0.6342202585606974 0.7700024414442745
15617230 -0.6333217505948796 0.7715242019381946
15620452 -0.6342284102733865 0.7715112968581281
15623675 -0.633445363270001 0.772209812291859
15626898 -0.6329880218906458 0.7722795839503681
15630120 -0.6325467687292466 0.7726558692296378
15633343 -0.6323683097161871 0.7719225162899744
15636566 -0.6326516095412773 0.771929128281014
15639789 -0.6323297385267723 0.7726862015234357
15643011 -0.6321939751567206 0.772845092298647
15646234 -0.6317895409207388 0.7727980403273463
15649457 -0.6322196182211275 0.7737305509219393
15652680 -0.632176519070463 0.7731206933745115
15655902 -0.6317908638383616 0.7739888027804824
15659125 -0.6313131613802865 0.7726969172776963
15662348 -0.6317391378658901 0.7742165448156022
15665570 -0.6313730180167304 0.7734059468161214
15668793 -0.6309785452506464 0.7743597387745087
15672016 -0.6312770006187873 0.7736023823919027
15675239 -0.630379433057835 0.7744605094781726
15678461 -0.6310387220915462 0.7740214926274521
15681684 -0.6300741157941192 0.7748278258845298
15684907 -0.6308732085921686 0.7753241612922088
15688130 -0.6300388979752402 0.7749051171703375
15691352 -0.6298819007370172 0.7750109367746262
15694575 -0.6300922792510639 0.7757631092682806
15697798 -0.629148437511824 0.7756696842509726
15701021 -0.6297419965734885 0.7751909650886933
15704243 -0.6294187742731753 0.7758631565173558
15707466 -0.6301561665367814 0.7764454846390516
15710689 -0.6292863660533643 0.7762804977410656
15713911 -0.6286990548392477 0.7766664315401038
15717134 -0.6283215088639592 0.7760201758623695
15720357 -0.6283462476603058 0.7770979507200474
15723580 -0.627930096807747 0.7768265187094703
15726802 -0.6277866705016137 0.7774948085469547
15730025 -0.6278592433891426 0.7772465592350633
15733248 -0.6279048569933541 0.7779794041747524
15736471 -0.6274674095952993 0.7781223650905744
15739693 -0.6280329044704732 0.7785955069637717
15742916 -0.6269427012875408 0.7780138268344592
15746139 -0.626740558287211 0.7783763982125793
15749361 -0.6263933246963896 0.7783098960411617
15752584 -0.6263707298830113 0.778300769587463
15755807 -0.6264080449198947 0.778476346937379
15759030 -0.6274626526103213 0.7784620880214271
15762252 -0.6258602086268549 0.7792158567434192
15765475 -0.6263652919225017 0.7787023924901744
15768698 -0.6255171810216521 0.7794013048562967
15771921 -0.6260296060192639 0.7792757776290935
15775143 -0.6259381496647562 0.7794606839697829
15778366 -0.6257386325655254 0.7801220845849788
15781589 -0.6255557371662958 0.7800283518772567
15784811 -0.6252452944723863 0.7802969321861367
15788034 -0.6254867751204805 0.7802466382357129
15791257 -0.6244797904816551 0.7805292357362251
15794480 -0.6242595227633989 0.7804192096338638
15797702 -0.6240527042964855 0.7801124027659495
15800925 -0.6247954058453793 0.7805198668980244
15804148 -0.625232722527914 0.7805279459344074
15807371 -0.6238275605201585 0.7817799938876901
15810593 -0.6244881568853444 0.7810552718408921
15813816 -0.6228772546316437 0.7816462317247181
15817039 -0.6235928494375521 0.7815204386890842
15820262 -0.6223491557307907 0.7821013482142934
15823484 -0.6230311874348521 0.781266813211877
15826707 -0.6229903835030194 0.7815599446462737
15829930 -0.6236735059317761 0.7817791819537909
15833152 -0.6220056954802596 0.7818529634507034
15836375 -0.6223880644774582 0.7825097241215964
15839598 -0.6215449400552362 0.7828525493604531
15842821 -0.6218644408006399 0.7826342346180868
15846043 -0.6210326712839679 0.781998391793805
15849266 -0.6211435352348705 0.782564564709251
15852489 -0.6218630209694217 0.7835055111374656
15855712 -0.6212909227273475 0.7832901149028952
15858934 -0.6212847975809759 0.7842301575338603
15862157 -0.6208867849198446 0.7838457237742952
15865380 -0.6204265178647073 0.783584137475649
15868602 -0.6202442905801099 0.783580153255471
15871825 -0.6204255905275871 0.7834897030146912
15875048 -0.6208579707125453 0.7840307002687027
15878271 -0.6201923407765597 0.7846621999243438
15881493 -0.6214478459160279 0.7854857748035973
15884716 -0.6189865553729662 0.785422098223263
15887939 -0.6191759764499931 0.7858341193998638
15891162 -0.6186575161110279 0.7848324127752303
15894384 -0.61913834508962 0.7850894059437822
15897607 -0.6193871663327633 0.7850874944516889
15900830 -0.6196915528796029 0.7850725554048503
15904053 -0.6197114224540393 0.7857526170285671
15904053 -0.6194529692401827 0.7852965730291221
15907342 -0.6184417154773626 0.7855842057037228
15910631 -0.6184699329513619 0.7860464146757509
15913921 -0.6182537155149767 0.7858176806560228
15917210 -0.61793856264413 0.786155979132326
15920499 -0.6177641394626004 0.7860652579279878
15923789 -0.6179551180315346 0.7869001923842903
15927078 -0.6180244065411333 0.7869683262821286
15930368 -0.6177766408442316 0.7867644819806039
15933657 -0.6177685605784037 0.787254347834675
15936946 -0.6163020799716196 0.7872303888847472
15940236 -0.6173807885426026 0.7876005826378321
15943525 -0.6164896056677618 0.7865891597564272
15946815 -0.6164294189098357 0.7874935299652654
15950104 -0.6157292990394166 0.7869966782808189
15953393 -0.6164674182582605 0.7879784673928235
15956683 -0.6158669516498134 0.7882330826097004
15959972 -0.6163860589992272 0.7889581594074992
15963262 -0.6160274712537936 0.7890629553972713
15966551 -0.6151622204153367 0.7889687113412849
15969840 -0.6158607420198366 0.7887214319126332
15973130 -0.6152106427537303 0.7888153997712389
15976419 -0.6156077024611278 0.7889490199182082
15979708 -0.6147117358167316 0.7888336916289016
15982998 -0.615213020370727 0.7893258711523722
15986287 -0.6146305850812457 0.7888567641049492
15989577 -0.6138371012083153 0.7896831628534604
15992866 -0.6146874993515195 0.7897065145908128
15996155 -0.6142871270117964 0.7897200098188752
15999445 -0.613778174603509 0.7904123012379342
16002734 -0.6131890889184011 0.7899233724271045
16006024 -0.6142336665149678 0.7904980529456241
16009313 -0.6126548311020906 0.7905776703986408
16012602 -0.6131473689167805 0.7894900399226256
16015892 -0.6134773747274699 0.7906651816046102
16019181 -0.6127486766540463 0.790169443901316
16022471 -0.6124311693731488 0.791392890370306
16025760 -0.6122208937232789 0.7906606358286689
16029049 -0.6123656502913774 0.7920082670096472
16032339 -0.6121145240869569 0.7899289399107656
16035628 -0.6119119771779304 0.7919763822456453
16038917 -0.6119216827155898 0.7910597709293955
16042207 -0.6117151979805199 0.7926276216729181
16045496 -0.6119317523820993 0.7918223957458248
16048786 -0.6114168897179754 0.7924063814599532
16052075 -0.6119183446030637 0.7922659740103712
16055364 -0.6107124665396082 0.7923390738140235
16058654 -0.6105922345306226 0.7925930168517875
16061943 -0.6104974543722756 0.7931732173592653
16065233 -0.6099872900303502 0.7933112716216022
16068522 -0.6102040904374423 0.7922020178925336
16071811 -0.6096206798427182 0.793443317981547
16075101 -0.6100524971560444 0.7926971384038171
16078390 -0.6096317015880904 0.7942472534171322
16081680 -0.6094644195085183 0.7932028195762136
16084969 -0.60886808417127 0.794469889450546
16088258 -0.6090185475864489 0.7936839507145852
16091548 -0.6095507831612252 0.794109210876539
16094837 -0.6087417854290286 0.7938936114193457
16098127 -0.6088897292293832 0.7939498663251463
16101416 -0.6087563877222797 0.7944088960936814
16104705 -0.6089440230376962 0.794334568781829
16107995 -0.6079218570059102 0.7940774240015821
16111284 -0.6091981395796846 0.7936150306110018
16114573 -0.6078915913636382 0.7956508235074633
16117863 -0.6083543170383104 0.7939597888760211
16121152 -0.607419860084863 0.79531128384843
16124442 -0.6072303081943392 0.7945409603278006
16127731 -0.6068781646591469 0.7958878873079147
16131020 -0.6070540935240526 0.7943736171961416
16134310 -0.6071220516716026 0.7963990719561757
16137599 -0.6062106725280307 0.7957286877532573
16140889 -0.6071410478190741 0.7966218462370843
16144178 -0.6070057175799235 0.7961760273256733
16147467 -0.6056514994203975 0.7963617378311423
16150757 -0.606230027692493 0.7971031564911123
16154046 -0.6059979247216337 0.7963844890201133
16157336 -0.6057611813240773 0.7967869566224054
16160625 -0.6066003297481634 0.7958567836467759
16163914 -0.6056079630992828 0.7968573252493765
16167204 -0.6057196570599203 0.7966652864329954
16170493 -0.6045775356502001 0.7974384792307689
16173782 -0.6056718655343073 0.796204478769277
16177072 -0.6042918031274704 0.7976655495059012
16180361 -0.6055838394453129 0.7970058050510302
16183651 -0.6040969903303333 0.7984600922307189
16186940 -0.6045501031447523 0.7978363988911975
16190229 -0.6040937519720365 0.7983130099029928
16193519 -0.6037903524743629 0.7982716917035535
16196808 -0.6040746169375686 0.7991167999865921
16200098 -0.6037870127535985 0.7983950333393124
16203387 -0.6030236583677581 0.7998142092208349
16206676 -0.603134266248876 0.7982427875040269
16209966 -0.6033010018371214 0.799973868085462
16213255 -0.6032350680840094 0.7986502859347623
16216545 -0.6028957186419267 0.799119461853892
16219834 -0.6027556457517524 0.7990392095340425
16223123 -0.602498896708495 0.7995040991274236
16226413 -0.6026763010904227 0.7997920645908606
16229702 -0.6027900962889742 0.8000296903168803
16232992 -0.6021902060355433 0.8002314586137288
16232992 -0.6028088296010093 0.8003837532594592
16236349 -0.6013807924450388 0.8007865550464186
16239706 -0.6015364146736308 0.7999443354428571
16243064 -0.6014623757604515 0.8007335556252362
16246421 -0.6015146675011527 0.8000498597012654
16249779 -0.6010609128107786 0.8009811244644175
16253136 -0.6007918979405419 0.8010411374886746
16256493 -0.6008560059489563 0.8001817089962745
16259851 -0.6007725485500169 0.8013771308704806
16263208 -0.6002999095009095 0.8003969948466839
16266566 -0.6009042838963711 0.8009177620235916
16269923 -0.600218060124198 0.8019835064408224
16273281 -0.6003411188331557 0.8009555782101749
16276638 -0.5997398075497169 0.8023055363748957
16279995 -0.5999302657856794 0.8010664600808236
16283353 -0.599455154746562 0.8014489363995912
16286710 -0.5988459142944575 0.801121990504467
16290068 -0.5989911716421195 0.8015389346031869
16293425 -0.5983678822265841 0.8028107810206223
16296782 -0.5993869382815024 0.8019538886226719
16300140 -0.5991100002618779 0.8032719756827763
16303497 -0.5984082726131597 0.8020197523454464
16306855 -0.597796306322136 0.8025211480928891
16310212 -0.5982989629558427 0.8035867370437679
16313570 -0.5979948058690341 0.8026465743607778
16316927 -0.5974035356230296 0.8043020317518906
16320284 -0.5968495290991984 0.8024772728102931
16323642 -0.5978875621250647 0.803613692732851
16326999 -0.5969862254086762 0.8025840033643148
16330357 -0.5975373861194163 0.8030350212399321
16333714 -0.597538124296344 0.8045425139910648
16337072 -0.5972520467882693 0.8034368927502912
16340429 -0.5969314716049172 0.8050357429167974
16343786 -0.5965085515156904 0.8036572877055853
16347144 -0.5964078553264979 0.8041425527292866
16350501 -0.5957223511822298 0.804215156457895
16353859 -0.5962216578998109 0.8044040688482308
16357216 -0.5959614565842098 0.804904138841932
16360573 -0.5957958612020939 0.8044410399425491
16363931 -0.5954140035270297 0.8048077099850358
16367288 -0.594752971480563 0.8054072308506698
16370646 -0.5953396977263802 0.805439052430735
16374003 -0.5942559443795736 0.8056603070466317
16377361 -0.5940182405992633 0.8054824876348153
16380718 -0.5948288244229532 0.8051207367249004
16384075 -0.5937341052691818 0.806837699139809
16387433 -0.5942767124418 0.8057506726827088
16390790 -0.5939174079695112 0.8064560017054428
16394148 -0.5934169323930479 0.8061362984242925
16397505 -0.5940699356577253 0.8064206949796928
16400863 -0.5933251766746908 0.8060740722239037
16404220 -0.5942544539061694 0.8057737317330297
16407577 -0.5940237508324016 0.8070304067306039
16410935 -0.5936500513178947 0.8063170140935564
16414292 -0.59285082279985 0.8075504803969068
16417650 -0.5924382967539393 0.8067648026640178
16421007 -0.5924689071906531 0.8073125775390053
16424364 -0.5918894562628233 0.807005477862437
16427722 -0.5919459910515963 0.8062906728710799
16431079 -0.5927367956483386 0.8070578615911586
16434437 -0.5916527463625463 0.8079189699470829
16437794 -0.5920187182523782 0.8079342554338874
16441152 -0.5919647075158005 0.8076492493558053
16444509 -0.5909447348720653 0.8083928845646294
16447866 -0.591826216004262 0.8081245362160766
16451224 -0.5915112398651878 0.8085278392228464
16454581 -0.5902823431050312 0.8090265280773266
16457939 -0.5912373562444998 0.8081387737022938
16461296 -0.5907995798190707 0.8087135165237795
16464653 -0.5910444598604248 0.8093682391139115
16468011 -0.5906996965201652 0.808130755642696
16471368 -0.5897654218799875 0.8089716313210568
16474726 -0.5894878862374354 0.8096243995071222
16478083 -0.5898110698845705 0.8088284665091098
16481441 -0.5900349082018448 0.8092472741300044
16484798 -0.5893027493222284 0.8092003887924847
16488155 -0.589545938451254 0.8094922478594072
16491513 -0.5892272179911068 0.8100871420992473
16494870 -0.5882637886369084 0.809611341509822
16498228 -0.5896832643997589 0.8095517705066513
16501585 -0.5879258985576 0.8102026821683261
16504943 -0.5885417642512019 0.8101567466093915
16508300 -0.5883252426914627 0.8100155922169686
16511657 -0.5879417397666823 0.8110315612918797
16515015 -0.5877381338649004 0.810759119070018
16518372 -0.5879929926365486 0.8097278315744445
16521730 -0.5877881952120008 0.8111574368578849
16525087 -0.5872410529138765 0.8108234569983446
16528444 -0.5876107128189977 0.8107707256288039
16531802 -0.5878597802340434 0.8124616998035079
16535159 -0.5870729863166884 0.8108413741689349
16538517 -0.5872693640261546 0.8112771982679976
16541874 -0.5862145671165148 0.8126646586823566
16545232 -0.5857540711952137 0.8118850705689485
16548589 -0.5862792957623587 0.8115747226196927
16551946 -0.5858552868480261 0.8118900976630191
16555304 -0.5855407146876971 0.8114909098966575
16558661 -0.5860956683114982 0.8113374838608267
16562019 -0.5858287816608816 0.8124712237910551
16565376 -0.5856335737259495 0.8118282273078643
16568734 -0.5859247991004851 0.8117549260372803
16568734 -0.5846942751841014 0.8122526866671502
16572160 -0.5855201851651072 0.8121533380215712
16575587 -0.5852652806486306 0.8133311175723806
16579014 -0.5844812965786421 0.8129937218550084
16582441 -0.5853476766194162 0.8123777916669653
16585868 -0.5850171575096332 0.8132414939153144
16589295 -0.5841788598500265 0.8131621205299843
16592722 -0.5844078163904326 0.8126264922320685
16596148 -0.5840844462093637 0.813849876438369
16599575 -0.5848318486254366 0.8130072006272899
16603002 -0.5842111588315285 0.8124567900670784
16606429 -0.5841417090592387 0.8143741350959497
16609856 -0.5833241282446763 0.8141959312525504
16613283 -0.5831745501933285 0.8136524265879107
16616710 -0.5828847587944466 0.8142931797797825
16620136 -0.5823298570416491 0.8140691442228236
16623563 -0.582756378945069 0.8139854143246379
16626990 -0.5823665404907399 0.815233966637707
16630417 -0.5820910311705925 0.8145540889029088
16633844 -0.5817484298627824 0.8141033134585368
16637271 -0.5825609551949209 0.8156342723784775
16640698 -0.5815066447991544 0.8148418636540223
16644124 -0.5819761189683736 0.8140440898453654
16647551 -0.5819106884431511 0.8163953228428967
16650978 -0.5815226732733842 0.8160951466573018
16654405 -0.5804218840822225 0.8151232505266398
16657832 -0.5811241090449677 0.8162655943902627
16661259 -0.5798974686059271 0.8159841638696921
16664686 -0.5804735621807976 0.8157772937329697
16668112 -0.5804012995363685 0.8162797510032584
16671539 -0.5800675575224371 0.8158912760808511
16674966 -0.5799770370961123 0.8153428792169607
16678393 -0.5801787849927899 0.8168600948146317
16681820 -0.5795704134399595 0.8159665649933873
16685247 -0.5800076266171954 0.8157621989304481
16688674 -0.5799832146839494 0.8182323568968587
16692100 -0.578918899884134 0.8167575724019833
16695527 -0.5794724046990307 0.8167531966483874
16698954 -0.5789006138568914 0.8184275923187206
16702381 -0.5788133783118109 0.8174652074938521
16705808 -0.5783109670745197 0.8160146336694301
16709235 -0.5781633726903876 0.8170709674907435
16712662 -0.5780379165153292 0.8172971470125632
16716088 -0.5782345272597958 0.8167909365168773
16719515 -0.5783570881168337 0.8167913503481586
16722942 -0.5778134456711345 0.8180836745140437
16726369 -0.577054314426385 0.8171834787284016
16729796 -0.5777989404406545 0.8174995781274619
16733223 -0.5772843172604332 0.8190773906848609
16736650 -0.5765373013348627 0.817808546107347
16740077 -0.5768699079979542 0.8177416878223326
16743503 -0.5766234677853499 0.8191238677899599
16746930 -0.5767521163442425 0.8187160905268688
16750357 -0.576443019943322 0.8179520347674515
16753784 -0.5764721199601106 0.8188913276781015
16757211 -0.5761040507961888 0.8186454054825242
16760638 -0.5758676400259081 0.8183271717792588
16764065 -0.5756515524834175 0.8201189951459512
16767491 -0.5757464225548736 0.8197058612054674
16770918 -0.5760123814230934 0.8194438566922481
16774345 -0.5751658838798207 0.8202494513605488
16777772 -0.5743338915739346 0.8196483932394372
16781199 -0.5747575685870226 0.8191483308372597
16784626 -0.5748838159251106 0.8201665418294259
16788053 -0.5739078820548438 0.819452275433654
16791479 -0.5747960667480783 0.8195511783452786
16794906 -0.574934805119015 0.8206661239867006
16798333 -0.5743030635585397 0.820508418384295
16801760 -0.5740157698303784 0.8200552049683805
16805187 -0.5739934903763204 0.8213018184335918
16808614 -0.5740752185889202 0.8209528202284153
16812041 -0.5731405766593529 0.8199528217550435
16815467 -0.574282485201246 0.8215979119268249
16818894 -0.5730161439611107 0.8209029255837706
16822321 -0.5731972573611555 0.8211019369068201
16825748 -0.572128664794769 0.8211854032800925
16829175 -0.5728146698868839 0.8209674249057314
16832602 -0.572621346681652 0.8201218608438438
16836029 -0.5725523478214152 0.8223405924735117
16839455 -0.5717487855561671 0.8216066447501279
16842882 -0.5726741819043581 0.821476334317176
16846309 -0.5718489920690909 0.8224749682111474
16849736 -0.5712889091224571 0.8220613165357754
16853163 -0.5714909668774973 0.8211962205696177
16856590 -0.5713305175153525 0.823086820467884
16860017 -0.5703137654267586 0.8221383692019177
16863443 -0.5709652530157837 0.8219233340892669
16866870 -0.5713641162260771 0.8231782558166865
16870297 -0.57027826956211 0.8230342952460495
16873724 -0.570699832234291 0.8220170455737618
16877151 -0.5710513510378503 0.8230241466537175
16880578 -0.5705861270376723 0.8234670953368488
16884005 -0.5701484011102192 0.8223850872698996
16887431 -0.5700751894986104 0.8235592251507846
16890858 -0.569496760974323 0.8237237069141016
16894285 -0.5695037383474342 0.8233306235310993
16897712 -0.5697072223999141 0.8240897803413932
16901139 -0.5683695513584068 0.8234925826081181
16904566 -0.5691028618419784 0.8239233881594279
16907993 -0.5691004400811199 0.824487028572903
16911420 -0.567899013935283 0.8235346852402594
16911420 -0.5682182740511101 0.8234044914528202
16914917 -0.5692013332092654 0.8243312927035424
16918415 -0.5682435500462909 0.8238389629896986
16921913 -0.5683711480058942 0.8240120413751347
16925410 -0.5673530040177067 0.8241273622350815
16928908 -0.5684004702147697 0.8244178129050281
16932406 -0.5673353739329857 0.8244949338316173
16935904 -0.5676527144402099 0.8247197585658657
16939401 -0.5676681174132333 0.8245345015028102
16942899 -0.5674853165309601 0.8254922442902339
16946397 -0.5672024930645374 0.8251634741558668
16949895 -0.5667814887323476 0.826223809012569
16953392 -0.5673419658640263 0.8253009545854101
16956890 -0.566540330548654 0.8259862532274461
16960388 -0.5662103399839967 0.8256821403146003
16963886 -0.5666210884094173 0.8262481422847001
16967383 -0.5669908267887814 0.8246001331314863
16970881 -0.5660429391524866 0.8261384811241071
16974379 -0.5658237121969494 0.8258993558295977
16977877 -0.566004206272534 0.8258421981630898
16981374 -0.5662451500741733 0.8262181972005179
16984872 -0.5658663386858157 0.826422257506365
16988370 -0.5652066594957783 0.8273706384651381
16991868 -0.5651468186395738 0.826631315919635
16995365 -0.5652363850644176 0.8268601248399466
16998863 -0.5652598403693456 0.8270322346050668
17002361 -0.5643948491308501 0.8268322100829494
17005858 -0.5650696438933638 0.8264838569130588
17009356 -0.5649425494061876 0.8270419380391386
17012854 -0.5642797146509653 0.8272418800692017
17016352 -0.5633915291718827 0.827244237236949
17019849 -0.5633467163851278 0.8276388187975884
17023347 -0.5644321885195095 0.8274829433434288
17026845 -0.563260707628046 0.8277554649174138
17030343 -0.5628833877846043 0.8275543338524478
17033840 -0.5630735082527863 0.827470479423018
17037338 -0.5634458970712158 0.8279991721705879
17040836 -0.5629279469552518 0.8285458987335624
17044334 -0.562339292925643 0.8276956252464898
17047831 -0.5625014047672741 0.8288471991476882
17051329 -0.5628794463616631 0.8277918467451909
17054827 -0.5622560159026196 0.8289554573588258
17058325 -0.5616894008446218 0.8282059421792369
17061822 -0.5616633277992044 0.8281864203122082
17065320 -0.5621349768768588 0.8285620860729447
17068818 -0.5613785249648758 0.8289354694409895
17072316 -0.5606331580470546 0.8293436326473459
17075813 -0.5612578423462844 0.8287378993552601
17079311 -0.5611412967237375 0.8292069469473858
17082809 -0.560778952412062 0.8292100640064453
17086307 -0.5608368450480574 0.8292473349588189
17089804 -0.5605367642085999 0.8298518706764946
17093302 -0.5607014047689588 0.8290453721565493
17096800 -0.5603766421966985 0.828753712816182
17100297 -0.5603194258865716 0.8297464575338973
17103795 -0.5597623311051987 0.8295428370002867
17107293 -0.5595988707071183 0.830167142481804
17110791 -0.5598378615899281 0.8302948237730684
17114288 -0.559616279083641 0.8297101893635107
17117786 -0.5590276979241993 0.8306766153611693
17121284 -0.5586169769586904 0.8308392308151672
17124782 -0.5592810296020367 0.8300979413386389
17128279 -0.5593880285270745 0.8316234343930887
17131777 -0.5586835750727057 0.8309711595071337
17135275 -0.5582790261246778 0.8303651609633576
17138773 -0.5583164333632118 0.8305100124642839
17142270 -0.5586274823995503 0.8314328974956502
17145768 -0.5577450783594091 0.8312846665719362
17149266 -0.5576518398153365 0.8315748908799615
17152764 -0.5572993686447599 0.8307845614305467
17156261 -0.5581305266076817 0.8310091160890162
17159759 -0.5569345222939796 0.8314813570887811
17163257 -0.5567385834874853 0.8312007646523119
17166755 -0.5580170995027091 0.8317378396725579
17170252 -0.5574498647115808 0.8313301196632157
17173750 -0.5574404655611525 0.8318004777148079
17177248 -0.5561656737167279 0.8318094158978733
17180745 -0.5565890827610145 0.8317415858363242
17184243 -0.5568736940226505 0.832260261562226
17187741 -0.5563872804737826 0.8336713313865692
17191239 -0.5550429157879005 0.8321275730358241
17194736 -0.5558098321072242 0.8329917878972343
17198234 -0.5560170332553935 0.833334487038728
17201732 -0.5553335653910583 0.8336799542000437
17205230 -0.5549765555601922 0.8324059031275988
17208727 -0.5551744530788423 0.832391033964408
17212225 -0.5560988676485914 0.8331662996711273
17215723 -0.5551000171605547 0.8342560813970205
17219221 -0.5539175935379747 0.8332467393741683
17222718 -0.5545711225512031 0.8327620670851343
17226216 -0.5553176756972 0.8335666986256668
17229714 -0.5546743511485509 0.8346554297479305
17233212 -0.5535771777805615 0.8336004076217302
17236709 -0.553811784109779 0.8334223183833713
17240207 -0.5543140427034797 0.8341779952595828
17243705 -0.5538275366994968 0.8350597745334664
17247203 -0.5527567876439804 0.8337834499711774
17250700 -0.5533085263066246 0.83366533691622
17254198 -0.5538011600352024 0.8353452237950275
17257696 -0.5528182217703803 0.8344943868412263
17261194 -0.5528048520617567 0.8352643226802684
17261194 -0.5533557879356475 0.8349908444726035
17264764 -0.5532567426962325 0.8356439838834538
17268334 -0.5527022964730426 0.8348286311801053
17271904 -0.5521776515023559 0.8350262326194432
17275474 -0.5518722764695896 0.8355295675874737
17279044 -0.5518109284683941 0.8358000392464164
17282614 -0.5510519701380175 0.8354172812893652
17286184 -0.5522311191347348 0.8355494761384854
17289754 -0.552279878178324 0.8353902758871006
17293324 -0.5513696507771301 0.835664989311712
17296894 -0.5513606036144544 0.8358465683461351
17300464 -0.5510118960696078 0.8362708883441325
17304034 -0.5506237050336695 0.8367481908378116
17307605 -0.5497565560457159 0.8360042151759205
17311175 -0.5500153294897646 0.8365337006857797
17314745 -0.5504526076739098 0.83571588296172
17318315 -0.5505153740952563 0.8361132050503031
17321885 -0.5503469113470438 0.8362257692769866
17325455 -0.5502225960846965 0.8375769368125175
17329025 -0.550145681793663 0.8373281573169697
17332595 -0.5495560403084613 0.8373982064081619
17336165 -0.5496426721879227 0.8372332398472755
17339735 -0.5489464435525173 0.8369938927453245
17343305 -0.5490604843917206 0.8367887407412521
17346875 -0.5487821711722166 0.8371278527391951
17350446 -0.5483780721073687 0.8367917990848812
17354016 -0.5496112058913005 0.8375599714605011
17357586 -0.5485563616224832 0.8376359838316254
17361156 -0.5481702878034761 0.8383553611833038
17364726 -0.5476472186291366 0.838646369925484
17368296 -0.5478444350683883 0.8383338376279005
17371866 -0.5473280131357126 0.838344342979651
17375436 -0.5477026236777355 0.8374850139161463
17379006 -0.5480075606799163 0.8378988424168584
17382576 -0.5479806474835514 0.8371685645192329
17386146 -0.5478219392816165 0.8379981355932524
17389716 -0.5471749660942724 0.8386046476418304
17393286 -0.546655475459335 0.8392127110300712
17396857 -0.546835085381314 0.8390837363448055
17400427 -0.5463055644276239 0.8391165142934134
17403997 -0.5462831258906214 0.8394780671152791
17407567 -0.5465322631269037 0.8404761978309814
17411137 -0.5449573206595572 0.8398060753653637
17414707 -0.5459571915856261 0.839114440293938
17418277 -0.5456186785998972 0.8393947464179972
17421847 -0.5454428295722096 0.8398693355116391
17425417 -0.5452361742816442 0.8403161424936215
17428987 -0.5451974719382184 0.839504666789833
17432557 -0.5447894455081197 0.8394189231172404
17436127 -0.5441330815233775 0.8398275724870891
17439698 -0.5448326262979559 0.8395621603424438
17443268 -0.5451271492552116 0.8401413371467542
17446838 -0.5446110170626784 0.8406451688993369
17450408 -0.5441392546051274 0.8411174366700831
17453978 -0.5440748688625043 0.8404253820217757
17457548 -0.5442990622169741 0.8403068842306993
17461118 -0.5440357277872881 0.8411024568606121
17464688 -0.5436841089218855 0.8412454303439836
17468258 -0.543508641478452 0.8410868030518526
17471828 -0.5432212042819023 0.841476476933242
17475398 -0.543784312417417 0.8413219847438854
17478968 -0.543158976086739 0.8418552146865043
17482538 -0.5425056965360823 0.8420226047894838
17486109 -0.5422842949639713 0.8428965271974195
17489679 -0.5416696610379104 0.8418310086625944
17493249 -0.5423803857390923 0.8413897349685172
17496819 -0.5434688039252213 0.8422287196268965
17500389 -0.5422318216855248 0.841805898795349
17503959 -0.5418143402623715 0.8429866699251966
17507529 -0.541025521580413 0.8427078259533908
17511099 -0.5418911685223123 0.841975275552383
17514669 -0.5419878903753488 0.8423687639003404
17518239 -0.5415004666284675 0.8418356289900046
17521809 -0.5414982131850633 0.8426550836225069
17525379 -0.5409883233739704 0.8436118435243146
17528950 -0.5403149766579144 0.8426457512363453
17532520 -0.5412177981186868 0.841884837989754
17536090 -0.5405468964741265 0.8430449824299056
17539660 -0.5409158618130393 0.8434042876684634
17543230 -0.5396457289912817 0.8434525718201729
17546800 -0.5397688779622843 0.8434634794492885
17550370 -0.53954027885564 0.8435746552618502
17553940 -0.5403097690894759 0.843324275586036
17557510 -0.5397385452908198 0.8442028197802999
17561080 -0.5388435426527489 0.8435204814356796
17564650 -0.5386575492744893 0.8445039010866505
17568220 -0.5388134987022023 0.8441372441511913
17571790 -0.5387844784610635 0.8438979271582419
17575361 -0.5395221742988018 0.843690778492485
17578931 -0.5385798774604851 0.8442048535866581
17582501 -0.5386873066460679 0.8450121473683925
17586071 -0.5384045690703216 0.8454472600561854
17589641 -0.5374429287203439 0.8444790096650137
17593211 -0.5376035252913451 0.8448226980856945
17596781 -0.5377840669133086 0.8452609676216933
17600351 -0.5373199473138544 0.8449864588932564
17603921 -0.5370723303685354 0.8455006835010986
17607491 -0.5371018947595944 0.845860796465196
17611061 -0.5365190071787365 0.845449196626627
17614631 -0.5374172842265134 0.8449249198930711
17618202 -0.5374872358213689 0.8453913780328529
17618202 -0.5375186774122861 0.845428327519976
17621845 -0.5370785911719587 0.8465224399277012
17625489 -0.5365556314076316 0.8465310820919691
17629133 -0.5358555574239072 0.8467276172933667
17632777 -0.536105482308354 0.8466550466698667
17636421 -0.5356591601148251 0.8462688007879013
17640065 -0.5354645777491024 0.8462042372932888
17643709 -0.535653519989195 0.8461124020582627
17647353 -0.5361825412558452 0.8458337126194686
17650997 -0.5357443328114305 0.8459474478966077
17654641 -0.5347778566362364 0.8472966845630072
17658285 -0.5352799562997398 0.8474178384841957
17661929 -0.535110872460262 0.8465881275071298
17665572 -0.5343481754417819 0.847425072243203
17669216 -0.5347377766463001 0.8472862526728475
17672860 -0.5345294107762821 0.8465261478787003
17676504 -0.5343419736099969 0.846888407765939
17680148 -0.5343958383334174 0.8472631490520995
17683792 -0.534058481226199 0.8469781388964988
17687436 -0.5345563314937943 0.8463432419815927
17691080 -0.5338387100814335 0.8478617367369944
17694724 -0.5337063121365656 0.8475124348379929
17698368 -0.5337385137477147 0.8484290729682631
17702012 -0.5331015086264805 0.8479111135662551
17705656 -0.5327615646677755 0.848301087781095
17709300 -0.5333747725610878 0.8482229469268905
17712943 -0.5320938126681188 0.8483395032428499
17716587 -0.5330370050842314 0.8485771408642225
17720231 -0.531975271486566 0.8488915188103364
17723875 -0.5319413208353253 0.8488238060405936
17727519 -0.5320091079203889 0.8494755582791604
17731163 -0.531416627161235 0.8495900446203524
17734807 -0.5315124561105901 0.849385136118424
17738451 -0.5317417244606427 0.8498723010780073
17742095 -0.5312220292597533 0.8488229835541645
17745739 -0.5316606113959466 0.8486578249511811
17749383 -0.5310111769088337 0.8492177615353482
17753027 -0.5315010836457893 0.8494551387197788
17756670 -0.5309190066489811 0.8493429381127807
17760314 -0.5313672106599189 0.8497226643992823
17763958 -0.530574704052004 0.8497734375832985
17767602 -0.5297268450171714 0.8508096667372756
17771246 -0.5294440249494411 0.8510065565362093
17774890 -0.5298184661760177 0.8501766050601497
17778534 -0.530015155208156 0.8495852018254277
17782178 -0.5306197740598654 0.849971436476439
17785822 -0.5295259301006375 0.850815905241524
17789466 -0.5293211982951028 0.850642958827141
17793110 -0.5299250340410516 0.8506988183471036
17796754 -0.528519295288535 0.8516576037134391
17800398 -0.5284859364153555 0.8513843462341377
17804041 -0.528168850503537 0.8514291515912283
17807685 -0.5283933108230843 0.8511846614201667
17811329 -0.5277334491109871 0.8511245533816796
17814973 -0.5283853474647666 0.8515702596333425
17818617 -0.52806554796119 0.8527316633027443
17822261 -0.5279473303703763 0.852381612739548
17825905 -0.5276756675371493 0.8521347662392468
17829549 -0.5269225128575641 0.8529762286784099
17833193 -0.5269801558930695 0.8522567724747074
17836837 -0.5267256568726597 0.8528206223924769
17840481 -0.5272156692741087 0.8521292789089487
17844125 -0.5271945514674704 0.8520848581649537
17847768 -0.5271597452003595 0.8518717608843713
17851412 -0.5264422044980592 0.8527153765882818
17855056 -0.5270776694936122 0.8529868114493815
17858700 -0.5267130689036426 0.8528354321721855
17862344 -0.5256387511202568 0.8533105580702213
17865988 -0.525731687838119 0.8534167526018575
17869632 -0.525520859141322 0.8528215000915003
17873276 -0.5254830031636865 0.8529271136972916
17876920 -0.5252906488622989 0.852362104076754
17880564 -0.5251027843176148 0.8531631720994635
17884208 -0.5257274523994816 0.8536014352237169
17887852 -0.5254742709226293 0.8536506201961497
17891496 -0.5254743441051022 0.8538962816971644
17895139 -0.5243346855188631 0.8545250003991303
17898783 -0.5248710940998087 0.854569621615474
17902427 -0.5237285657479567 0.8547216593037898
17906071 -0.5243047854985996 0.8544302808001776
17909715 -0.5238796266868097 0.8544842435108299
17913359 -0.523795321059487 0.8542043486023553
17917003 -0.5236167074408873 0.8539027526359348
17920647 -0.5244605772891914 0.8543881765990509
17924291 -0.5241805660257678 0.854821764143154
17927935 -0.5242446474449933 0.8551298528367617
17931579 -0.5236983567976804 0.8552308604198794
17935223 -0.5231801863817883 0.8559095064188044
17938866 -0.5230395864198426 0.8554714918359145
17942510 -0.522827362674781 0.8562339883856902
17946154 -0.521863423480916 0.8553595131742586
17949798 -0.5221029539591523 0.8560115618393477
17953442 -0.5220712598243922 0.854912881234565
17957086 -0.5215630650244368 0.8560721929948261
17960730 -0.5220783629050112 0.8561711173693825
17964374 -0.5217365791514965 0.855695389888711
17968018 -0.5215884708716314 0.8564299731797119
17971662 -0.5206191707124387 0.8564592658276379
17975306 -0.521515565403661 0.8573121561230103
17978950 -0.5206660421026937 0.8573478043381779
17982594 -0.5207778477474112 0.8563416401977885
17982594 -0.5207820063294459 0.8562875178767629
17986313 -0.5211169552136331 0.8564489280562189
17990032 -0.5204357067837415 0.8567700117485599
17993751 -0.519954969898699 0.8571593254225244
17997471 -0.5204328865262424 0.8573589188960635
18001190 -0.5198347398358387 0.856442985667549
18004909 -0.5198223937519252 0.8570486952080312
18008629 -0.5193769051002436 0.8570426808039557
18012348 -0.5193353058831317 0.857007828317531
18016067 -0.5191450308796028 0.8573357975484207
18019786 -0.5196561008368024 0.8579552574531063
18023506 -0.5189277223128992 0.8575823940358184
18027225 -0.5183108566582131 0.8582431081076631
18030944 -0.5190655790189596 0.8577538854659782
18034664 -0.5192288908896672 0.8587028708296968
18038383 -0.5178056069188635 0.8575427936333387
18042102 -0.5178043896214437 0.858989779043795
18045821 -0.5173963526226387 0.857581010986076
18049541 -0.5177462078389683 0.8587891834964422
18053260 -0.5175873927330867 0.8588663925017808
18056979 -0.5173658168722868 0.8590350682327274
18060699 -0.5174321970510591 0.8581525530913143
18064418 -0.5173137704219418 0.8590448021748847
18068137 -0.5165651132497795 0.8595305980220428
18071856 -0.5170303720498486 0.8596829238696236
18075576 -0.516383651699355 0.8595562320593949
18079295 -0.5175305068838298 0.860148843530278
18083014 -0.5160494660715931 0.859766829865615
18086734 -0.5163074213241918 0.8603647425371499
18090453 -0.5163836912753683 0.8600356122826915
18094172 -0.5162841010813203 0.8608861758273185
18097891 -0.515843259020981 0.860006153130898
18101611 -0.5161567879706581 0.8604716892784339
18105330 -0.5153297344578482 0.8606421816756249
18109049 -0.5156143020255085 0.8609656095881563
18112769 -0.5149973015698867 0.861094611501944
18116488 -0.5148134317545908 0.8616128651578248
18120207 -0.5149313137951624 0.8618344226334154
18123927 -0.5140518839267999 0.8616878665870396
18127646 -0.5136633792373861 0.8615999752479782
18131365 -0.5139498499886436 0.8618804290761503
18135084 -0.5136141716647106 0.861652329349604
18138804 -0.5138568510587272 0.8620811045148828
18142523 -0.5131373755276541 0.8613324674381658
18146242 -0.5130148116045874 0.8621763892531149
18149962 -0.5124927668215318 0.8613194142684439
18153681 -0.5125337075123916 0.8628132248323617
18157400 -0.5129213368521407 0.8619954894262322
18161119 -0.5131886719293075 0.861966873050912
18164839 -0.512088995315166 0.8625103830987205
18168558 -0.5119537792993377 0.8629012295298087
18172277 -0.5119635208653385 0.8627981605624561
18175997 -0.5119848402375612 0.8628342332436326
18179716 -0.5112095156571477 0.8625907723525408
18183435 -0.5108643742272435 0.8628609760352133
18187154 -0.5109084570198434 0.862794639974164
18190874 -0.5113223068317732 0.8632385848514907
18194593 -0.5103470453036684 0.8635082092587151
18198312 -0.5106184053138992 0.8634899074117572
18202032 -0.5098014600497253 0.8637051189188808
18205751 -0.5104790936614767 0.8636191775235824
18209470 -0.5106597377572416 0.863747137102188
18213189 -0.5098665652993937 0.8643773854710335
18216909 -0.5093735809751374 0.8646023609588681
18220628 -0.5093632628180431 0.8650571386423942
18224347 -0.5102027460861983 0.864254641869124
18228067 -0.5092037801742941 0.8639042353494552
18231786 -0.5099484375044927 0.8645634277087807
18235505 -0.5092118101852936 0.862977861613893
18239225 -0.509259613495819 0.8645267788794653
18242944 -0.5084881213245761 0.8642715887524803
18246663 -0.5092483411646063 0.8645793966003581
18250382 -0.5089955330792248 0.8639109961735165
18254102 -0.5082710314445382 0.8638550018225947
18257821 -0.5084709283378321 0.8649409149783605
18261540 -0.5079114771985506 0.8644856634689724
18265260 -0.5084243406504398 0.8648698269175938
18268979 -0.5079128104700276 0.8649268759129223
18272698 -0.5076221446446024 0.8651855960544785
18276417 -0.5076330625234885 0.8650637220080785
18280137 -0.5073579925689043 0.8652896525455539
18283856 -0.5066512443281354 0.8657786802430997
18287575 -0.5068877058116579 0.8652830487076854
18291295 -0.5065717782672687 0.866192651039621
18295014 -0.5056286246895919 0.8665203629894125
18298733 -0.5055525242293198 0.8667809454658404
18302452 -0.5059689791303011 0.8672094110805052
18306172 -0.5056179403062766 0.8669341220033013
18309891 -0.5058571310277129 0.8663905473466307
18313610 -0.5059179738636452 0.8658918644521248
18317330 -0.5057189924970137 0.866697406591301
18321049 -0.5044448293226023 0.8669812291202159
18324768 -0.505749806778413 0.8668721120128604
18328487 -0.5050974860814182 0.866893270977402
18332207 -0.5042438819136948 0.867682258314211
18335926 -0.5043289150219517 0.8672376043005955
18339645 -0.5042567819577978 0.8672089258554234
18343365 -0.5042194735545938 0.8674476536843494
18347084 -0.5033246374827737 0.866694686084667
18350803 -0.5034168533167241 0.8680017028955435
18354523 -0.5031669287888632 0.8679960710509075
18354523 -0.5041940207355968 0.8673377571457352
18358319 -0.5040089490603152 0.867981462931109
18362115 -0.5037747807903614 0.8682968821635703
18365911 -0.5032351607729195 0.8672992842469867
18369707 -0.5025328518830369 0.8673416499506635
18373504 -0.5026099458297217 0.8681437965644265
18377300 -0.5026466451485715 0.8687206172882171
18381096 -0.5018506375366147 0.8688062763376189
18384892 -0.501975374080715 0.8687513541726145
18388688 -0.5017803653217481 0.8690224641305987
18392485 -0.5014923161149595 0.8698747248270595
18396281 -0.5019759560177198 0.8696754184309341
18400077 -0.5025268098737093 0.8693390370594923
18403873 -0.5013715175903064 0.8686968048640946
18407669 -0.5013041291968913 0.8694940833022565
18411466 -0.5014600503061477 0.8691918016805759
18415262 -0.5011280355872237 0.8694418789703554
18419058 -0.5006922046894027 0.8696280649841613
18422854 -0.5013714050732501 0.8695452773813788
18426650 -0.4996022247037923 0.8697362052775033
18430447 -0.4998094182033133 0.8696833247909925
18434243 -0.49876221608455523 0.8706274663471135
18438039 -0.4984116832435653 0.8705704293578895
18441835 -0.49885015869281607 0.8707956849726354
18445632 -0.49933010526177435 0.8717565204326558
18449428 -0.4987979996757816 0.8710174421894477
18453224 -0.4994767588261841 0.87127048447619
18457020 -0.4993606968914451 0.8702266935187922
18460816 -0.4984201471293961 0.8706326722024536
18464613 -0.4989698619297416 0.8710348620828252
18468409 -0.49832605906978106 0.8711423105875413
18472205 -0.4974178675137446 0.8705584204056313
18476001 -0.4983429800869578 0.8706557742436226
18479797 -0.49856650404380726 0.870879366100505
18483594 -0.4975529546984769 0.870779052978023
18487390 -0.4965667964816317 0.8715746450707949
18491186 -0.4972075277111794 0.8715123548755431
18494982 -0.4964556397658417 0.8728295793731331
18498778 -0.4976447907526807 0.8728849315483631
18502575 -0.49716249762583714 0.8726548174659452
18506371 -0.49726118050631424 0.8731449332180042
18510167 -0.4962345255222443 0.8726342204095281
18513963 -0.49625276766182935 0.8717910427907543
18517760 -0.4967892697062219 0.8724136402026152
18521556 -0.4962252906484454 0.8715855051039698
18525352 -0.49640444186956656 0.8724766236194221
18529148 -0.4956355205808957 0.8722576360962617
18532944 -0.4951924154976809 0.8726893465580016
18536741 -0.4944755318473501 0.8732040518076645
18540537 -0.4940382194459791 0.8732461571502186
18544333 -0.4939513467925216 0.8737537280008592
18548129 -0.4937859990463283 0.8731190486321443
18551925 -0.49442216860965166 0.8736054943681946
18555722 -0.49396177589692297 0.8732901117967528
18559518 -0.49501300056625114 0.8735559625135438
18563314 -0.4938922440883149 0.8738892423135725
18567110 -0.4941440193498245 0.8739984221153677
18570906 -0.4929591228636161 0.8743333200266338
18574703 -0.49294865539806204 0.8741755688813273
18578499 -0.49300804405582394 0.8749648214769473
18582295 -0.4934501272477178 0.8743430282572472
18586091 -0.4932054933755824 0.8744244328475911
18589888 -0.49315639661457467 0.8744173628627443
18593684 -0.4926328370704531 0.8735149058892542
18597480 -0.4919136884935561 0.8740854578901739
18601276 -0.4913601826853099 0.8747010512046343
18605072 -0.4918147526877388 0.8745162635272524
18608869 -0.4920247404569247 0.8754610985262675
18612665 -0.4908724959482668 0.8749492934116315
18616461 -0.49063201075232865 0.8760346347741338
18620257 -0.49198552437578014 0.875200142506163
18624053 -0.49118426415713207 0.8752244679771468
18627850 -0.4905244384701577 0.875691314556808
18631646 -0.4902983133439162 0.875704336309478
18635442 -0.4909236454906646 0.8760872874548855
18639238 -0.4904880168641176 0.87589326437304
18643034 -0.4909635235276072 0.876057643636168
18646831 -0.4901401013056261 0.8756127076888452
18650627 -0.4894382276389873 0.8758966664974008
18654423 -0.48908107397788175 0.8756183897866258
18658219 -0.4885002912414338 0.8760110983179128
18662016 -0.48934244585632974 0.8757394531042699
18665812 -0.4893450458796143 0.8754985727847705
18669608 -0.4890141400508852 0.8764110438501226
18673404 -0.48886101399980075 0.8767702804380734
18677200 -0.4886926626250511 0.8766781541557284
18680997 -0.4892577373716643 0.8764540319122487
18684793 -0.4880326607776056 0.8771440150131289
18688589 -0.4880718972459837 0.8776992527579188
18692385 -0.48813306196799344 0.8775362735057415
18696181 -0.48783811819986195 0.8769822818193272
18699978 -0.48753590381051315 0.8774508192292503
18703774 -0.4875615186138955 0.8773501916507888
18707570 -0.48848997051854254 0.8770851094684755
18711366 -0.48767397127495626 0.8770165159041574
18715162 -0.4871206779430413 0.8773158167608365
18718959 -0.4864446694076561 0.876990371569234
18722755 -0.4870634706538918 0.8775275447403411
18726551 -0.4862687632187594 0.8768223184017436
18730347 -0.4860076209650528 0.8772945170152255
18734144 -0.48512944424247334 0.8780821872631
18734144 -0.4862338742702323 0.8783738517347136
18738018 -0.4854900245589425 0.8776380675089349
18741893 -0.4859342520162987 0.8776371019615701
18745768 -0.48584219844301474 0.878497390664855
18749642 -0.4841679623619882 0.8779021149603673
18753517 -0.48461764460493784 0.8783508508579729
18757392 -0.484475695221836 0.8796410406214388
18761267 -0.484195097325359 0.8796252787880969
18765141 -0.4851541059392632 0.8795158610498718
18769016 -0.48490078118439245 0.8793024347494771
18772891 -0.48354557548650545 0.8789623000140975
18776766 -0.48392290284625894 0.8791347980302255
18780640 -0.48298016243771114 0.8802422181066488
18784515 -0.4832876956489987 0.8805241849939777
18788390 -0.4835488923847347 0.8802811424445482
18792264 -0.48414064940588303 0.8795031008541275
18796139 -0.48345105728515186 0.8796368096278768
18800014 -0.48346098093855133 0.8797094525038825
18803889 -0.48255364196315903 0.8802259922864013
18807763 -0.48175107017827784 0.8807285889610423
18811638 -0.48223743094685306 0.8806988863340721
18815513 -0.48226108078119073 0.8807456636418359
18819388 -0.482360348885005 0.8804984987394111
18823262 -0.48285532204911347 0.8799900406161945
18827137 -0.4817336610781031 0.8802835614585356
18831012 -0.48112826216358007 0.8802217639423928
18834886 -0.4807791633037027 0.8813879116724143
18838761 -0.48093359865711227 0.8810484122662932
18842636 -0.4816115854953128 0.8803071372212493
18846511 -0.4808095871182998 0.8810094616945162
18850385 -0.4808392653285649 0.8810363125265317
18854260 -0.4802527069765139 0.8810894173922291
18858135 -0.47986866398258254 0.8814762283570245
18862010 -0.4803200972609866 0.8814222871956039
18865884 -0.48022258450728456 0.8816780769450454
18869759 -0.48052560361250324 0.8815016194149441
18873634 -0.48023713414259905 0.8809875677616829
18877509 -0.4787772710642081 0.8817089594730203
18881383 -0.4790374335700221 0.8825832748408488
18885258 -0.47769747086577363 0.8821616349227156
18889133 -0.47883637677010554 0.8822084926279384
18893007 -0.4787138566228119 0.8824695735734088
18896882 -0.47873935371887993 0.8825770338850527
18900757 -0.4784623192059836 0.8823665340400979
18904632 -0.47771292357154926 0.8829216615532536
18908506 -0.47774569209707146 0.8827714979457735
18912381 -0.47801771697061535 0.8820668019167301
18916256 -0.4782379825931716 0.8831386934364863
18920131 -0.47734344925141187 0.8832372008303185
18924005 -0.4764580815777886 0.8834294500697525
18927880 -0.47622946902200003 0.883914604625594
18931755 -0.47738361643064614 0.8841711537211586
18935629 -0.47682018518090263 0.8829242047189659
18939504 -0.47655951368743693 0.8840900405967145
18943379 -0.4756066637574428 0.883578336510523
18947254 -0.4758544374993933 0.8844762140223297
18951128 -0.47671616406857464 0.8838817720059835
18955003 -0.47693946497883516 0.8837541354733214
18958878 -0.4758970774660792 0.8828307140607912
18962753 -0.4765651941941148 0.8839242453703567
18966627 -0.474951566035263 0.8838024128529897
18970502 -0.4751598569324959 0.8846319685720316
18974377 -0.47493225240734865 0.8841141915278639
18978251 -0.4748853456636759 0.8848263612201261
18982126 -0.474403627987292 0.8838513989410156
18986001 -0.4743166867731778 0.8841254898900728
18989876 -0.473419839603858 0.8852704406847086
18993750 -0.47367763668083374 0.8855112330478555
18997625 -0.4738534590899598 0.8844844792133743
19001500 -0.4729594335264328 0.8845305619368458
19005375 -0.4738646468077137 0.8839076386667285
19009249 -0.4729091033900988 0.8848807181306293
19013124 -0.47213838976102995 0.8857336592206051
19016999 -0.4723706534649815 0.8857511852687557
19020874 -0.4716808703999043 0.8864322706609086
19024748 -0.4729121157340181 0.8857620818304486
19028623 -0.47208610375178645 0.8857508391421776
19032498 -0.47190023691771243 0.8851963045189428
19036372 -0.4714571265506198 0.8865521481843976
19040247 -0.47187073386134715 0.8862308645869861
19044122 -0.4716191607165868 0.8861505348754295
19047997 -0.4720626501552824 0.88534780305044
19051871 -0.4715018313941905 0.8857477352658333
19055746 -0.4716971410123448 0.8857481683433002
19059621 -0.47126863405224034 0.8866823354566163
19063496 -0.47136626686414795 0.8862454743263729
19067370 -0.4710411556828375 0.8864404607089097
19071245 -0.4704695677210068 0.8861601189915843
19075120 -0.4702808093662567 0.8858114403882077
19078994 -0.4698638679946634 0.8859876090336235
19082869 -0.46987581019087526 0.8872701743504386
19086744 -0.46941583485006594 0.8870786611121747
19090619 -0.469434170633826 0.8874363949635988
19094493 -0.4698521136368088 0.8867612795798967
19098368 -0.4698002992613602 0.8869045444010691
19102243 -0.4682656901947575 0.8867682543647889
19106118 -0.46830347748338386 0.8874695316098138
19109992 -0.46800817332404065 0.8887380518428704
19113867 -0.468675707680634 0.8881043318720987
19117742 -0.46860273280903914 0.8869795695389019
19121617 -0.4681868219671523 0.8874825593093827
19121617 -0.4688234633929398 0.8875340715417642
19125571 -0.46706537232632406 0.8880880975252625
19129526 -0.46799986259302856 0.8884413846061652
19133481 -0.4671896746064629 0.8877045141748477
19137436 -0.4677929862039772 0.8869417712888118
19141391 -0.4665442460515176 0.8879625514358375
19145346 -0.466805807039124 0.8886742805322841
19149301 -0.4670772100864146 0.8885418153935046
19153255 -0.4658423043123286 0.8883924626190607
19157210 -0.4659491151859165 0.8883671640794087
19161165 -0.4663391123717593 0.889240911958478
19165120 -0.4670869490805242 0.8889289436086982
19169075 -0.4658349384654179 0.8891141684863998
19173030 -0.4654463378816939 0.889083098173384
19176985 -0.46576535921500567 0.8892611195955754
19180940 -0.46524245819885096 0.8897909998523715
19184894 -0.4652281175003472 0.8897025134875636
19188849 -0.46563210006739536 0.8886382587165664
19192804 -0.4649347861605808 0.8890353499993531
19196759 -0.46423242619039046 0.8898737437517236
19200714 -0.46451336124109094 0.8895086552173785
19204669 -0.46509621021139347 0.8895506059233411
19208624 -0.4635340360333931 0.888971525009353
19212579 -0.4638132927441917 0.8910176070750396
19216533 -0.4643021322089388 0.8904084624650316
19220488 -0.4633944882960216 0.8901898732711634
19224443 -0.4630965946575485 0.8895180852104365
19228398 -0.46395806735223 0.8894366600583634
19232353 -0.46376486083406077 0.8907712901702582
19236308 -0.46185713841782666 0.8909668599364555
19240263 -0.4628040217284508 0.8902872699005651
19244217 -0.4626154226616032 0.8905175407898636
19248172 -0.46239910161613157 0.8919215187310646
19252127 -0.46220498498215695 0.8914956605311276
19256082 -0.46371309882860384 0.891159637887463
19260037 -0.46269662156089647 0.8909213625239554
19263992 -0.4613240956526113 0.8922253958354597
19267947 -0.46173470207996525 0.8920111489360893
19271902 -0.46159977822370574 0.8915067583622518
19275856 -0.45980685833353335 0.8907394787843813
19279811 -0.4614750300326074 0.8918906742219271
19283766 -0.46091285600001425 0.8915262440710361
19287721 -0.4601548839507466 0.891084139817529
19291676 -0.4595621542837637 0.8918728553109095
19295631 -0.4598341849311274 0.8922857089971002
19299586 -0.4594382123572024 0.8914279628526834
19303541 -0.457791779123705 0.8931512350690829
19307495 -0.45963313523946414 0.8927333386297708
19311450 -0.45994630187298424 0.8931748728209385
19315405 -0.45898207004501634 0.8925708087579106
19319360 -0.4583903210876638 0.8938348359892903
19323315 -0.45896903689298796 0.892890701139655
19327270 -0.4591976380244754 0.8934408446411404
19331225 -0.45913072859335413 0.8930646026605837
19335179 -0.45786433830121814 0.892650060400467
19339134 -0.45816443961033215 0.8921210282828537
19343089 -0.4582168031904048 0.8941274538745915
19347044 -0.45760553853787156 0.8929356451556709
19350999 -0.457625141492417 0.8935137747081313
19354954 -0.45669053381022506 0.8939825966284338
19358909 -0.45642706404639266 0.8936622355085581
19362864 -0.45679851979581676 0.8935952443600937
19366818 -0.4568357233525397 0.894621738241093
19370773 -0.4560108756074352 0.8944294719131277
19374728 -0.45666554835260686 0.8940555177539149
19378683 -0.45683131489718026 0.8940737013283762
19382638 -0.4569558210401938 0.8944054716934103
19386593 -0.4574683501275027 0.8944174065006495
19390548 -0.4552749795037391 0.8947511918663464
19394503 -0.4555274353598918 0.8948184059057281
19398457 -0.45527593231664554 0.8946486726132173
19402412 -0.45511212488746683 0.894743523959552
19406367 -0.4550447668416122 0.8955806661406586
19410322 -0.4551801777948154 0.893909705738828
19414277 -0.4555365405209406 0.8944733083765278
19418232 -0.4540125717814978 0.8949423525918868
19422187 -0.4539423350775635 0.8950009746284879
19426141 -0.45442406082614123 0.8944214672166292
19430096 -0.4530523377359718 0.8950037500876038
19434051 -0.45353507574711466 0.8950955529586659
19438006 -0.4531580185943471 0.895543724068571
19441961 -0.45276886459876003 0.8964119594643458
19445916 -0.4529084825431459 0.8961218611487745
19449871 -0.45324172492122505 0.8959215616850301
19453826 -0.4531852421117942 0.895757175562237
19457780 -0.45128947236064126 0.8965883947214968
19461735 -0.45242016069703245 0.8963602143097088
19465690 -0.45287156638185505 0.8969041026716872
19469645 -0.4516135988392442 0.896422112569621
19473600 -0.45135039777650376 0.897015831738257
19477555 -0.45174340595029744 0.8961302291152283
19481510 -0.45171081643849387 0.896336800783354
19485465 -0.4509804288458001 0.8963315341924806
19489419 -0.45189660490902 0.8972002141546156
19493374 -0.45033018156237364 0.8965057723031108
19497329 -0.4506200592041988 0.8971438636930866
19501284 -0.4502506002595628 0.8975866188628232
19505239 -0.4502389311899213 0.896865885698104
19509194 -0.44938240583545486 0.8978541056701718
19513149 -0.44926962713538426 0.8978172596538675
19517104 -0.44993421960035335 0.8972302789050973
19517104 -0.44924158611627946 0.8970448836806492
19521140 -0.449317669426819 0.8993186703740161
19525177 -0.45031236016465953 0.8970961555496176
19529213 -0.4481111460376474 0.8969119641556424
19533250 -0.44902924579398723 0.897673065538187
19537287 -0.44879920930154726 0.8976954606716556
19541323 -0.44729105790324913 0.8973450112389824
19545360 -0.4484099052811389 0.8983657404669614
19549397 -0.44865854675012695 0.8977159862431708
19553433 -0.4474566155217151 0.8978151024249467
19557470 -0.44798088743772974 0.8991824765101167
19561507 -0.4483681423723554 0.8978740917684918
19565543 -0.44805990994187944 0.8985755700309404
19569580 -0.44743137477573397 0.8995946426556203
19573617 -0.44782661881242253 0.8987890060534975
19577653 -0.44795643879941444 0.89842788198369
19581690 -0.44620544995592654 0.8988894079936842
19585727 -0.44611882598921493 0.8991254833557407
19589763 -0.44628094222851394 0.8995839101477664
19593800 -0.44526066430398825 0.8990652188006945
19597837 -0.4458058301555854 0.8996248938756642
19601873 -0.4460131255414529 0.9002318452953733
19605910 -0.44517230638891564 0.8994611096792565
19609947 -0.4453247873125112 0.9007825434611101
19613983 -0.4454582604855188 0.8991489340686937
19618020 -0.44537210022789925 0.8997382848278526
19622057 -0.44425444229807076 0.9005539884327097
19626093 -0.44518616384462806 0.8994157485423911
19630130 -0.4435805190209765 0.898977069424996
19634167 -0.4434287532094572 0.9010268298126554
19638203 -0.4440447472266683 0.9006347599050566
19642240 -0.44449110716946516 0.8999152832544651
19646277 -0.4430957866786546 0.901067161645402
19650313 -0.44311980193935013 0.9011716440897497
19654350 -0.44387044202440046 0.9005461265634602
19658387 -0.4425819608313112 0.9006475407514675
19662423 -0.4429908795392176 0.9010675156665655
19666460 -0.4431180828011999 0.9010434986534426
19670497 -0.4418938921057443 0.9000787884104358
19674533 -0.4415032482504197 0.901272303887111
19678570 -0.44274398162047823 0.901586096942632
19682607 -0.4415743692344874 0.9005582424585342
19686643 -0.4404104533574868 0.9018965289067751
19690680 -0.4413632128896188 0.9022463536258785
19694717 -0.44133955366859257 0.901612755625045
19698753 -0.4400415646845643 0.9017981855085057
19702790 -0.4402672001926393 0.901589373997998
19706827 -0.4399074477922699 0.9022175503457682
19710863 -0.4401519459116604 0.9026455440327493
19714900 -0.43972319052478626 0.90147585600563
19718937 -0.4392162172127325 0.9025709714189493
19722973 -0.4403614846585195 0.9027279649618202
19727010 -0.4395551203690523 0.9017834408843178
19731046 -0.4389352014673023 0.9024807104867163
19735083 -0.4392118578044098 0.9033488220284935
19739120 -0.43862306720057437 0.903180543000956
19743156 -0.43842600575716856 0.9024859545323639
19747193 -0.43877546290939656 0.9028179174599711
19751230 -0.4384869773468077 0.9032563711277727
19755266 -0.4371441114262847 0.9026356073839967
19759303 -0.4375257335943105 0.9029255100492718
19763340 -0.4367033186664982 0.9034761884902455
19767376 -0.43698345529834065 0.9035408468840989
19771413 -0.4375071248893677 0.9038516709084938
19775450 -0.4372979528331803 0.904179990880848
19779486 -0.43609846667108937 0.9036222913813371
19783523 -0.43685163539950095 0.9046489593030278
19787560 -0.43606861716037526 0.9039759529013236
19791596 -0.43598515275391236 0.9043801794860634
19795633 -0.4358737530608037 0.9029536992357373
19799670 -0.4355823863231846 0.9038699532501014
19803706 -0.4350792280596569 0.9042148498111614
19807743 -0.4344420816815822 0.9047814365841464
19811780 -0.43504977920970056 0.9044368079738192
19815816 -0.4343937685117781 0.9041958886341998
19819853 -0.43414966688157264 0.9051477104031358
19823890 -0.43395722879811377 0.9049527220825777
19827926 -0.43366551343662 0.9055274803773146
19831963 -0.43491000555464954 0.9046221889131599
19836000 -0.43405383047105084 0.9045241999734753
19840036 -0.43349375493092424 0.9049668057342221
19844073 -0.433088519976444 0.9049265393751367
19848110 -0.4330510788943605 0.9052622185384195
19852146 -0.43185118271993983 0.9056902087078224
19856183 -0.43242598728774334 0.9051851891807202
19860220 -0.4320273205779009 0.9056489326452596
19864256 -0.43166042428330365 0.9058280018883392
19868293 -0.43112908895441343 0.9063670522164607
19872330 -0.4320250483865234 0.9058981942519924
19876366 -0.4310606759275753 0.9062676723880523
19880403 -0.4307759834835435 0.9068282196709192
19884440 -0.4313173416759193 0.9062412862990971
19888476 -0.4310132706647632 0.9060051621302303
19892513 -0.4305415166834524 0.9058736942395536
19896550 -0.4306961669218385 0.905861453577679
19900586 -0.4296820309409172 0.905549347568653
19904623 -0.4293761685708606 0.9074106569649691
19908660 -0.4290822217473739 0.906691937603521
19912696 -0.42838877737880876 0.9069209487816682
19916733 -0.428526850204042 0.9074063846434524
19920770 -0.42905042194896637 0.9064314468724235
19920770 -0.4287106368205244 0.9067413286947487
19924890 -0.4280551876269626 0.9074469834946237
19929010 -0.4285965991886171 0.9067863173721169
19933130 -0.4278593509835913 0.9069592581003285
19937250 -0.4281756116216044 0.9070734770290364
19941370 -0.42803002342960617 0.9065335520341432
19945490 -0.4273772559032353 0.9083569813871538
19949611 -0.42682518761792754 0.9070542502762348
19953731 -0.4267699359925284 0.9075394614823458
19957851 -0.4268194066616889 0.9074984788845674
19961971 -0.4267197563570635 0.9076206567552264
19966091 -0.42648428894165374 0.9076230385951295
19970211 -0.425262661236952 0.9081354514784031
19974332 -0.42659208487193034 0.9084308025934363
19978452 -0.4238967264157263 0.9080552077775642
19982572 -0.42632319796711854 0.9074613577580392
19986692 -0.42423831494968234 0.907667525258797
19990812 -0.4251702623079614 0.9082079132242684
19994932 -0.42462678434975376 0.9089923556549143
19999053 -0.42415158060923874 0.9092563803893418
20003173 -0.4244224389476806 0.9079862033701815
20007293 -0.42273258683636317 0.9084150388053737
20011413 -0.4248607251462854 0.9089134242438521
20015533 -0.42291607804741405 0.9086598555858749
20019653 -0.42311586278986263 0.9088662599197642
20023774 -0.4229300629393998 0.9086743930249042
20027894 -0.4226293113572016 0.9091476929335403
20032014 -0.4222487663641971 0.9089256910864464
20036134 -0.4215480024088758 0.9096441173654424
20040254 -0.4231586062968628 0.909221806940725
20044374 -0.4204814323132135 0.9093215519624843
20048494 -0.42283946858638305 0.909096301779147
20052615 -0.42086347185864725 0.9094741113591996
20056735 -0.4205962978671943 0.9095491567150853
20060855 -0.42202236819629946 0.9098139801874103
20064975 -0.42020992699910986 0.9093389066969058
20069095 -0.42124708349556894 0.9096718494072308
20073215 -0.4197361405428953 0.9093350522656708
20077336 -0.42036774028453633 0.9103610407922195
20081456 -0.41887964217486834 0.9099320182751641
20085576 -0.41894524274508815 0.9103193678077272
20089696 -0.41977974187763295 0.9094062015349628
20093816 -0.41874313458966445 0.9109332934955564
20097936 -0.41986057939836524 0.9107231877438285
20102057 -0.4177073774336248 0.9095507779869363
20106177 -0.41890298224718636 0.9097844607276264
20110297 -0.41822705648003067 0.9097628152989353
20114417 -0.41738522076668366 0.9105071769781032
20118537 -0.4178339743343864 0.9095006028777797
20122657 -0.4167784586317747 0.9102696234234321
20126778 -0.41681253304522203 0.9114387056937671
20130898 -0.4166503657446125 0.9104241298863784
20135018 -0.4165835931054747 0.9114768613597689
20139138 -0.4165188589649202 0.9106712666070542
20143258 -0.4160748072570745 0.9109159462927461
20147378 -0.4151484594716198 0.9109284303669689
20151498 -0.41638157540202136 0.9111645680801647
20155619 -0.4157295791167494 0.9110173139550257
20159739 -0.4155315715930515 0.9113305579933003
20163859 -0.4150811201331527 0.9112285870820337
20167979 -0.4136963096529998 0.9115745866933733
20172099 -0.4152302684126798 0.9103809659034287
20176219 -0.4140426249933826 0.9120836130346363
20180340 -0.41432065234552323 0.9122523310903834
20184460 -0.4136739689075091 0.9119721274108995
20188580 -0.41351430307093423 0.9118305687315218
20192700 -0.41362378682532563 0.9124823387546108
20196820 -0.4135063882141613 0.9116491435788119
20200940 -0.41371774922301513 0.912292000859291
20205061 -0.4127025593063219 0.9116091399578704
20209181 -0.4123069954440899 0.9122889727902502
20213301 -0.41250585294146513 0.9120526061108966
20217421 -0.4115947718685722 0.9127226100338984
20221541 -0.4126192548090171 0.9135299057026341
20225661 -0.4111459078370476 0.9123131289775223
20229782 -0.41175646883122313 0.9124231098726516
20233902 -0.41086236610509824 0.9127712020374009
20238022 -0.4113420395770223 0.9124788226997413
20242142 -0.4097645172775934 0.9124062904651105
20246262 -0.4111264085010597 0.9132157494181572
20250382 -0.41108779040728155 0.9123229977977523
20254502 -0.4103544912828469 0.9135600737422706
20258623 -0.4098236451001326 0.913216015832353
20262743 -0.40916284047183155 0.9140428852773003
20266863 -0.40946989628810765 0.9125532912502611
20270983 -0.40984412411897314 0.9134056086150765
20275103 -0.40921982911733407 0.9125448098642267
20279223 -0.4087092973868355 0.9137187604817756
20283344 -0.40851861169234416 0.9133039258360593
20287464 -0.4066407444138568 0.9134188256920308
20291584 -0.4081951502510475 0.9133721563559973
20295704 -0.4080794696674205 0.9143754294898919
20299824 -0.40817953607501245 0.9133271796048298
20303944 -0.40787279905193113 0.9145779542077405
20308065 -0.40664063360890695 0.9138140742057994
20312185 -0.4075368007790017 0.9153484320767618
20316305 -0.40658030052679256 0.9140616816986974
20320425 -0.40687995864168913 0.9149050412437771
20324545 -0.4067059881844433 0.9137222824637848
20328665 -0.4056163329352552 0.9145495728617047
20332786 -0.4063340090698779 0.9137347307751478
20332786 -0.40621753161569213 0.9135744701187567
20336991 -0.4056783663357699 0.9151316690889454
20341196 -0.4056604268146661 0.9145904783155883
20345402 -0.40494292713472035 0.915436339409725
20349607 -0.40560582981449805 0.9140847654944285
20353812 -0.404472158843558 0.9151397331592503
20358018 -0.4045475214884902 0.9139822068805008
20362223 -0.4035840631344298 0.9152743671229586
20366428 -0.40348564955591676 0.9144218855170155
20370634 -0.4037131131908447 0.916012834961471
20374839 -0.4035050160050183 0.9152949799302051
20379045 -0.4034986808158382 0.9154476928630054
20383250 -0.4035374593264538 0.913924203199752
20387455 -0.40266322869326 0.9156319150280666
20391661 -0.4024085158993315 0.9151050101338061
20395866 -0.40212377753779804 0.9160701523559475
20400071 -0.4022636358755705 0.9155642033207906
20404277 -0.40232541487250084 0.916082029583399
20408482 -0.4016252250304611 0.9154826141440577
20412688 -0.401889066133475 0.9159512314997776
20416893 -0.40091462528516203 0.9159941731699012
20421098 -0.401620147103952 0.915610696102797
20425304 -0.4000446950823727 0.9168851519260705
20429509 -0.4005998126053309 0.9161515401349141
20433714 -0.40057111411900764 0.9159802978937941
20437920 -0.4011217095857246 0.9162294310098655
20442125 -0.4001007580696584 0.9167430531162646
20446330 -0.4006027156041696 0.9161967232117411
20450536 -0.39879832637258866 0.9162588314978946
20454741 -0.3990688913498853 0.9164086132364746
20458947 -0.39791570449656155 0.9163106449466156
20463152 -0.39847482317412725 0.9167796757514215
20467357 -0.39751772550589604 0.9172700178249292
20471563 -0.3987719473084573 0.9167004362015613
20475768 -0.39817423672610014 0.9170493360605216
20479973 -0.3983707036530282 0.9168202146842774
20484179 -0.3970986572916854 0.9174188826546475
20488384 -0.39725302128874124 0.9170224514298186
20492590 -0.3962104173139502 0.9164471464664832
20496795 -0.3968807156971102 0.9173190026661202
20501000 -0.39647371497595935 0.9178306805388085
20505206 -0.39700149306243476 0.9171661998854577
20509411 -0.39586416772015237 0.9173762071452414
20513616 -0.3961179933276254 0.9174944827191545
20517822 -0.3952322330318334 0.9184468872965232
20522027 -0.39582427452233915 0.9169239788601049
20526233 -0.39478700173674475 0.9180069717094721
20530438 -0.39520194615550486 0.9172539846830279
20534643 -0.39420074146214984 0.9181813522842218
20538849 -0.3953578632493993 0.9187857537839594
20543054 -0.3942576125838087 0.9179587961365695
20547259 -0.3939061766281747 0.917597179210601
20551465 -0.3939570353353529 0.9189243143435344
20555670 -0.3927966150123076 0.9187206903926931
20559875 -0.3935364707026013 0.9187498442841793
20564081 -0.3934360949778142 0.9184280251025164
20568286 -0.39250970432673105 0.9194618618159112
20572492 -0.39293208612534375 0.918866929854956
20576697 -0.3925464178787113 0.9187072978053864
20580902 -0.392165177061235 0.9186508515639328
20585108 -0.39236115005813094 0.9195833450355018
20589313 -0.39191181501167677 0.919599445065446
20593518 -0.3912630362625599 0.919701690830753
20597724 -0.390980780569608 0.9188443952200833
20601929 -0.3913080732844977 0.9192148462369932
20606135 -0.3904244072258732 0.9189779738016167
20610340 -0.390808041477054 0.9190923216199397
20614545 -0.38982359607602063 0.9188667760428865
20618751 -0.3901787849956862 0.9187632184507246
20622956 -0.38941255567128763 0.9194582479222464
20627161 -0.38953423155419054 0.9196101754390495
20631367 -0.3892804260469821 0.9194703660641352
20635572 -0.38908158296572076 0.9193075400067153
20639778 -0.3899648467278841 0.9196446030439928
20643983 -0.3885990057061197 0.9198996592078043
20648188 -0.3889527071171383 0.9196973547652907
20652394 -0.3892464909088089 0.9200959465153603
20656599 -0.3875773294695138 0.9198183927489781
20660804 -0.38744665893887287 0.9205785112501566
20665010 -0.38725948176252234 0.919476195320921
20669215 -0.38725485388946884 0.9201254792702724
20673420 -0.3876060317698624 0.9199623328481469
20677626 -0.385840314649277 0.9206640549215095
20681831 -0.3864590084999258 0.9204230882581039
20686037 -0.3867967496773761 0.9203303043878401
20690242 -0.3860523683047002 0.9206202818365791
20694447 -0.38625872857970844 0.9203232968919186
20698653 -0.38582569073948064 0.920954083920099
20702858 -0.38514371511369466 0.9200060463181087
20707063 -0.38512963495682595 0.9210502098094941
20711269 -0.3842966105168413 0.9210009931709927
20715474 -0.3845247595883495 0.9209248266132529
20719680 -0.38535478458713013 0.9199963084398959
20723885 -0.38423775847664615 0.9208237719621016
20728090 -0.38393819087513487 0.9213146454541026
20732296 -0.38334086785310456 0.9211182122085537
20736501 -0.3839634858024848 0.9218096945065932
20740706 -0.3835034247781198 0.9220164963413826
20744912 -0.3832528610579273 0.921226199013453
20749117 -0.38318045019555447 0.9214095236133527
20753323 -0.38320939542218796 0.9210493594777431
20753323 -0.38320890702227994 0.9211519726750306
20757615 -0.3823843298347886 0.9213607273418367
20761907 -0.38269947540670113 0.9215820102278749
20766200 -0.3814051338551251 0.9212442186646846
20770492 -0.38159996673169444 0.9218732581589879
20774784 -0.381602183560377 0.9218657503053626
20779077 -0.381422850018645 0.9223969077719806
20783369 -0.3811159481490646 0.9215555329473265
20787661 -0.3812617962562661 0.9219551800392837
20791954 -0.3794912408725803 0.9212838645591149
20796246 -0.38046657333065526 0.9224462223985117
20800538 -0.37988029199087436 0.9223793416774807
20804831 -0.3794665319389607 0.9219358267048355
20809123 -0.3792706350973163 0.9226358600593808
20813415 -0.3791335102447305 0.9219244355241403
20817708 -0.37868797939963145 0.9225912303893024
20822000 -0.3782568652901478 0.922490039800708
20826292 -0.37842710297512366 0.9221425061087323
20830585 -0.37752002613870184 0.9224695263039148
20834877 -0.3785419699451897 0.9227857322769045
20839170 -0.3780362948659651 0.9225014742498864
20843462 -0.3773719579261299 0.922800800745113
20847754 -0.37706520829663137 0.9219621649817291
20852047 -0.37614258692536556 0.9225651151134017
20856339 -0.3768240015428621 0.922608909450914
20860631 -0.3765196835018735 0.9233908467807735
20864924 -0.3765823606033893 0.9234679983713087
20869216 -0.3763393816831783 0.9230684086938599
20873508 -0.3754452436302459 0.9227761756093615
20877801 -0.3754976967153116 0.9220760858188741
20882093 -0.3751369999245425 0.9231423462644677
20886385 -0.37453312113971354 0.9232591159877777
20890678 -0.37499465626623696 0.9232072674718712
20894970 -0.3751708556110219 0.9238831187642362
20899262 -0.37445652721537687 0.9239033576235195
20903555 -0.37394456347682936 0.923177857964377
20907847 -0.3733974246394206 0.9230550283450728
20912139 -0.372782470461447 0.92345130259183
20916432 -0.37248561286094434 0.9235146811274639
20920724 -0.37280229860184966 0.9238844122600756
20925017 -0.37331808883561685 0.9245423619441007
20929309 -0.3727514559869104 0.9234229876140011
20933601 -0.3718005338296508 0.9239311703025346
20937894 -0.37176456000847274 0.9233759055198003
20942186 -0.3718488277037701 0.9242729045096301
20946478 -0.37181149582056555 0.9248647828898178
20950771 -0.3704599876441458 0.9243725979837507
20955063 -0.3714590534700852 0.9234528722201761
20959355 -0.37091027901160584 0.9241811877373859
20963648 -0.3704110697838077 0.9233063466210799
20967940 -0.37077590155720114 0.92468078383624
20972232 -0.3686850289355774 0.9240715960284698
20976525 -0.36956247137925796 0.924061654314073
20980817 -0.3688920570002378 0.9253227776554609
20985109 -0.36896198060024976 0.9239854545303148
20989402 -0.3697908752445505 0.9241847910295294
20993694 -0.3679840110505347 0.9237697987464295
20997986 -0.36855165768288145 0.9234035312624672
21002279 -0.3675394919831125 0.9255300063001287
21006571 -0.36738002709305545 0.9243904944876721
21010864 -0.3688374777365677 0.9241486103306604
21015156 -0.36727184334362245 0.9244548637021541
21019448 -0.36718474124578815 0.923775405689816
21023741 -0.36662405979315027 0.9249106224043948
21028033 -0.36584463953884494 0.9244843221100509
21032325 -0.3660614827836723 0.9254041592778609
21036618 -0.36590854841981924 0.9253014454156054
21040910 -0.366165895589534 0.9242564614739212
21045202 -0.36577782427343886 0.9248756693134507
21049495 -0.3645872222609994 0.9239958914908492
21053787 -0.36580530340552014 0.9251117583797207
21058079 -0.36368351806985316 0.9251591218942739
21062372 -0.3633931304598929 0.924238226733466
21066664 -0.3647501750144631 0.9255782260159949
21070956 -0.36438712799624995 0.9249064587267294
21075249 -0.3650862831777809 0.9247117826573529
21079541 -0.3637437395996838 0.9249944479121812
21083833 -0.3623071727355294 0.9245165998089964
21088126 -0.363849793674327 0.9255329881583497
21092418 -0.3626536311699665 0.9254338871970612
21096711 -0.3630758435605491 0.9251908451996698
21101003 -0.3632410983044604 0.9254112088344558
21105295 -0.3619230436362618 0.9250014111147319
21109588 -0.3613715705831913 0.925091449285253
21113880 -0.36158270392948066 0.9260335356405711
21118172 -0.36096154224017196 0.9251200580651532
21122465 -0.36131322866969195 0.9251677751821091
21126757 -0.36097085633940285 0.9250332642552279
21131049 -0.36073095895971813 0.9255804334209039
21135342 -0.3603101591071932 0.9254828287024278
21139634 -0.3591751830283244 0.9253987515757783
21143926 -0.3601071581460364 0.9249429559849769
21148219 -0.35853952097893005 0.9253677497685812
21152511 -0.35948052062294533 0.925138521854331
21156803 -0.3596105828394067 0.9248626043047921
21161096 -0.3586641429019984 0.9252832714142329
21165388 -0.3584794098180888 0.9244571308962884
21169680 -0.3573323483471524 0.9255721507347701
21173973 -0.35748013487540853 0.9251438386581646
21178265 -0.35772066942826386 0.9256620994322762
21182558 -0.3565934638971943 0.9252974996926929
21182558 -0.35704392842885685 0.9251185517358766
21186939 -0.3572435607602484 0.9258584711111139
21191320 -0.3567289692744914 0.9256826177285022
21195701 -0.35560372206932356 0.9257966147799433
21200082 -0.35635358901024106 0.9249520549241099
21204463 -0.3558957924883807 0.9248793692951038
21208844 -0.3568387693165301 0.9261635458707367
21213225 -0.3547577616074336 0.9251177639257235
21217606 -0.35386461820655407 0.924843004055463
21221988 -0.3551724455939094 0.9252619075917196
21226369 -0.35459464073559316 0.9257229702029123
21230750 -0.35374307761876683 0.9254523903624833
21235131 -0.3540759632006533 0.924932660367905
21239512 -0.35416590488644983 0.924645022888127
21243893 -0.35415699409143453 0.924921698009267
21248274 -0.3531927886048025 0.9257604025079265
21252655 -0.3523291646257789 0.9259564558201563
21257037 -0.35379840244942995 0.9248654029460884
21261418 -0.353593872181632 0.9248197426732553
21265799 -0.3529804110126593 0.924760875550106
21270180 -0.3515257694259403 0.925132897869446
21274561 -0.3508397357823695 0.9252043578215239
21278942 -0.3520384038617841 0.925287524512957
21283323 -0.35083712136911965 0.9263763567027251
21287704 -0.35182279780374953 0.9244241561953825
21292086 -0.3512257611407839 0.924215451533771
21296467 -0.3505489529673922 0.9253911442255843
21300848 -0.3500061074912082 0.925292161189539
21305229 -0.34982883397862274 0.9253863580011424
21309610 -0.34962843618246325 0.924331272534769
21313991 -0.3503338069069419 0.9248404485087663
21318372 -0.3496562745840436 0.9246378932778272
21322753 -0.3482379843801554 0.9249642060456469
21327134 -0.34817686702832906 0.9245205805732878
21331516 -0.34924843348810686 0.9255255914089265
21335897 -0.34853064798260563 0.9260048826496402
21340278 -0.3485922351775348 0.9247762522229395
21344659 -0.3477740948250056 0.9238044379204428
21349040 -0.3478508486987458 0.9244692995842649
21353421 -0.3479516042541158 0.9250348858659323
21357802 -0.3469556711521217 0.9250202830284211
21362183 -0.346940868252389 0.9240143059710987
21366565 -0.34665921279691814 0.9232808711816168
21370946 -0.34631680236207335 0.9241597698921576
21375327 -0.34561740601911956 0.9247355242345495
21379708 -0.34555661690029327 0.924464016933344
21384089 -0.34613253086760665 0.9234600509470864
21388470 -0.3459182141369227 0.9247028935051612
21392851 -0.34558924036767596 0.9241679568640145
21397232 -0.34505152951997226 0.9234586961707578
21401614 -0.3454022194899165 0.9234037140897325
21405995 -0.34432771442605514 0.9238576194287129
21410376 -0.344909044008165 0.9236170176634121
21414757 -0.34468355126287187 0.9229606594597375
21419138 -0.34401554108668525 0.9239204207632565
21423519 -0.3434459438535608 0.9238798133603118
21427900 -0.34425355949177594 0.9233078728068435
21432281 -0.3438140618276159 0.9245119116145564
21436662 -0.34301754184272715 0.9233572996542697
21441044 -0.3430936398952042 0.9228562584930371
21445425 -0.3432809037658473 0.9231471954339051
21449806 -0.3430157508931 0.9236313691779153
21454187 -0.3427190094791916 0.9227054708266673
21458568 -0.3439405260670213 0.9223942919683041
21462949 -0.34260145827295907 0.9229292015349152
21467330 -0.3411429328335429 0.9226577864331815
21471711 -0.3418803714724661 0.9228151311440793
21476093 -0.34222113391659953 0.9234517999093094
21480474 -0.341229757055707 0.9220162799226518
21484855 -0.3411114743288107 0.9212250180026927
21489236 -0.34170932968076095 0.9229945438946717
21493617 -0.3412069750824548 0.9234183467230423
21497998 -0.340826095162166 0.9226979319092886
21502379 -0.3412469656050483 0.9215914445338501
21506760 -0.3402582652677732 0.9225244887155076
21511142 -0.3402017090946971 0.9222469785617718
21515523 -0.34011152911880316 0.9218109463847561
21519904 -0.34044583533001527 0.9222538482563234
21524285 -0.33949970355846365 0.9215375547484783
21528666 -0.3392965835485711 0.9214350358420518
21533047 -0.33971244755540386 0.9217249906480559
21537428 -0.33987147748740726 0.9218744227154364
21541809 -0.33951116518167634 0.9218686346799728
21546190 -0.3395315981578534 0.9207441043850325
21550572 -0.339625494672801 0.9211424956904146
21554953 -0.3386152674471149 0.9219044298913378
21559334 -0.33918231871454557 0.9206593829973105
21563715 -0.33927683380837254 0.9208167160074948
21568096 -0.33812854915880736 0.9211263288828737
21572477 -0.33868236326268636 0.9204840514406089
21576858 -0.3383748684333655 0.9203450604282721
21581239 -0.33795847079451363 0.9213219936394101
21585621 -0.33760938044627403 0.9204430800537775
21590002 -0.33809499201839416 0.9204535782650345
21594383 -0.3387072902819045 0.9210373673938245
21598764 -0.3380472140552803 0.9203480304782776
21603145 -0.33737862328194285 0.9203365191166873
21607526 -0.33777228463092995 0.9205007082833873
21611907 -0.3382067488003145 0.9207294026406764
21616288 -0.3378960506348614 0.9200973894874372
21620670 -0.337977654756731 0.9196923833977216
21620670 -0.3377329304342347 0.9203778634056049
21625141 -0.33690497400439445 0.9199995469588265
21629613 -0.3375526437540643 0.9202772328099353
21634085 -0.33705051846148926 0.9196294857676478
21638556 -0.33770898056518955 0.9201679433878269
21643028 -0.3369019438134724 0.9203076467669025
21647500 -0.3373798493625038 0.9199348157486992
21651972 -0.3371453538156209 0.9197857538687386
21656443 -0.33724664112915076 0.9197763971272183
21660915 -0.33808450718863137 0.9196136476092344
21665387 -0.33668210805876486 0.9198263573705424
21669859 -0.3366191395733905 0.9199522390723168
21674330 -0.33703231327584027 0.9198072471014993
21678802 -0.33723273770876144 0.9201157059640183
21683274 -0.3371554797300042 0.9197088048284043
21687746 -0.3369731515075373 0.9196739482239897
21692217 -0.3369846228254574 0.9196798229061085
21696689 -0.336753616118212 0.9197005538490675
21701161 -0.337168957416363 0.9203506894422077
21705633 -0.3361562103595157 0.9200068455148581
21710104 -0.33616794721715826 0.9201815543204749
21714576 -0.33642395178959444 0.9192570670586623
21719048 -0.33661626933835215 0.9196787180236261
21723520 -0.33638418865687514 0.9199177683271662
21727991 -0.33569519301839384 0.9201252844672521
21732463 -0.33633793822000246 0.9205230309904663
21736935 -0.3356240172507575 0.9203458990301269
21741406 -0.3361620518829937 0.9206038117740722
21745878 -0.3369138429571318 0.9201495425960491
21750350 -0.33664468840141176 0.9197737682579983
21754822 -0.33623247594677924 0.9199660457350817
21759293 -0.33566774175956565 0.9193199845035388
21763765 -0.3354827023614139 0.9209025934789542
21768237 -0.33571485468430906 0.9212420146629952
21772709 -0.3371672026375629 0.9203688577419074
21777180 -0.3357723558905659 0.9203586308524042
21781652 -0.33499111764135503 0.9206762544320403
21786124 -0.3363724842311404 0.9209841556241611
21790596 -0.3361793832285595 0.9212788968731395
21795067 -0.33621923849168694 0.9209239299863988
21799539 -0.33561443352350434 0.920537054209667
21804011 -0.33549780721642475 0.9208686525198392
21808483 -0.335070354979392 0.9211179429271774
21812954 -0.3358897084821773 0.9213417452151242
21817426 -0.33501709895636167 0.9206757638328507
21821898 -0.3359169771321988 0.9209873785592493
21826370 -0.3353179155013337 0.9218804305428148
21830841 -0.3359547908483668 0.9214827069534829
21835313 -0.3352533838359068 0.922223758123081
21839785 -0.33493815459777704 0.9210201696682796
21844257 -0.33546537372281837 0.922336069471929
21848728 -0.33472509299004943 0.9214858063016576
21853200 -0.33468484747216976 0.9225824061912772
21857672 -0.33449069427743905 0.9225960049075244
21862143 -0.3348230409110667 0.9221825930531997
21866615 -0.335551134854699 0.922322607804087
21871087 -0.3349567295833931 0.9227128897306277
21875559 -0.3337649770346812 0.9229011654189795
21880030 -0.3341296276755552 0.9222401333690032
21884502 -0.334638728474344 0.9230112724829008
21888974 -0.3347399616363283 0.9229576317630312
21893446 -0.3338254168856909 0.9234269985237182
21897917 -0.3339806165872264 0.9236625133850086
21902389 -0.3335076042683853 0.9236402385517789
21906861 -0.334583575398454 0.9246673724212655
21911333 -0.3344489268812667 0.9234867338929115
21915804 -0.3329919940346954 0.924389005602087
21920276 -0.3337092282953801 0.9230491919615967
21924748 -0.3336919367901355 0.9246753186667431
21929220 -0.33314152680108927 0.9245251033433423
21933691 -0.33340681133995215 0.9250703713160499
21938163 -0.33345821187742797 0.9240738705976794
21942635 -0.3340050668749661 0.9246503454264385
21947107 -0.33278919010468083 0.9248412883300049
21951578 -0.33260827945142374 0.9256854198343117
21956050 -0.33287005912270656 0.9251173300841646
21960522 -0.33234641573383206 0.9247804429680998
21964993 -0.3329944967285293 0.9264053746356671
21969465 -0.3316200883182403 0.9259913049718044
21973937 -0.3316842773103201 0.9263210863408932
21978409 -0.3321350667105489 0.925529837854092
21982880 -0.33278126274092124 0.9258139307033211
21987352 -0.33270868762968603 0.926049447694787
21991824 -0.3310705269550653 0.9267021201952066
21996296 -0.3313707858388722 0.9273242772651903
22000767 -0.3313155329283353 0.926363933548152
22005239 -0.33195710410674395 0.926873176027919
22009711 -0.3316916052304751 0.9273855785895937
22014183 -0.33047538299606255 0.9265627245158564
22018654 -0.33058500904990773 0.9275283860728692
22023126 -0.3305469201164433 0.9279405772020607
22027598 -0.33123191281749326 0.9282246826818014
22032070 -0.3298130611983974 0.9282371550937084
22036541 -0.3294410126220253 0.9279935460823777
22041013 -0.3296200669577266 0.9278091612133216
22045485 -0.3303348118658054 0.9287884582239706
22049957 -0.32998921863678476 0.9288377776086901
22054428 -0.3302447797811781 0.9282336695961069
22058900 -0.3291640993665385 0.9281018521138856
22063372 -0.3293447007386126 0.9293891150146694
22067844 -0.32979390603362 0.9293661514366246
22067844 -0.32926179971871783 0.9291941485826694
22072408 -0.3291974393629048 0.929175910553002
22076972 -0.32909277937047055 0.9291282400871691
22081536 -0.32917984811252043 0.9301832739695994
22086100 -0.3282503751832127 0.9292017473073438
22090665 -0.3285118898020906 0.9304245229291233
22095229 -0.32775819030535003 0.9307635895528246
22099793 -0.3276735502854202 0.9297827323452831
22104357 -0.3275200284534598 0.930600154249928
22108922 -0.32724364033454084 0.9305306602659307
22113486 -0.3273564105892083 0.9304210593235573
22118050 -0.3270476892690112 0.9309216582553156
22122614 -0.3276151846436037 0.9310989850999
22127178 -0.3268736094272315 0.9310393163611295
22131743 -0.32694820602596714 0.931234821424488
22136307 -0.32743482565344484 0.9315923432577798
22140871 -0.3262565648754901 0.9316089123594016
22145435 -0.32560339670344773 0.9310014413684479
22150000 -0.32497021876007265 0.9325080204160442
22154564 -0.32533825403900574 0.9323720511923239
22159128 -0.32594426589780073 0.9323052671057391
22163692 -0.3257735289318808 0.9319922773839583
22168257 -0.32505381160584546 0.931802330594484
22172821 -0.3249791814381633 0.9326452107388066
22177385 -0.32534300218417106 0.9322474038190021
22181949 -0.3252312011672048 0.9331952880914094
22186513 -0.32357090107663133 0.9331214791675081
22191078 -0.32432845066505706 0.9329765009266544
22195642 -0.3236591706971458 0.9340630469479017
22200206 -0.3233644143922135 0.933684997856642
22204770 -0.3230761234885067 0.9331998276052391
22209335 -0.3227035740261835 0.933710990640716
22213899 -0.3224369504476734 0.9341006110244172
22218463 -0.3226460442289861 0.9340815791346027
22223027 -0.3218539035764418 0.934260717013255
22227592 -0.32148794199708514 0.933841385954373
22232156 -0.32205298621139555 0.9338696171379872
22236720 -0.3215513523329209 0.9349751208023678
22241284 -0.3216950186313346 0.9347007396404784
22245848 -0.32193006625581216 0.9340211906532434
22250413 -0.32203812835657786 0.935157058312058
22254977 -0.3205398162841893 0.9351009420942633
22259541 -0.32057465154042497 0.9353788817271468
22264105 -0.3214776490210626 0.9350969252066027
22268670 -0.3208507617302422 0.9350626685077813
22273234 -0.3201500341583092 0.9355196453230743
22277798 -0.3201673424963891 0.9366620187628847
22282362 -0.3203265030207294 0.9358748152361571
22286927 -0.3195942034486993 0.9364150092731789
22291491 -0.3187147319173091 0.9364886513638395
22296055 -0.3181842682220848 0.9370996601388991
22300619 -0.31880398350824035 0.9362500873287365
22305183 -0.3189078657030253 0.9361030456886311
22309748 -0.31903896081628963 0.9368056888116345
22314312 -0.3175005494111711 0.937193345478982
22318876 -0.3179089011139727 0.937652376364853
22323440 -0.3172199385610899 0.9375560341813864
22328005 -0.31653773514382033 0.9371710777616807
22332569 -0.31635137316930617 0.937951835188471
22337133 -0.316094355282055 0.937343571247599
22341697 -0.31648423116460966 0.9377157367599879
22346262 -0.31626101506985416 0.937539581305437
22350826 -0.31644659875142 0.9376601240614159
22355390 -0.31556829304874656 0.9373539655636347
22359954 -0.31530162556095853 0.9381272511143405
22364518 -0.3146159530910348 0.9372295665650751
22369083 -0.31533963332380666 0.937930991979387
22373647 -0.3147625739459343 0.9378192919985776
22378211 -0.3150239174576841 0.9377302813469819
22382775 -0.31505729579272385 0.9373874552722579
22387340 -0.3147976634066071 0.9379644224369389
22391904 -0.31468961749086255 0.9380979533577692
22396468 -0.31479159939385787 0.9386963727929922
22401032 -0.31468078152883966 0.9387818242034776
22405597 -0.3146963627479142 0.9390644448143876
22410161 -0.31431652380603503 0.9387217170105937
22414725 -0.3130868524139288 0.9388893512110087
22419289 -0.31291881030626834 0.9395481372039258
22423853 -0.3128884548183332 0.9393558057584273
22428418 -0.313503735696361 0.9396291730870625
22432982 -0.3131579919746231 0.9396171219832019
22437546 -0.3128726382259893 0.9398990648539813
22442110 -0.31156877322145604 0.9411983850961181
22446675 -0.3120301706364488 0.9397359565367299
22451239 -0.31134948684461383 0.9408354504365929
22455803 -0.3104745152898521 0.9403432734018836
22460367 -0.31026812471406223 0.9407562939983104
22464932 -0.31046631179657347 0.940918905278108
22469496 -0.31081749349898863 0.94081968629634
22474060 -0.3105273576561246 0.9407450777357266
22478624 -0.309546268807552 0.9414946659013247
22483188 -0.30901777939466163 0.940866917960607
22487753 -0.3094350163146092 0.9406012590129593
22492317 -0.30898087253391693 0.9399987725895032
22496881 -0.308263356744409 0.9410218873748752
22501445 -0.3088776900647844 0.94054160755411
22506010 -0.3091013335700943 0.9410865173538939
22510574 -0.30852865454716416 0.9407999084600037
22515138 -0.3082411592972526 0.9407027141668955
22519702 -0.30812533830136596 0.9420411814169738
22524267 -0.3084459056631514 0.9416738688406436
22524267 -0.308331791571091 0.9422075909330749
22528925 -0.3075940048143444 0.9421669851839836
22533584 -0.3081229561239208 0.9424530995901967
22538242 -0.30795891256407854 0.9421472119580596
22542901 -0.3064152472605945 0.9427934481849006
22547560 -0.3064395575880934 0.9423202078684288
22552218 -0.30649566776963955 0.9422576742635803
22556877 -0.3065870283037784 0.9427809999759411
22561536 -0.30651876375346226 0.9426072796495192
22566194 -0.3048823952944844 0.9433178868299822
22570853 -0.3054506609774421 0.9435116404762504
22575511 -0.3048520630725417 0.9426579815721011
22580170 -0.3043319773040953 0.9431679484555391
22584829 -0.30395650991619466 0.943241325217458
22589487 -0.3041177690122367 0.9427741261228023
22594146 -0.30361915761909253 0.943291746212591
22598805 -0.30372422989963316 0.9428037224488409
22603463 -0.30284325893178404 0.9438001035488183
22608122 -0.3031183828748674 0.9435482439440416
22612780 -0.3035420271647752 0.9430332993106891
22617439 -0.3023042786737438 0.9433133901837543
22622098 -0.3022185080134746 0.9439820209185336
22626756 -0.30237205867199973 0.9439174310188704
22631415 -0.3022729143637782 0.9441677410901301
22636074 -0.3018586296633472 0.9435689123495019
22640732 -0.30184194652407814 0.9435920687962741
22645391 -0.30153738283476134 0.943809938424583
22650050 -0.3014229636128573 0.9436628501320821
22654708 -0.30083811568534513 0.9435656839714852
22659367 -0.3004314627025109 0.9443953611417055
22664025 -0.3006125820856315 0.9442191283845854
22668684 -0.29974975050481717 0.9436704620205134
22673343 -0.2997633551988591 0.9440389225481467
22678001 -0.2997478611362309 0.9448298592924558
22682660 -0.300149107262594 0.9449058130195972
22687319 -0.2998871915338564 0.9443513724954378
22691977 -0.2987565094725728 0.9448214099497888
22696636 -0.2992808230616815 0.9447101359371493
22701294 -0.29859903995980636 0.944752876595657
22705953 -0.2987206834660338 0.9447719456979304
22710612 -0.2979675991962796 0.9446780227069106
22715270 -0.2980105040900184 0.9452178134884441
22719929 -0.29814196924554104 0.9456240925485275
22724588 -0.2980701936402613 0.9456031489671098
22729246 -0.29732866437534916 0.9457287113345142
22733905 -0.2975398338633607 0.9456309134100783
22738563 -0.2974455400396164 0.9449158680184645
22743222 -0.29635614520085585 0.9448616640153403
22747881 -0.2962322190067076 0.9462186277716607
22752539 -0.297338766210268 0.9465418287843533
22757198 -0.2960443710673395 0.9449541871238548
22761857 -0.2957718123641488 0.9457555191616035
22766515 -0.29584766530455686 0.9464637203486755
22771174 -0.29689675145902783 0.9463168699705167
22775833 -0.2961269076488358 0.945661988531539
22780491 -0.29569651360118504 0.9471220093152707
22785150 -0.295280188754407 0.9468987230663242
22789808 -0.2953842623207081 0.9465093263571166
22794467 -0.2950997695686804 0.947356627062581
22799126 -0.29401967451660665 0.9469047676366875
22803784 -0.29442565772032403 0.947842932611121
22808443 -0.2937876932201938 0.947645629654403
22813102 -0.29321483486701777 0.9476565411751561
22817760 -0.2933388166156575 0.9475002092854595
22822419 -0.2931957160779876 0.9478707000531493
22827077 -0.29316007295668556 0.9479686617989552
22831736 -0.29295371887411986 0.9472934167697957
22836395 -0.2924771980904766 0.9475776867254314
22841053 -0.29242469963362927 0.9482119537235829
22845712 -0.29206262070050965 0.9483626286788276
22850371 -0.2918492385367163 0.9474623230633902
22855029 -0.2912767014462944 0.9486027966196094
22859688 -0.29127887766381527 0.9479516328230874
22864346 -0.29094079095752945 0.9482587889997395
22869005 -0.29158743453882296 0.9488782655072817
22873664 -0.2901942868828534 0.9481469220962686
22878322 -0.29062140934220715 0.9481740139937267
22882981 -0.2899149248337109 0.9489302237296325
22887640 -0.29060393001328644 0.9488620924071698
22892298 -0.2903500960236517 0.9493063862171622
22896957 -0.2899209387351089 0.9492726461824004
22901616 -0.28876687519358935 0.9501687887914181
22906274 -0.28865844695362736 0.9495048599892517
22910933 -0.2892807228813611 0.9494631445635526
22915591 -0.28815857425039937 0.9486888205059316
22920250 -0.28795715624838425 0.9492407253049615
22924909 -0.28820448089387596 0.9484246759454449
22929567 -0.2873937781421613 0.948967422067614
22934226 -0.28650651480270417 0.9492951320795574
22938885 -0.28668674025662355 0.9497992598117135
22943543 -0.2881207138349835 0.9492710029716445
22948202 -0.2869172749265958 0.9497229746414666
22952860 -0.28578992774109174 0.9494957000591736
22957519 -0.28591217855543805 0.9501889003221232
22962178 -0.28552996875690245 0.9504146774198305
22966836 -0.28591075942446126 0.9505094472986886
22971495 -0.28461316283882715 0.9501372414922762
22976154 -0.28505198626629175 0.9505374592012017
22980812 -0.2862688225884395 0.9505593476777874
22985471 -0.2852147130066055 0.9504175408773031
22990130 -0.2845847762512055 0.9509021313246305
22990130 -0.284680462452285 0.9510732104255711
22994884 -0.28469706926013044 0.9502438017754866
22999639 -0.28486938076276747 0.9505345599476872
23004394 -0.2844833170103134 0.9504297367996977
23009149 -0.2836106762293274 0.9513325582590151
23013904 -0.2834144955205216 0.9503686018282447
23018659 -0.28372436631935755 0.9511408314350195
23023414 -0.28387315914444344 0.9515539791979407
23028169 -0.2832573715839326 0.9502876309123562
23032924 -0.2828706121356738 0.9516516414811586
23037679 -0.28287959648889727 0.9523161208381917
23042434 -0.28242948925023137 0.9514874526935775
23047189 -0.2810874290503371 0.9512274655110511
23051944 -0.28161083182525176 0.9517081465285606
23056699 -0.2813353001685668 0.9520294334334765
23061454 -0.2815512510856801 0.9517859372648693
23066209 -0.2807349778657757 0.9515670272846521
23070964 -0.28078058261135425 0.9519324991686303
23075719 -0.28064604081167305 0.9518555038812277
23080474 -0.28009273397045187 0.9515035454589106
23085229 -0.2807790629824154 0.9518953906602717
23089984 -0.2805130999928551 0.9526766561549755
23094739 -0.27973059948487294 0.9520489593207185
23099494 -0.27856931750740976 0.9527455457934026
23104249 -0.2789736305269745 0.9524183487308011
23109004 -0.2789968599244179 0.9523905480563355
23113759 -0.27847987424026127 0.9526301374987586
23118514 -0.2778641722699508 0.9527390722488789
23123269 -0.2782101833365103 0.9530526883153791
23128024 -0.2773902014033887 0.9528704485619843
23132779 -0.2773671304129991 0.952629708652582
23137534 -0.2768981795492587 0.9534047363168491
23142289 -0.2782150135526983 0.9532285175874944
23147044 -0.2773875975904806 0.9530222179742143
23151799 -0.2771679237797477 0.952470680350539
23156554 -0.27655603829642217 0.9537099171903488
23161309 -0.27627871348969957 0.9540338496737832
23166064 -0.2766979823052608 0.9536119333664818
23170819 -0.27551049452699927 0.9531584035201738
23175574 -0.27572876025001275 0.9535082926942898
23180329 -0.27576275120109844 0.9536880103862929
23185084 -0.2741568347183451 0.9537486953202012
23189839 -0.2755002184026708 0.9535932313923756
23194594 -0.2751474157966091 0.953726687802239
23199349 -0.2752301034516704 0.9532940948413281
23204104 -0.27460692841485157 0.9540921629317947
23208859 -0.2740349345736391 0.9541750106097844
23213614 -0.2733678040386381 0.954258167121257
23218369 -0.27385368704711543 0.953899326705433
23223124 -0.27320569350559465 0.9533102835170405
23227879 -0.2727034614658522 0.953171379277815
23232633 -0.2720756033547395 0.9542344503344099
23237388 -0.27265249719107826 0.9547078541303367
23242143 -0.27265942559768136 0.9550454490521916
23246898 -0.2727145700750577 0.9550116012757947
23251653 -0.2724003049347711 0.9555221368787759
23256408 -0.2719489362012384 0.9552194142479372
23261163 -0.2712624304102885 0.9551701134993071
23265918 -0.2713901934677403 0.9552754073079464
23270673 -0.27147131724169304 0.9548239873946778
23275428 -0.2712538616054946 0.9541346521165665
23280183 -0.26986627493356286 0.9546132281062922
23284938 -0.2697493116160458 0.9542085263430539
23289693 -0.2705321692635199 0.9557086702781781
23294448 -0.26978865937385826 0.9559922685835817
23299203 -0.2693668755378712 0.9560990833268771
23303958 -0.2700005219210215 0.9562153023339593
23308713 -0.2702396937312565 0.95595370741062
23313468 -0.2684891194711413 0.9551573929957247
23318223 -0.26889574533020577 0.9555785650659444
23322978 -0.26829806430436753 0.956151944940323
23327733 -0.2678569312267539 0.9555245895072723
23332488 -0.26772552495738694 0.9550644727390463
23337243 -0.26808000194867837 0.9560549923166507
23341998 -0.2673936536822603 0.9562656399258266
23346753 -0.2667647269772328 0.9567735438167186
23351508 -0.2675337642450733 0.956966980108979
23356263 -0.26789332570301116 0.9562561638197123
23361018 -0.26708035862282925 0.956164617276148
23365773 -0.2658995406468233 0.9562903976087335
23370528 -0.26583185771401024 0.956476407177173
23375283 -0.2652041862952715 0.9572995990230598
23380038 -0.2660486216290971 0.9561082067003669
23384793 -0.2655155416340892 0.956039387595621
23389548 -0.2658135621142885 0.9562645006404394
23394303 -0.26539047110738484 0.9569997850078933
23399058 -0.2649073253115762 0.9568621984916791
23403813 -0.26407264697712046 0.9572556698238779
23408568 -0.2639455774157489 0.9567932951517687
23413323 -0.2642935183759907 0.9583646800948871
23418078 -0.26351020346629195 0.9578282632741084
23422833 -0.2634805499804771 0.9582065674965161
23427588 -0.2636670520086732 0.9570522523732091
23432343 -0.26271710308261637 0.9560049531384489
23437098 -0.26146025604327927 0.9569142640968085
23441853 -0.2617196164637502 0.958046097414032
23446608 -0.2631644407137521 0.9582552558724821
23451363 -0.2627426249593382 0.9584985554196606
23456118 -0.2620310728320868 0.9587757103309815
23460873 -0.2623793389156535 0.958602725356836
23465628 -0.26233161407277206 0.957488957669726
23465628 -0.2612652017503953 0.957271865782004
23470481 -0.2614063915714004 0.9579451726660494
23475334 -0.26185737333977455 0.9582846942421289
23480187 -0.2604617328913796 0.9582118372461236
23485041 -0.259572431356356 0.9587582420024431
23489894 -0.26115243161298785 0.9591865350515716
23494747 -0.26076326461372185 0.9577272313830637
23499601 -0.2590863404417519 0.9578349215876935
23504454 -0.25947995129333606 0.9589098571374606
23509307 -0.260495806541675 0.9586783211278365
23514161 -0.2592308375920634 0.9578457199614777
23519014 -0.25830577967450924 0.9592544429237999
23523867 -0.25923784791326715 0.9594332083759775
23528721 -0.25855995094268197 0.9585955121795267
23533574 -0.257378841578601 0.9594644121420297
23538427 -0.2586177136330337 0.9590588640891267
23543281 -0.2577622971514442 0.9588932714807712
23548134 -0.25701016356515916 0.959584036222557
23552987 -0.25646269963993934 0.9605306228788579
23557841 -0.25795479086770573 0.9602714377263113
23562694 -0.2578491995417267 0.9585949371036414
23567547 -0.2558868805774843 0.9598433445420081
23572401 -0.25713255923526 0.9603546916371896
23577254 -0.2559163406857676 0.9596371726981986
23582107 -0.25508134895733714 0.9604395321089338
23586961 -0.25587038056075495 0.9615105719167618
23591814 -0.25597744087090796 0.9597276142007358
23596667 -0.2549357445421439 0.9597740302693124
23601521 -0.2545632745806519 0.9612978374380385
23606374 -0.2556191228205327 0.9606501241561356
23611227 -0.25476803339296156 0.9588942934641832
23616081 -0.253580222260171 0.9608219706677302
23620934 -0.2543213249131221 0.9616512783823505
23625787 -0.25374798521886327 0.9602794652808103
23630641 -0.25354164859073747 0.9592297467327515
23635494 -0.25293723942752183 0.9609692280053852
23640347 -0.2540479751656759 0.9603896602580172
23645201 -0.25272095033582603 0.9604524501185424
23650054 -0.2518777756387927 0.961010400484489
23654907 -0.25201994521238164 0.961611679640688
23659761 -0.2523137835365379 0.9607788441891151
23664614 -0.25165557785284953 0.9609249782944521
23669467 -0.2514265018235358 0.9612314536989258
23674321 -0.2516223380734964 0.9614165115002187
23679174 -0.2516727806562376 0.9608471360497542
23684027 -0.25127265100728613 0.9618475740970819
23688881 -0.251019481475036 0.9619799543979047
23693734 -0.25073932402777466 0.9618210572776524
23698587 -0.25045186925310126 0.9607730303885178
23703441 -0.2502212684642845 0.9616050649001984
23708294 -0.25062001008166684 0.9617963927170082
23713147 -0.2504426463178815 0.9617248649151156
23718001 -0.24867570403218842 0.9614573729420933
23722854 -0.24902606710613326 0.9620189404002363
23727707 -0.2491059252493283 0.9621733441613604
23732561 -0.24851233885185667 0.9625996898111031
23737414 -0.24838313312227356 0.9621166174291771
23742267 -0.24762470146606505 0.9611109112656498
23747121 -0.24773638601200623 0.9623055036400993
23751974 -0.24753740357521156 0.9630114871469814
23756827 -0.2472098522008494 0.9625090448292298
23761681 -0.24710906294892712 0.9621320444063248
23766534 -0.24647312486311243 0.9629919331279702
23771387 -0.24702704796902117 0.9628355577534593
23776241 -0.2460949478475681 0.9626760192535123
23781094 -0.24615460541593437 0.9625091860119213
23785947 -0.24630200831951393 0.9631202337827242
23790801 -0.24570187766130458 0.9622066749999127
23795654 -0.24528876498712401 0.9625804606527752
23800507 -0.24593498870603117 0.9634983816746503
23805361 -0.24498837810197188 0.9634554477450493
23810214 -0.24540169003869924 0.9622799595954856
23815067 -0.24368435035529773 0.9628180333768148
23819921 -0.2442015692974929 0.9636795961533732
23824774 -0.2441122108353431 0.9636992776867124
23829627 -0.24384024366656246 0.9636270012404498
23834481 -0.24324934937132614 0.964467354906153
23839334 -0.24408499825430338 0.9630357804379599
23844187 -0.2434455598147885 0.9631253219304409
23849041 -0.2421682624953879 0.9642149660548457
23853894 -0.24290743893118955 0.9640300822628372
23858747 -0.24338778040598272 0.964045663918147
23863601 -0.24170984644831894 0.9638072150774095
23868454 -0.2414679919143013 0.963959655070176
23873307 -0.24157400295081694 0.9640536032014979
23878161 -0.2416568961666758 0.9636339722592039
23883014 -0.24152716713438155 0.9644086422861066
23887867 -0.2416255173990302 0.9639464269033119
23892721 -0.23996353122407552 0.9636478059921727
23897574 -0.24024976804544534 0.9652896188644078
23902427 -0.24085363450047498 0.9649108703879378
23907281 -0.24033420615448553 0.964340268105867
23912134 -0.24025491886187317 0.964060736029977
23916987 -0.2394882141731694 0.9648840735333503
23921841 -0.24000713090332945 0.9641204336720779
23926694 -0.23937515695929565 0.9649726895952717
23931547 -0.23941608514334833 0.9643559172604368
23936401 -0.23907644694936442 0.964955914963151
23941254 -0.2376531741978239 0.9639969793680206
23946107 -0.23804464039381035 0.9650494648000025
23950961 -0.23851624573790017 0.9646827053681435
23950961 -0.23883090707771443 0.9642652046872995
23955914 -0.2375146652977528 0.9660658677855829
23960868 -0.2373430423129548 0.9654626014556429
23965822 -0.23812610051552577 0.9646774924335397
23970775 -0.23722881215624872 0.9647961985805309
23975729 -0.2359636489557811 0.9656101615904958
23980683 -0.23632994379290811 0.9649644905065798
23985636 -0.2370198466672933 0.9662572711154637
23990590 -0.23582967175146974 0.9652995278051413
23995544 -0.2353844313635527 0.9655441387448757
24000498 -0.2360490348330587 0.9659471892656286
24005451 -0.2356620480796248 0.9656851060545132
24010405 -0.234776168014664 0.966344337572764
24015359 -0.2353838083920657 0.9658021905100831
24020312 -0.2345809784060403 0.9663303974889816
24025266 -0.233757061370673 0.9667642456840112
24030220 -0.2333929534248191 0.9660889705215833
24035173 -0.2333717020481135 0.9660004244209234
24040127 -0.23389219284983934 0.9670413949593643
24045081 -0.23289247327023438 0.9670626021348689
24050035 -0.23318492532778168 0.9666461175397763
24054988 -0.23280737237136745 0.9662538632063985
24059942 -0.23207930777474872 0.9665097878873352
24064896 -0.23323027350974512 0.9668448743400774
24069849 -0.23240578191154576 0.9671095320214
24074803 -0.23150934250042582 0.9670028834570997
24079757 -0.23154900472595352 0.9672026993489368
24084710 -0.23156447637022595 0.9669786829148189
24089664 -0.2316400840289901 0.9671257352640819
24094618 -0.2306573769210553 0.9675186597201438
24099572 -0.23117421863014512 0.9667171545631601
24104525 -0.23094261638073893 0.9672080100603336
24109479 -0.230131651971326 0.9671192910072093
24114433 -0.23168981381704618 0.9666197127570088
24119386 -0.2294078887987455 0.9667533348906637
24124340 -0.22906527863909076 0.9681433839954654
24129294 -0.22932193855080338 0.9673872700044661
24134247 -0.2302917961167706 0.9667741542442132
24139201 -0.2283124814944756 0.9676199111345166
24144155 -0.2283497476944227 0.9669859745587365
24149109 -0.22836761581577486 0.9676159616431
24154062 -0.22818457946886972 0.9687821374794127
24159016 -0.2274625407720159 0.9676062511620339
24163970 -0.22748347218974088 0.9676872271486429
24168923 -0.2272082071854839 0.9678313124368612
24173877 -0.22659993152169605 0.9681104809815128
24178831 -0.22720323886556654 0.9687814731305928
24183784 -0.2267640167060354 0.9680485304272332
24188738 -0.22645228010260762 0.9677279681480353
24193692 -0.22587138311614252 0.9686453691753271
24198646 -0.22672183897519915 0.9690853396875183
24203599 -0.22589558618850383 0.9678778014392477
24208553 -0.22523705568555186 0.9684146105097805
24213507 -0.22537678830267785 0.9690439030618323
24218460 -0.22524491730550675 0.9682319113201633
24223414 -0.22517434364905173 0.9686371800201641
24228368 -0.22467675696465358 0.9692297817575457
24233321 -0.2248020865106106 0.9680963929232893
24238275 -0.22437681835374126 0.9680517650262426
24243229 -0.22418824205764507 0.9694117183678442
24248183 -0.2233533845172737 0.9690355708746482
24253136 -0.22297864254036487 0.9685688516958202
24258090 -0.22437763929034407 0.9694894554847103
24263044 -0.2222735933147894 0.969313907199964
24267997 -0.22240308753204543 0.9691738279775224
24272951 -0.22264508419818654 0.9696919094872913
24277905 -0.2223968166030615 0.9700285857918303
24282858 -0.22160404009491205 0.9692471486306757
24287812 -0.2217514949178179 0.969286365680311
24292766 -0.22138088139588363 0.9701732960417407
24297720 -0.22103716464484416 0.9693376381842558
24302673 -0.2209777702884934 0.9694007143495419
24307627 -0.2206598246106162 0.9695398934200559
24312581 -0.220552852061198 0.9700134162633642
24317534 -0.2206079892619109 0.9690385073786144
24322488 -0.21953246063768353 0.9702868824383888
24327442 -0.21954200323180498 0.9703217839180742
24332395 -0.219830701342209 0.9694357163565157
24337349 -0.21874354717026087 0.9705311354513567
24342303 -0.2190955634948223 0.9706466145480441
24347257 -0.21954927193908408 0.9696573564229498
24352210 -0.2184111612664083 0.9697643547337214
24357164 -0.21830556652068855 0.9699607799921833
24362118 -0.219126076181589 0.9710228628076398
24367071 -0.21800039927261505 0.9701123525481553
24372025 -0.21729439825080002 0.9703227670326721
24376979 -0.21739050003851726 0.9705110485094487
24381932 -0.21735823183504974 0.9699461974923032
24386886 -0.2166475274612068 0.970233741870293
24391840 -0.21638987152435232 0.9705918595153451
24396794 -0.21750760638800107 0.9704510586882764
24401747 -0.21578835696016746 0.9713348662338553
24406701 -0.21558195875122266 0.9712979358218535
24411655 -0.21661839526944188 0.9712277471509995
24416608 -0.21478600637954787 0.9706801159351889
24421562 -0.21542864310594229 0.9716945913696845
24426516 -0.21527358767742447 0.9716953847342606
24431469 -0.2151630334765051 0.9711722516378319
24436423 -0.21490917575963642 0.9711587846645366
24441377 -0.21384068772822323 0.9711826408872335
24446331 -0.21404113222585347 0.9718226326235975
24446331 -0.2139207695884252 0.9713129545314567
24451387 -0.2137123753615215 0.9723119303720316
24456443 -0.21347389086132748 0.9707608168700883
24461499 -0.21230056229850716 0.9712534147880911
24466555 -0.21366188163793098 0.9718215224437621
24471611 -0.21276786806626666 0.9721818131609016
24476668 -0.21347575262118185 0.9713887275545864
24481724 -0.21161518271638732 0.9724278246573437
24486780 -0.21251686415576046 0.9723300150872103
24491836 -0.21140567560402032 0.9719144811418858
24496892 -0.21133080699966875 0.9725443486697952
24501948 -0.21227210759024007 0.9712861178016395
24507005 -0.2108401592415306 0.9719644095305329
24512061 -0.21160297592936833 0.972172097452149
24517117 -0.2099895059532725 0.9720403015556017
24522173 -0.21024576764415903 0.9728609295572656
24527229 -0.210313645118488 0.9718469375382442
24532285 -0.21012793852720674 0.9729494851470469
24537342 -0.2110969328334002 0.9722565749761868
24542398 -0.20998105831666988 0.9733773699598723
24547454 -0.21021963986890702 0.9729225131513133
24552510 -0.2086445935365004 0.9732474042214797
24557566 -0.20968974799014034 0.9725811615404019
24562622 -0.20813319660664079 0.9721967169753607
24567679 -0.20861131832159366 0.9733380876974429
24572735 -0.20833975409845626 0.9717382593003309
24577791 -0.20817779589810545 0.9729767105300574
24582847 -0.20820448005472064 0.9732281188372219
24587903 -0.2070059002598668 0.9730909307880504
24592959 -0.2078391605800925 0.9730937810990832
24598016 -0.2074166613889035 0.972758041321024
24603072 -0.20692088642805825 0.9736540135337085
24608128 -0.20729997110402787 0.9741862015487279
24613184 -0.20653478436438014 0.9735417731024167
24618240 -0.20704535907480964 0.9732270155904095
24623296 -0.20570090466102997 0.9732628044611092
24628353 -0.2060612392932551 0.9739349554584039
24633409 -0.20703920057830935 0.9719383288955208
24638465 -0.2055622114234074 0.9735718198913226
24643521 -0.20564353664954763 0.973706033404314
24648577 -0.20418812727431582 0.9733499368465818
24653633 -0.20447578776695305 0.9740667426719959
24658690 -0.20491843137124316 0.9730026419670167
24663746 -0.20422886513283553 0.9745679769206629
24668802 -0.20520835403019572 0.9735204843538421
24673858 -0.2036635762870683 0.9746716913270307
24678914 -0.20390752837806095 0.9735389889784626
24683970 -0.2036598923082677 0.9737670179715842
24689027 -0.2041384291039372 0.97434644196084
24694083 -0.20281839034027316 0.9740132428841655
24699139 -0.2029002181590462 0.975027403015878
24704195 -0.20275538594084294 0.9743372816349222
24709251 -0.20250272677780873 0.9743442319080848
24714308 -0.2021772123065276 0.9743194974634525
24719364 -0.2022432335062397 0.9743655774775029
24724420 -0.2019128137198727 0.9745193371383023
24729476 -0.20200695112353334 0.9742134855948202
24734532 -0.20128063218327133 0.9747483531342397
24739588 -0.2019812794622561 0.9751435620216473
24744645 -0.2008686738430142 0.9752167107897836
24749701 -0.20073078376963677 0.9757151240666107
24754757 -0.20031003718027707 0.9747581764012374
24759813 -0.20043826736572876 0.9749375546274976
24764869 -0.20108582026113728 0.9749694542431686
24769925 -0.200401385173144 0.9753864321738501
24774982 -0.19923167940578368 0.9749813129535918
24780038 -0.19948134645816912 0.9760214324231453
24785094 -0.19920024920986554 0.9737814364088357
24790150 -0.19949632361794217 0.9762368595280049
24795206 -0.19967869622666165 0.9748676809149655
24800262 -0.1988533307737799 0.9766167891304206
24805319 -0.19964666767475478 0.9757510498767225
24810375 -0.19812469140229194 0.9756052393388809
24815431 -0.19832121378273807 0.9751686441365222
24820487 -0.19807889037773724 0.9760978729672672
24825543 -0.1981302039528287 0.9761567807748777
24830599 -0.19873676221518863 0.9757946030837783
24835656 -0.19729283701819614 0.9752930356978455
24840712 -0.19761444134924588 0.9771309939170504
24845768 -0.19744404485763187 0.9751372373071702
24850824 -0.19697518124515317 0.9767684249975437
24855880 -0.19778224863310628 0.9754939345262403
24860936 -0.1958701809250958 0.9769263185928792
24865993 -0.19643612834617338 0.9758065513904669
24871049 -0.19588538377707698 0.9761859937433416
24876105 -0.1965744790092873 0.9766330519356347
24881161 -0.19589290757947792 0.9757648688044503
24886217 -0.19595354852040794 0.9763681067681366
24891273 -0.19555017285042103 0.9770952904723902
24896330 -0.19556789562171656 0.976630960647162
24901386 -0.1952187192753286 0.9776306339884969
24906442 -0.1952854983622257 0.9764357060335167
24911498 -0.19504971812586663 0.9771617366939331
24916554 -0.1946380674971625 0.9760786725248651
24921610 -0.19428479401426885 0.9773842553174269
24926667 -0.1952474326487639 0.9770334323640296
24931723 -0.193168646773077 0.9777422462196318
24936779 -0.194017628901559 0.977338035947033
24941835 -0.19408010464637385 0.9775495458087871
24946891 -0.1924225134376313 0.9773339998165247
24951948 -0.19342804162834473 0.9775183462081898
24951948 -0.1943110565193382 0.9768778374445107
24957108 -0.1932707114731247 0.9774550729484075
24962269 -0.19315777344509866 0.9774730346558114
24967430 -0.19283767398045804 0.978136975886144
24972590 -0.19280788836215726 0.9774978890253601
24977751 -0.1917047901208396 0.9779788302913568
24982912 -0.19246675310644792 0.9773936784297045
24988073 -0.19269779393270642 0.9786171041168279
24993233 -0.19198907232039825 0.9776521174720981
24998394 -0.1916900597559521 0.9783309545842792
25003555 -0.19160810167041784 0.978616492964446
25008716 -0.1917772662501476 0.9782333627610353
25013876 -0.19105961673876318 0.9783464044524509
25019037 -0.19087507936883943 0.9776218202911083
25024198 -0.18988653859499108 0.979385474729986
25029358 -0.1913601099907426 0.9778909421577094
25034519 -0.18936458260470568 0.97934606401323
25039680 -0.19017615767884868 0.9781114304083373
25044841 -0.18997466204065414 0.9790987105015692
25050001 -0.18930058118434942 0.9790756728373478
25055162 -0.19039432840949544 0.9793901632703196
25060323 -0.18945603356168242 0.9789303842876633
25065484 -0.18919197146145286 0.9799168457832176
25070644 -0.18952049011946676 0.9791320452507459
25075805 -0.18877680496673283 0.9785355663355914
25080966 -0.18878421789504762 0.979658010963404
25086126 -0.1892820308329373 0.9790238189730985
25091287 -0.18893535908792106 0.9797107037412219
25096448 -0.18843337331999638 0.9792927357961629
25101609 -0.18714426805893938 0.98077767732834
25106769 -0.1878790567493939 0.9783229926723531
25111930 -0.18710138723450614 0.9791303780681484
25117091 -0.18792261233434293 0.9792808443483667
25122252 -0.1872215713422117 0.9807561542914238
25127412 -0.1873719749257172 0.9800779029576003
25132573 -0.18786820275851318 0.9801558230755443
25137734 -0.18684546083305806 0.9805185835300613
25142895 -0.18631766680747966 0.9793876909255138
25148055 -0.1866477806235485 0.98096964468729
25153216 -0.18655565489823797 0.9806216440074348
25158377 -0.18631525129896936 0.9800488400363899
25163537 -0.1856994242356155 0.9801680974175767
25168698 -0.18569982098845733 0.9809333053794935
25173859 -0.18486284622385657 0.9805512095382555
25179020 -0.18537498524936832 0.9808062145696325
25184180 -0.18419377611355972 0.9798176601668935
25189341 -0.18494838797467433 0.9809905227089726
25194502 -0.18414056223216668 0.981582826267776
25199663 -0.1849847132934675 0.9798651485733184
25204823 -0.18366259769975354 0.9809529822812748
25209984 -0.18395721808117182 0.9809998587496477
25215145 -0.18369406380530698 0.9818734164788564
25220305 -0.18319427631990745 0.9805256326440135
25225466 -0.18328759636543396 0.9820568392675747
25230627 -0.1837646366164236 0.9818967056804647
25235788 -0.18251666524794163 0.9815730785350898
25240948 -0.1826832156088754 0.9814816589071274
25246109 -0.18257780158306552 0.9819329409879326
25251270 -0.18254369264949177 0.9816052287724655
25256431 -0.18190828422501346 0.9807486341262275
25261591 -0.18185060089022137 0.9816943613438253
25266752 -0.18224267433086752 0.9823338709076302
25271913 -0.181649449268391 0.9825751646765593
25277073 -0.18167896449895615 0.9820037697708222
25282234 -0.18030053100291843 0.9823189105211537
25287395 -0.18209546759532058 0.9823698441669784
25292556 -0.18086981611757594 0.982492714108506
25297716 -0.18135024602851677 0.9829066186974346
25302877 -0.1798494795144748 0.9834206124375249
25308038 -0.1800584686837252 0.9828300875383202
25313199 -0.1793242108105325 0.9833479669843482
25318359 -0.1796715676866261 0.9827327127494194
25323520 -0.1796704515927189 0.9831070157142422
25328681 -0.1789881781002478 0.982389093025848
25333842 -0.17858662215033533 0.9833652301343305
25339002 -0.1800534042057754 0.9825206352851124
25344163 -0.17862080000830075 0.9838413638189605
25349324 -0.17905846862273408 0.9832162701690811
25354484 -0.17770871717442518 0.9822577033447634
25359645 -0.17865066091325277 0.9833085560490967
25364806 -0.17779821946806362 0.9830383562511286
25369967 -0.1762621165209561 0.9829975905853487
25375127 -0.17752560620669888 0.9828420507226392
25380288 -0.17672093423211782 0.9833531111717625
25385449 -0.1764060633748874 0.9842168886793465
25390610 -0.17643992146044005 0.9836004303602287
25395770 -0.17658238032474854 0.9829482564164819
25400931 -0.1763796234693241 0.9838140613759725
25406092 -0.17600037440122582 0.9832642971032267
25411252 -0.17527821907227276 0.9839505020022606
25416413 -0.17665592168678673 0.9839792247125898
25421574 -0.17432944507731804 0.9836053162810849
25426735 -0.17595372229181167 0.9841488526611958
25431895 -0.17382063303698972 0.9838070072391467
25437056 -0.175164901117386 0.9836246135475194
25442217 -0.17489719609752763 0.9843083014621581
25447378 -0.17462418064644897 0.9843874746606871
25452538 -0.17396581222376886 0.9845122934057956
25457699 -0.17375897966767298 0.9833164952371141
25462860 -0.17379326135616205 0.9844824137322556
25468021 -0.1733271308597237 0.983796356666513
25468021 -0.17234080657307332 0.9841320367788843
25473288 -0.17373809078411903 0.9837479804526267
25478555 -0.1718126160729476 0.984504714216418
25483823 -0.17308344949739055 0.9844684736625686
25489090 -0.1721246639955233 0.9831017319512871
25494358 -0.17215927492803354 0.9854123523780404
25499625 -0.17223748873617886 0.9843612314887927
25504893 -0.17183027051536934 0.9849651551355757
25510160 -0.1717857602327191 0.9846276844526693
25515428 -0.17102965414637175 0.9848886155730218
25520695 -0.17075451237057157 0.9854965640826426
25525963 -0.17100482906573358 0.9846689456402011
25531230 -0.1704523899569017 0.9850412966399761
25536498 -0.17045727402064761 0.9850836113494195
25541765 -0.17052783699359605 0.984085481415566
25547033 -0.1703274959937678 0.9847322192033633
25552300 -0.16917178211861839 0.9844855155688754
25557568 -0.1698570511905666 0.985026501576538
25562835 -0.16925364235142915 0.9847241531981329
25568103 -0.16882023325922352 0.9853075503456896
25573370 -0.16975218831079084 0.9854684055303939
25578638 -0.16917946520534655 0.9844728721906546
25583905 -0.16870222429832754 0.9854366470456084
25589173 -0.16886778268537778 0.9847863859972652
25594440 -0.1684283209205173 0.9845448032339807
25599708 -0.16874160410121042 0.9850355255977924
25604975 -0.16729443509016068 0.9853795321782383
25610242 -0.16832606441681505 0.9858999743249026
25615510 -0.1676772566836831 0.9850650383689227
25620777 -0.16764891835408735 0.9858947878720457
25626045 -0.16737635182092403 0.986320023268491
25631312 -0.16723582240214238 0.9851368576965426
25636580 -0.1666033911836387 0.9861254790492491
25641847 -0.16709217868955695 0.9851408931288015
25647115 -0.16508799365494978 0.9855163662831541
25652382 -0.16672597264547545 0.9849634540725922
25657650 -0.16593552083615723 0.985542499548936
25662917 -0.16595482320749974 0.98615934029461
25668185 -0.1653324958909101 0.9848970803705315
25673452 -0.16619426749269978 0.9864506959234863
25678720 -0.16506681269824774 0.9857478035673611
25683987 -0.16432379455504734 0.9857153986489561
25689255 -0.1647988013681864 0.986286842403367
25694522 -0.1644027265497875 0.9862779125079316
25699790 -0.1639567436083519 0.9860566401227929
25705057 -0.16372207578425976 0.9863633863895279
25710325 -0.16353946439690595 0.985504891220568
25715592 -0.1644940835219941 0.9855613749326476
25720860 -0.16289110078057661 0.9867534476226607
25726127 -0.1628399463642123 0.9856583519207102
25731395 -0.1640639862428441 0.9867651032161237
25736662 -0.16345175543697765 0.9866664492000972
25741929 -0.16271991630829272 0.9855870681453844
25747197 -0.16239765795185723 0.9865318590668792
25752464 -0.16297781293810126 0.9866045580936349
25757732 -0.16218753303075686 0.9857397336229716
25762999 -0.16213864151769958 0.9882253275473856
25768267 -0.16145213180138399 0.9862311031353037
25773534 -0.16148296010921823 0.9870304896291757
25778802 -0.16084197137222594 0.9875709978351536
25784069 -0.1610066165583577 0.9867790821524743
25789337 -0.160982460465702 0.9875157471244935
25794604 -0.16051137291686154 0.9869729273200092
25799872 -0.16054852232847472 0.9866301189892386
25805139 -0.16124307573373017 0.9878684623878375
25810407 -0.15848094525992665 0.9877477263539238
25815674 -0.16022517666304484 0.9867536036732352
25820942 -0.16043300107038322 0.9870629674860752
25826209 -0.1589179423715537 0.9874257608744101
25831477 -0.15989259477291073 0.986227961443707
25836744 -0.15953346511542799 0.9883035388323174
25842012 -0.1584413723127514 0.9877311526279413
25847279 -0.15890343836809354 0.9871263988533915
25852547 -0.16017522705520212 0.9878820612642039
25857814 -0.15725394486343583 0.9874246630101958
25863082 -0.15834704807792413 0.9872225258776088
25868349 -0.15783557467551734 0.987947457949692
25873616 -0.1578794507606089 0.9883573998602685
25878884 -0.1575643408010112 0.9880300893451853
25884151 -0.15716686787571438 0.9886393847540362
25889419 -0.15624731273865514 0.9876993475873787
25894686 -0.15748616927486775 0.9877919858290382
25899954 -0.15593150084301932 0.988326035060345
25905221 -0.15645362157716378 0.98675671072639
25910489 -0.15663449993875994 0.9879140701657887
25915756 -0.15662382347885195 0.9888713798185913
25921024 -0.15456194641289686 0.988135900474947
25926291 -0.15590427030353626 0.9889107773733841
25931559 -0.155689077338606 0.9886129301554009
25936826 -0.15476250978861997 0.9885473483903733
25942094 -0.15566868370782583 0.9885473827380933
25947361 -0.15446257109171138 0.9888522055214188
25952629 -0.15467934338647388 0.9885455936633929
25957896 -0.1543930190208716 0.9886993806637333
25963164 -0.15446996330850093 0.9879264383257943
25968431 -0.15390311711997764 0.988425141110174
25973699 -0.15322740144609787 0.9891129624815512
25978966 -0.1540413456152527 0.9888809919777102
25984234 -0.15376929812267545 0.9879379723419209
25989501 -0.1530691338105408 0.9890436069913477
25994769 -0.15280029872922343 0.988936142177385
25994769 -0.1527910314687343 0.9889711413602155
26000145 -0.15305410133664563 0.9895878585926959
26005521 -0.15311759718560788 0.9890892023872888
26010898 -0.1525207575001324 0.9893154585504965
26016274 -0.15189843804572362 0.9893214360059984
26021651 -0.15105056536295292 0.9896045019252321
26027027 -0.15255413147516586 0.988873298565127
26032403 -0.15110159206718476 0.9888573268227586
26037780 -0.15162150536583055 0.9889739761225079
26043156 -0.15093406863965655 0.9902835849897694
26048533 -0.15064225808374923 0.9905941989652567
26053909 -0.1495419114311304 0.988387939845832
26059286 -0.15045625174379543 0.9898004131451957
26064662 -0.15069166180282262 0.9895909744266433
26070038 -0.1507462833024186 0.9896773957291807
26075415 -0.15016987842187707 0.9891786265240425
26080791 -0.14920211666339606 0.9900792309919844
26086168 -0.14915176326032198 0.9910185957376062
26091544 -0.1491309796650443 0.9898002679462972
26096920 -0.149561845531732 0.9895413886172681
26102297 -0.14919622303076926 0.9891824272286991
26107673 -0.14895677836415017 0.9900454085036774
26113050 -0.14907294632683157 0.9908564666281341
26118426 -0.14900642169294295 0.9908212704354187
26123803 -0.1476685035347198 0.9905671032122514
26129179 -0.14700681374130253 0.9900615870899429
26134555 -0.14888670193872275 0.9906302618815733
26139932 -0.1477490601064032 0.9905545564758289
26145308 -0.14730510896133625 0.9902642245979112
26150685 -0.14722120349110168 0.9901707554239745
26156061 -0.1462781637529865 0.9912846143810135
26161438 -0.14648095337799072 0.9910746708037336
26166814 -0.14608684778721398 0.9896560656638618
26172190 -0.14693344202495562 0.9905438556283102
26177567 -0.14718141094628412 0.9907463904353462
26182943 -0.1462712888091098 0.9910138364991624
26188320 -0.1455820947386818 0.9912380122668744
26193696 -0.14531747000904602 0.991730490262834
26199072 -0.1451691247903054 0.9907099760512755
26204449 -0.14445632612193562 0.9906951550913486
26209825 -0.1454983392382538 0.9911717912380649
26215202 -0.14536856293660358 0.9902627382058807
26220578 -0.144645581625256 0.9914714530644163
26225955 -0.14332129726093076 0.9913640189114269
26231331 -0.14350776281530855 0.9912691217742298
26236707 -0.14422077745800946 0.9905686319529744
26242084 -0.1437813969599801 0.992473996216455
26247460 -0.14437585383025472 0.991610847091161
26252837 -0.1433743576426685 0.9923608815748023
26258213 -0.14302243922366412 0.990510714119781
26263590 -0.1431104037314065 0.9925656979219621
26268966 -0.142888420524227 0.992028428873712
26274342 -0.14145618177809646 0.9921875014179055
26279719 -0.142820367944143 0.9914380472733204
26285095 -0.1423751637628906 0.9914424726887163
26290472 -0.1424260290728599 0.9921048162776573
26295848 -0.14145237203882324 0.9909804799835377
26301224 -0.14072168573683352 0.9927055826619744
26306601 -0.1422791827348062 0.9915038608233165
26311977 -0.14080911369978866 0.9923312373209703
26317354 -0.14094172702775462 0.9918197025138887
26322730 -0.13903487835489353 0.9923898027670752
26328107 -0.14106514312676616 0.9923246243465401
26333483 -0.14037327200655672 0.992347494159564
26338859 -0.1396368250107972 0.9924433666988148
26344236 -0.1390210480684283 0.9914353730537189
26349612 -0.13991063957560165 0.9930935764047065
26354989 -0.13926201915526165 0.992765674736352
26360365 -0.1380640538245408 0.9931210420634677
26365741 -0.1384566744443637 0.9925136357783845
26371118 -0.13848865992357573 0.9919088509455595
26376494 -0.13890897016642675 0.9927412489934285
26381871 -0.13838806185137745 0.9924552862627796
26387247 -0.1375661688453496 0.9929984826101577
26392624 -0.13756306762044943 0.9922665079092787
26398000 -0.13790691828557533 0.9927492818407272
26403376 -0.13820747288964233 0.99248886223368
26408753 -0.13627012658553825 0.9934159365751658
26414129 -0.1366491014623174 0.9929384700570801
26419506 -0.13724639258064214 0.9920574041272984
26424882 -0.1372741129494883 0.9930116315134001
26430259 -0.13668812447502757 0.9930179414209269
26435635 -0.13630130287288372 0.9929819726147412
26441011 -0.1363273071499451 0.99267762504549
26446388 -0.13530792497594277 0.9933371861824302
26451764 -0.13569366746316575 0.9929404248704098
26457141 -0.13539875160550094 0.9933320196666577
26462517 -0.13492225990863918 0.9934697314437586
26467893 -0.13394246377597405 0.9937553348755572
26473270 -0.13372530226939613 0.9936604148483819
26478646 -0.13458008594556406 0.9926542332128319
26484023 -0.13443757764248793 0.9939864800342552
26489399 -0.13404555868461168 0.9935427491065444
26494776 -0.13301493900042496 0.9938875807116546
26500152 -0.1339519971086724 0.9936507882778359
26505528 -0.13340444331668921 0.9935806876223046
26510905 -0.13302199643735704 0.994553049991806
26516281 -0.1333296282231035 0.9941968867355775
26521658 -0.1321106769562856 0.994561737281714
26527034 -0.13348235779663353 0.9933604398300148
26532411 -0.13223173852546727 0.9943802656511181
26532411 -0.13262105232088847 0.9942404060507494
26537898 -0.13163869400330955 0.9947280819465577
26543386 -0.13218676442280022 0.9945420788494991
26548873 -0.1310648574789795 0.9944973762656705
26554361 -0.13203198478163333 0.9939930026066723
26559849 -0.13137610585184467 0.9941867265272823
26565336 -0.1314161104624877 0.9947211236063221
26570824 -0.1311090135363635 0.9944336335067353
26576311 -0.1309427079742698 0.9938809917435608
26581799 -0.13021435137068862 0.9951227027988411
26587287 -0.12957586364485454 0.9948882433407785
26592774 -0.12880325641308257 0.9943594431766096
26598262 -0.12980258220647012 0.9940641323425528
26603750 -0.12861246838202084 0.9943190150798046
26609237 -0.13027760903337535 0.9938812125939416
26614725 -0.12942148283633653 0.9943215548289377
26620212 -0.12822316237394435 0.9946822930105709
26625700 -0.12925389602434284 0.995434133646062
26631188 -0.12756512415602558 0.9944608114879682
26636675 -0.12742864738801493 0.9942793256505513
26642163 -0.12816791779122838 0.9949274657501146
26647651 -0.12835444961828676 0.9951018743416024
26653138 -0.12863145925002964 0.994410967106945
26658626 -0.1279156007653678 0.9952689812145749
26664113 -0.1281527958078528 0.9950300505543977
26669601 -0.12633386581479145 0.9956478433188689
26675089 -0.1273024195412544 0.9954507351819469
26680576 -0.12575545486108616 0.9953375413876487
26686064 -0.1262212631847657 0.9956130351670189
26691551 -0.1263560726654731 0.9952148898456642
26697039 -0.12534978523661125 0.9954878520764445
26702527 -0.1258361113604145 0.9952022977533589
26708014 -0.1264681120660734 0.99445862452405
26713502 -0.1251156552006064 0.9956907081173886
26718990 -0.12476523908293759 0.9958291199140604
26724477 -0.12383752134708234 0.9951664600064314
26729965 -0.12483955388189795 0.9954972844534181
26735452 -0.12435299066086392 0.995203184192907
26740940 -0.12373805526095318 0.9964164705772868
26746428 -0.1239789169678151 0.995395962215417
26751915 -0.12428667611589944 0.9957504923296846
26757403 -0.1234870053759065 0.9952656762373289
26762891 -0.12409291429364505 0.9955115524761694
26768378 -0.12347970837125471 0.9957471140379737
26773866 -0.12233738699555415 0.995713439734771
26779353 -0.1229188632608571 0.9949810276299047
26784841 -0.12199953270134381 0.9950205048476132
26790329 -0.12267678332442922 0.9957482133644759
26795816 -0.12223614641828084 0.9959877075474344
26801304 -0.12228874450597592 0.9965218951928595
26806792 -0.12148466182306862 0.9966069743187991
26812279 -0.1218966477786337 0.9958619928526354
26817767 -0.12076968447045246 0.9960924972414882
26823254 -0.1213060553088203 0.9961754875381553
26828742 -0.12100802680850278 0.9954255040443728
26834230 -0.12074590719749974 0.9954759549465637
26839717 -0.12073500329757811 0.997000021577401
26845205 -0.11941240791062224 0.997870427630756
26850692 -0.11932381342097999 0.9964109066544008
26856180 -0.12020184230755235 0.99686075179016
26861668 -0.12002668619852877 0.9971541978023576
26867155 -0.11905389477972236 0.9967037906462923
26872643 -0.11871738096120055 0.9967014756692206
26878131 -0.11875735336586349 0.9956984054383428
26883618 -0.11834713763146898 0.996048797117533
26889106 -0.11768020316558835 0.9963915145199401
26894593 -0.11764081546342697 0.9968993997489242
26900081 -0.1178325909238151 0.9970428250805209
26905569 -0.11743011353865378 0.9970352247771581
26911056 -0.11745161097907593 0.9974189585350564
26916544 -0.11685919255576095 0.9971251633151162
26922032 -0.11707306376569927 0.9967795874189402
26927519 -0.11740924774803517 0.9966814603952776
26933007 -0.11636982378936923 0.9969328882859748
26938494 -0.1164398054602 0.9969474223122303
26943982 -0.11659570462576781 0.9971471336160147
26949470 -0.1153395949768153 0.9976188949644293
26954957 -0.11556436146087745 0.9966871963571513
26960445 -0.11542162060351052 0.9970872073659348
26965932 -0.1158963077058438 0.9963004215437317
26971420 -0.1150285405943734 0.9968716904696013
26976908 -0.11394689005877882 0.9970086963398146
26982395 -0.11474327412343928 0.997762641000552
26987883 -0.11527905526003532 0.9980897566957979
26993371 -0.11427133690767702 0.9968027444206408
26998858 -0.11360867589600436 0.9977095594272913
27004346 -0.11309785796828768 0.9974877857049969
27009833 -0.11351599070363219 0.9979831532520647
27015321 -0.11384231490269729 0.9969492062771911
27020809 -0.11371133847774863 0.997653231635075
27026296 -0.11285377562841724 0.997842583589202
27031784 -0.11232372633514057 0.9983426738709626
27037272 -0.11220089439415656 0.9979390476321167
27042759 -0.11219691136091764 0.9971950942875404
27048247 -0.11209538326456478 0.9979431172996597
27053734 -0.11217296646366556 0.9971283735581373
27059222 -0.11149921292203795 0.9974364120935794
27064710 -0.11140034529639063 0.997306812763383
27070197 -0.1111990231513664 0.9981829043802716
27075685 -0.10991030329866947 0.9979569652896416
27081173 -0.11086288402345872 0.9971503916760324
27081173 -0.11089094178528297 0.9969021866700332
27086774 -0.11085564205524992 0.9978887637408781
27092375 -0.10967789787827528 0.9974007467881604
27097976 -0.10999428089542593 0.9978997123102735
27103577 -0.1091616039345201 0.9980732221610908
27109178 -0.10985493478047487 0.998081363174166
27114779 -0.1090470575587503 0.99731784582183
27120380 -0.10958639837507617 0.9975285111322416
27125981 -0.10997723695353089 0.9979465577741349
27131583 -0.10928876981752728 0.9981209819815603
27137184 -0.10821860408587018 0.997425906827918
27142785 -0.10915387400619513 0.9985117552764091
27148386 -0.10925393120346327 0.9978323479900407
27153987 -0.10897092700245525 0.9981126714956812
27159588 -0.10835107801277324 0.9984026124544172
27165189 -0.10792198750563188 0.9981156939806317
27170790 -0.10762101782868953 0.9976637746648092
27176392 -0.10744700549838737 0.9979932263974054
27181993 -0.1068171034762645 0.9977082710715218
27187594 -0.10713219315692679 0.9976685384373084
27193195 -0.1063143966266123 0.9977435038525175
27198796 -0.10593600929933324 0.9977599091528834
27204397 -0.10578864340800333 0.9976738204909633
27209998 -0.10534601649103718 0.998290122274795
27215599 -0.10521589171505644 0.9980323499212306
27221201 -0.10494301311281598 0.998170436543383
27226802 -0.10359958410863153 0.9979441394502991
27232403 -0.10386172838473928 0.9984462451594912
27238004 -0.10422862304469326 0.9979458245610415
27243605 -0.104133452233412 0.9985912075491811
27249206 -0.1037719122532167 0.9979122859870245
27254807 -0.10364129782747174 0.9978184589882227
27260408 -0.10389973519014119 0.9983921911730841
27266009 -0.10364263241740566 0.9984644946772387
27271611 -0.1032181170467792 0.9979605365812253
27277212 -0.10346457944411462 0.9988331329459817
27282813 -0.10361519543261462 0.9981574568083683
27288414 -0.10289115273041793 0.998410690296212
27294015 -0.10255708578260252 0.9986761988467525
27299616 -0.10239502573381092 0.9990233778468663
27305217 -0.10168946140476723 0.9983318451909363
27310818 -0.10136057219142577 0.9987279132006107
27316420 -0.1014540961460651 0.9986472224789017
27322021 -0.10103693023399825 0.9987363137396567
27327622 -0.10048922688334225 0.9988325348693571
27333223 -0.10149894789215784 0.9989248204468194
27338824 -0.10055951409451529 0.9998318881729673
27344425 -0.10014926051012123 0.9992475144160001
27350026 -0.10035866276509132 0.999577171820465
27355627 -0.0996458119155909 0.9992739679367917
27361229 -0.09947258298265792 0.9995229863191524
27366830 -0.09984333763095185 0.9990615739072174
27372431 -0.10061346855401329 0.9995967157873479
27378032 -0.09889654950595722 0.9992915992818923
27383633 -0.09967126911673428 0.9989149908059257
27389234 -0.0981520404326415 0.9985017848097476
27394835 -0.09751336605607909 0.9990351600741914
27400436 -0.09728733004672162 0.9997165527855782
27406037 -0.09707908475874694 0.9994369549059573
27411639 -0.09649564355622314 0.9989412028858345
27417240 -0.09687328620284771 0.9995649612705252
27422841 -0.09637318833205466 0.9996329456881973
27428442 -0.0965761918026693 1.0011904600207606
27434043 -0.09649296448607811 0.9992287914128157
27439644 -0.09716319255513085 1.0003089261410074
27445245 -0.09638394619137935 0.9995186781695581
27450846 -0.09702294704649211 0.9999424788810803
27456448 -0.09565478068979964 0.9992587549506718
27462049 -0.09442451802774839 0.9999223989732968
27467650 -0.09515203378709915 0.9990871592404595
27473251 -0.09457704167476262 0.9995455041266632
27478852 -0.09442266513542368 0.9993697991730515
27484453 -0.09409357759482208 0.9998442232399821
27490054 -0.09429969417349171 0.9999080173421618
27495655 -0.09437850743534318 1.0005250732092366
27501257 -0.09423530102681683 0.9999503309009313
27506858 -0.09403041560087173 1.0006804914086267
27512459 -0.09440839543168361 0.9998789531996941
27518060 -0.0936179937234264 0.9994161010740381
27523661 -0.09367156121815352 0.9994171154808922
27529262 -0.09256531980840298 0.9999449718667385
27534863 -0.09239391538384385 0.9999833461590156
27540464 -0.09220646439009289 1.0002105913950274
27546065 -0.09160101780389635 1.0003527783802115
27551667 -0.09182486896373576 1.0005445679461638
27557268 -0.09164231005530508 1.0008472805328157
27562869 -0.09172593339116247 1.000849741861559
27568470 -0.09186082942749005 1.0009683781986234
27574071 -0.09151179190654393 1.0007487173411902
27579672 -0.09033519729882118 1.0000422628703798
27585273 -0.09047558634641678 1.0005246912429322
27590874 -0.09039228551500234 1.0001673141385246
27596476 -0.08977979613988432 1.0009184853525372
27602077 -0.08978023802285669 1.0005358511559954
27607678 -0.08975622759632415 1.0005163768262755
27613279 -0.08944015734371102 1.0011845132428836
27618880 -0.08975413967809084 1.0010580346276843
27624481 -0.08951785801409569 1.0006922282801947
27630082 -0.08925718798855267 1.000660900438897
27635683 -0.0884623987470177 0.9994231990222386
27641285 -0.08793367554089818 1.000424922699129
27641285 -0.08799792963483288 1.0000788350076593
27647001 -0.0879078766275804 0.9992918668620736
27652718 -0.08826493926837506 1.0003326905273566
27658435 -0.0875180084458701 1.0006042245400042
27664152 -0.08758565639739604 1.000810590996557
27669869 -0.08753597503861205 1.0012977433389392
27675586 -0.08762650005991876 1.000851721260264
27681303 -0.08776305474315388 0.9999799266725908
27687020 -0.08662311130613433 1.000589265547777
27692737 -0.08597953305785275 0.9999642426746057
27698454 -0.08611886252412068 1.0006769905926522
27704171 -0.08504644837577312 1.0012196574894776
27709888 -0.08566629496043031 1.0005289367199586
27715605 -0.08521412498363969 1.0001297244673024
27721322 -0.08579068116721686 0.9999955927532121
27727039 -0.08487292332040534 1.000372759147065
27732756 -0.08523953642781477 1.0002816353441537
27738473 -0.08453120203413254 1.0009279660989132
27744190 -0.0843939212675881 1.000823738360087
27749907 -0.08460656831109648 1.001744064182571
27755624 -0.08445606379332352 1.0005761827605208
27761341 -0.0850133743623191 1.0003280293497772
27767058 -0.08332176598351225 0.9998946953946681
27772775 -0.08315513120126011 0.9997562435852343
27778492 -0.08263822225518372 1.0011331066846294
27784209 -0.08307011961820561 1.0006104393427666
27789926 -0.08271023367428999 1.0011172410363876
27795643 -0.08334490921428557 1.0013710155340754
27801360 -0.08234457376692782 1.0009532776181171
27807077 -0.08243165424646057 0.9999143408055216
27812794 -0.08199701580233856 1.0004313826520148
27818511 -0.08156265206038009 1.0007521169585727
27824228 -0.08084785617031455 1.001018003038031
27829945 -0.0811771567823348 1.0010953997043426
27835661 -0.08101853689797071 1.0012835973567644
27841378 -0.08162207125879072 1.000507773409259
27847095 -0.08042794723808304 1.0007682544585983
27852812 -0.08028818670657084 1.0003496819861881
27858529 -0.07992314150624673 1.001142399264343
27864246 -0.08002569416992172 1.0012150440202159
27869963 -0.08018050713088842 1.0014333187623765
27875680 -0.07977401530964942 1.000701724180033
27881397 -0.0794184760449916 1.0011911182596833
27887114 -0.07940241340276992 1.0007718660005545
27892831 -0.07892782515820443 1.0006744786582122
27898548 -0.07874425130864189 1.0015825143544443
27904265 -0.07826984741464295 1.0014323142436383
27909982 -0.07906392814682349 1.001401837224912
27915699 -0.07724630990852369 1.0009173071658684
27921416 -0.07790969857595323 1.0011077815029938
27927133 -0.07785118644465003 1.000326559797344
27932850 -0.07794478723681833 1.0011553414595213
27938567 -0.07735297713397529 1.0016185917421019
27944284 -0.07642692164454733 1.0008221996583728
27950001 -0.07558184864751367 1.000631615057718
27955718 -0.07642438378705015 1.0012557722543907
27961435 -0.07654612694322942 1.0014314741084562
27967152 -0.0763627980344513 1.0003359979849429
27972869 -0.07632671123208665 1.0004460133408544
27978586 -0.07517785492577106 1.0013653090835473
27984303 -0.0764834635967805 1.0012545029465922
27990020 -0.07459478446282816 1.001934938015542
27995737 -0.07535565661088817 1.0013329576176109
28001454 -0.07485403841827601 1.0014684138566574
28007171 -0.07548968830274988 1.001598595318457
28012888 -0.07504803014198862 1.0007881721375453
28018605 -0.07408307104021696 1.0011254594146017
28024321 -0.07369744639128119 1.000964902976738
28030038 -0.07347342932044189 1.0007462531762956
28035755 -0.07374477308244506 1.0017341925984107
28041472 -0.07260866513557307 1.0018062163277495
28047189 -0.07299797522945049 1.0013847268097793
28052906 -0.07317791171046037 1.0010222341091366
28058623 -0.07323739662176354 1.0013849950121507
28064340 -0.07312261592570612 1.0016033430832352
28070057 -0.07269414273817543 1.0010910500687051
28075774 -0.07196578415107265 1.0012295241342883
28081491 -0.07142512817518426 1.0015171968229144
28087208 -0.07091160903897734 1.0017502221125223
28092925 -0.07148633425976186 1.0019448014679875
28098642 -0.07116117815353236 1.00159821907112
28104359 -0.07110737264072395 1.0012271413948957
28110076 -0.07121256866105377 1.0012205182048113
28115793 -0.07093233144739483 1.000815097422382
28121510 -0.07014978019918988 1.0007453664700703
28127227 -0.07094331312059775 1.0011650178876168
28132944 -0.07004276127896869 1.0005584109821068
28138661 -0.06981494961123676 1.0014637315619817
28144378 -0.06946673936958216 1.0024836016545886
28150095 -0.06960549400321439 1.0014155442601247
28155812 -0.06955687735839715 1.0014106241961154
28161529 -0.07018484587636807 1.0010020878127768
28167246 -0.06907093767184022 1.0017064554234856
28172963 -0.06849196773675047 1.0000090528505345
28178680 -0.06779890221662822 1.0017759133747202
28184397 -0.06796056804726194 1.0013986767895318
28190114 -0.06801671430921807 1.0022650014256693
28195831 -0.06688561119290316 1.0015584130034807
28201548 -0.06773929501923916 1.0010422285937615
28207265 -0.0673529343834726 1.002237591248173
28212982 -0.0676666367807069 1.0020180062097748
28212982 -0.0672185184028514 1.0023424918818151
28218817 -0.06693016555577962 1.0014850473114942
28224652 -0.06760593371275239 1.0015502725554244
28230487 -0.06663479868971431 1.0015403436103898
28236322 -0.06562528453728629 1.0018925350532968
28242158 -0.06577606281491329 1.0021208715126757
28247993 -0.0655323774257229 1.001503332222986
28253828 -0.06574716284908504 1.0015670162238246
28259663 -0.06520401787845774 1.0007052616697336
28265498 -0.06479020401921812 1.0016979325181912
28271334 -0.0652260448104873 1.0015139450667758
28277169 -0.06571389636731473 1.0014634924621264
28283004 -0.06463849002276228 1.002059534153017
28288839 -0.06522846234263506 1.0018959106980796
28294674 -0.06390413052816847 1.0019717016401533
28300510 -0.06457784139693164 1.0012374053812516
28306345 -0.0637514876176021 1.0009990925285936
28312180 -0.06304704271118725 1.0016672175783636
28318015 -0.06317202206420319 1.0018596246199616
28323850 -0.06302651999387646 1.0023659246232433
28329686 -0.06408352779923301 1.0023593409048948
28335521 -0.06269470241577978 1.001607134465211
28341356 -0.0630550234160079 1.0005984005347477
28347191 -0.06295418958654529 1.002893289770082
28353026 -0.06263730855128728 1.0017184105496377
28358862 -0.06138569735353856 1.0025239750293569
28364697 -0.06097711898642908 1.001464526606293
28370532 -0.06153533688732061 1.0027924261451018
28376367 -0.06112141438255543 1.0026312193058107
28382202 -0.06155587035172981 1.0009310850646445
28388038 -0.06010302959422841 1.002351127872494
28393873 -0.06003377894973388 1.0023705914927687
28399708 -0.06075140564187863 1.002734290961044
28405543 -0.06029627739783034 1.00123279766849
28411378 -0.05961613736648895 1.0020059484769932
28417214 -0.0588280423213679 1.0011771172692816
28423049 -0.06011078910262709 1.0025460970085107
28428884 -0.059845961643729156 1.0027226558264204
28434719 -0.059162314725643074 1.002067139927185
28440554 -0.05773102981247674 1.0015848107158356
28446390 -0.05834425576143012 1.0026619247000728
28452225 -0.05842129472841081 1.0025507218173317
28458060 -0.05962812555005167 1.0021947178547796
28463895 -0.05865870196407849 1.0026472724849098
28469730 -0.05705023254775059 1.001828249940451
28475566 -0.05776061563951743 1.0028530468532022
28481401 -0.05790729062657508 1.0022852885788769
28487236 -0.057941906909439775 1.0024236747204904
28493071 -0.05564575913681511 1.001961855486794
28498906 -0.05729713284481762 1.001944229333289
28504742 -0.05782670605094667 1.0026766086877732
28510577 -0.05621817858728393 1.0014514954257019
28516412 -0.05589563690659006 1.002457445493088
28522247 -0.056623096425440424 1.0024534257273727
28528082 -0.057484034783518094 1.0016893917146652
28533918 -0.055764197701340446 1.0025813612933943
28539753 -0.055933681202842735 1.002420459604842
28545588 -0.055437101478929274 1.0024112294098124
28551423 -0.05515468249573538 1.0019866528486725
28557258 -0.054880008880672806 1.0019973896599559
28563094 -0.054480554036798905 1.0029667622328313
28568929 -0.05431625456071322 1.0022112834657864
28574764 -0.0542281682543815 1.002364913717976
28580599 -0.05418823723503519 1.0025637895982222
28586434 -0.05369995415313593 1.003080570700287
28592270 -0.05341434783124985 1.0028018969135375
28598105 -0.05399699857180294 1.0032401145631675
28603940 -0.05341869401098391 1.002108088132357
28609775 -0.05203852235103692 1.0034996970724697
28615610 -0.05298046644304188 1.003238393967812
28621446 -0.052917393171487026 1.002278711828378
28627281 -0.05165547884620521 1.0024394211299217
28633116 -0.052333702232375184 1.0029775785925714
28638951 -0.05166059353263952 1.003981491978156
28644786 -0.05092322976061901 1.0025916129365633
28650622 -0.0509611455027747 1.0028136799555232
28656457 -0.05072606712841874 1.0041453464625896
28662292 -0.050641841676671365 1.0025669276853797
28668127 -0.04868352723912155 1.0022889208739378
28673962 -0.04939594416161939 1.0039684660981958
28679798 -0.04953453524980231 1.003095839920958
28685633 -0.04928916192001837 1.003088345584403
28691468 -0.04861657857739942 1.003669368819315
28697303 -0.04870629915274555 1.0033410566240897
28703138 -0.04897491121195128 1.003151252057437
28708974 -0.04837628486333609 1.0028068358502364
28714809 -0.04782478528740561 1.003476847758435
28720644 -0.04756344394498814 1.0040068756159866
28726479 -0.04791827235393422 1.0029110542460968
28732314 -0.04656441360623556 1.0030944837728646
28738150 -0.046155102529399916 1.003041118977333
28743985 -0.04608896241963674 1.0043619240043802
28749820 -0.04602481228391951 1.0030632343287966
28755655 -0.04599623696336012 1.0033205825755813
28761490 -0.045196168107662006 1.0036836982034756
28767326 -0.045328063617740534 1.0029519874202917
28773161 -0.04394600342422006 1.0021775894580152
28778996 -0.04443292508108537 1.0026282572619178
28784831 -0.044696866677147125 1.0027156096247187
28790666 -0.043275167336718656 1.001676354837631
28796502 -0.04351930330586917 1.0030829192087785
28796502 -0.04411587465084567 1.0027304062122584
28802457 -0.044073362239280725 1.0020456377222913
28808413 -0.043397979787203826 1.0022289890818337
28814369 -0.043186712421434195 1.0022310141655484
28820325 -0.04358441932803681 1.000926183750182
28826281 -0.04260876333948153 1.0024663691368938
28832237 -0.042749441156840255 1.0003830202766253
28838193 -0.04237955763220382 1.0019013451651697
28844149 -0.04173244719873961 1.0015128886272406
28850105 -0.04215772431357949 1.0008952032749905
28856061 -0.043073135328613975 1.0008083751069017
28862016 -0.040928231727474625 1.0020441649655845
28867972 -0.041841427892505105 1.0003692325438156
28873928 -0.04124575285143883 1.0012923172454589
28879884 -0.04107936986742283 1.0004043066382946
28885840 -0.041022290012678 1.0012972855325086
28891796 -0.0411323616413204 1.00069599098443
28897752 -0.040164483965238106 1.0010991619114893
28903708 -0.04066660696896355 0.9997362920991406
28909664 -0.040299720230547634 1.0011380830155368
28915620 -0.04089517288190449 1.0008027263117671
28921575 -0.03999531094418235 1.0008089688300978
28927531 -0.03995761266780872 0.9998747959256048
28933487 -0.040012668843873736 1.0009042305977103
28939443 -0.03958874293295533 1.000306650022986
28945399 -0.03911868555526352 1.000955847931987
28951355 -0.0395185039715537 1.0007727030239983
28957311 -0.03843558148768042 1.0007090591564856
28963267 -0.038565841098434535 0.9999993721290559
28969223 -0.03898749972307669 1.0010936376129953
28975179 -0.038939260185219725 1.0005347270394853
28981134 -0.03814685280678609 1.0005619303118194
28987090 -0.03854454651936554 1.000741501396426
28993046 -0.038440528885972367 1.0002582761485603
28999002 -0.03846977485805171 1.0008088477541692
29004958 -0.03727178094597539 0.9998498607892913
29010914 -0.038018781683135064 1.0003698899548081
29016870 -0.03685873278562248 1.0006946605593436
29022826 -0.03781443878793169 0.9997631695648419
29028782 -0.03674282832199456 1.0007863190931703
29034738 -0.036834695280165274 1.00004259018386
29040693 -0.03586617432885682 0.9998665891635432
29046649 -0.036878225547159915 1.0010714750387197
29052605 -0.03632393559471794 1.0004643409780405
29058561 -0.03637228791055312 1.0009303746772582
29064517 -0.03565579676257017 1.000959297056988
29070473 -0.035988505486188475 1.001378233984345
29076429 -0.03596072280520933 0.9999065298888127
29082385 -0.0353921938493771 1.0009651038618055
29088341 -0.034791917964140544 1.0005003350774346
29094297 -0.034981151992097136 1.0004144591262358
29100252 -0.03493532519424139 1.0003947635265917
29106208 -0.0349311486040256 1.0003343920224248
29112164 -0.034677012857964436 1.0006157530428594
29118120 -0.03424495510144014 1.0000950991294044
29124076 -0.0344812031366948 0.9998470398326484
29130032 -0.03379520551198509 1.0004285110292481
29135988 -0.03409711345802531 1.0009082212461569
29141944 -0.034293550560253655 1.0002589539212003
29147900 -0.03308293592946593 1.0007331771195114
29153856 -0.03384362193711459 1.0009619942483512
29159811 -0.03178810071963607 1.000544671683512
29165767 -0.033186583598099256 1.0007481073934636
29171723 -0.033434978233330824 1.0000113630682013
29177679 -0.03219477359364621 1.0003288323471604
29183635 -0.032988749278112496 1.0007316874090195
29189591 -0.032131694789301765 1.0007238584620526
29195547 -0.030970933839923533 1.0001820532814105
29201503 -0.03199817825673408 1.0014858724374487
29207459 -0.03179333687413697 1.000661028730249
29213415 -0.030992555422851693 1.000191308152271
29219370 -0.030935664812308136 1.0004804419287898
29225326 -0.03059369661442612 1.0013425006822865
29231282 -0.031093373832561742 1.0005112915345307
29237238 -0.029800294751291374 1.000041436810654
29243194 -0.030792482015072332 1.0005782407862636
29249150 -0.03007109094157652 1.0006892667702705
29255106 -0.02992238312585311 1.001161339333903
29261062 -0.02910916048922952 1.0006746184966677
29267018 -0.02941922921882821 1.0004460773161212
29272974 -0.028701055993849412 1.001372380679768
29278929 -0.029894428492670773 1.0004777768416837
29284885 -0.030651971974260905 0.9990888274255945
29290841 -0.028142958268721402 1.0011366423718164
29296797 -0.028112478230819853 1.0005161498557162
29302753 -0.02729496072027008 1.0012586737812659
29308709 -0.027459151911705643 1.00008195686537
29314665 -0.027141936638220475 1.0010072023928922
29320621 -0.027435578432254915 1.000345069936525
29326577 -0.027985336856260923 1.0006579510810272
29332533 -0.02660132314363089 1.0002965649907898
29338488 -0.027092877878368064 1.0008396134967104
29344444 -0.025120742877608036 0.9983394175141126
29350400 -0.025716809821600704 1.00128582260223
29356356 -0.026390800187371923 1.0002205486991569
29362312 -0.025042297228778928 1.0010700593061894
29368268 -0.0257689180380932 1.0005011981785856
29374224 -0.02604043748929217 1.0002680556174908
29380180 -0.024767008903500264 1.0010194117212627
29386136 -0.02543252831859182 1.0001803439449044
29392092 -0.025252623521669963 1.0000514942648704
29392092 -0.02440831542808723 1.0005091016398384
29398171 -0.0248690426787772 1.0004863048250374
29404250 -0.024610381051107237 1.0005518987662327
29410329 -0.024446021621752963 1.0000191217989018
29416408 -0.02409007939459633 1.000823747313392
29422487 -0.023051881787296686 1.0003763550438212
29428566 -0.024182943400335274 1.0005067575154771
29434645 -0.023580049791167897 1.0008765468140732
29440724 -0.023188329489560122 1.00030514734208
29446803 -0.023802689220433677 1.0004091986999477
29452882 -0.022471212923411775 1.0015769851145802
29458961 -0.02276281205779028 0.9995934242073117
29465040 -0.02190792788073685 1.0010030000106598
29471120 -0.021450650750884297 1.0003549817949846
29477199 -0.022257193306740135 1.0007443189495813
29483278 -0.02097265029354248 1.0007205912522288
29489357 -0.02085071468383113 0.9997240995725558
29495436 -0.020504622025848743 1.000175327194805
29501515 -0.021599725051602632 1.000401532326686
29507594 -0.020495962632352278 1.000256458412286
29513673 -0.020445698909198673 0.999985230036771
29519752 -0.02028628470536889 0.9999588073630188
29525831 -0.01973483328341423 1.0002296891907139
29531910 -0.019391096373778737 0.9994858392641056
29537989 -0.0199042433415789 1.0008328960891377
29544069 -0.019150180655159228 0.9995281882577071
29550148 -0.019626979947560554 1.000671137691172
29556227 -0.01845095505336302 1.0001023786268533
29562306 -0.018871058999037633 1.0007072989059114
29568385 -0.018553713537809546 1.0006230831386744
29574464 -0.018194568271307887 0.9996147417058073
29580543 -0.017779952406864714 0.9997929496293608
29586622 -0.017566270898717276 0.9998613133995781
29592701 -0.01790417114617165 0.9994718169070537
29598780 -0.017649074962326216 1.0003559859124713
29604859 -0.016943890679784062 1.0005238485442722
29610938 -0.016209362574228964 0.9998182002479379
29617017 -0.015533516358795066 1.0001847416022795
29623097 -0.017191787526162346 1.0002629938165533
29629176 -0.01525868942232765 1.0001604360242446
29635255 -0.015540165576266259 0.999719187942865
29641334 -0.01535070987009359 0.9992888431335729
29647413 -0.014368911463583186 0.9995544615126073
29653492 -0.014978558615949274 0.9990089662646107
29659571 -0.01500003392702049 0.999748983245786
29665650 -0.014060593164959204 0.9995445930886416
29671729 -0.014803575941476434 0.9995848764320171
29677808 -0.013209281320735218 0.9992511096831768
29683887 -0.013728702279408228 0.9995257639047651
29689966 -0.01253159293600327 0.9993664261760914
29696046 -0.013618833415648096 0.9989101870143353
29702125 -0.012435772692063012 0.9997298136469902
29708204 -0.012607620626261855 0.9998553117614916
29714283 -0.011940569531574333 0.9987115494630944
29720362 -0.011978885431421851 0.9991622513378714
29726441 -0.012480630750032145 0.999119800682658
29732520 -0.011123971444326154 0.9985638088873302
29738599 -0.011543195813950358 0.9989154918964734
29744678 -0.011517664903024399 0.9994675062813337
29750757 -0.010797386829813498 0.9990992883530879
29756836 -0.010316109064189474 0.9993512160056958
29762915 -0.010733638085065469 0.9986177100227251
29768994 -0.010040274433708836 0.9982506008024156
29775074 -0.009886458089873179 0.9987950459258412
29781153 -0.009799574136804462 0.9985136542875666
29787232 -0.010481875573936037 0.9982806098368108
29793311 -0.008555774720791987 0.9983036252992434
29799390 -0.009714835657473565 0.9981981503366231
29805469 -0.008506113222025245 0.9980011586372394
29811548 -0.009385997726248135 0.998303281756024
29817627 -0.0074957049090749045 0.9979120119936123
29823706 -0.008977384679225145 0.9993293375090276
29829785 -0.007495204544913224 0.9989416980110739
29835864 -0.008270539576432515 0.9976887499310578
29841943 -0.006275647440330056 0.9980251851453531
29848023 -0.007925789897343632 0.9973078747104515
29854102 -0.0066510028528288185 0.9983813367247042
29860181 -0.00697114964573845 0.9973204732854337
29866260 -0.005886531030933952 0.9974040315482907
29872339 -0.006905676356062338 0.9970857113287959
29878418 -0.00573427111674937 0.9970284442246985
29884497 -0.006071991422061833 0.9976642006247783
29890576 -0.005359720341479759 0.9978854587707555
29896655 -0.005407803073783333 0.9972436861137578
29902734 -0.004880723658491795 0.9962119412856769
29908813 -0.004787074777550927 0.9976201431619407
29914892 -0.004487525408530218 0.996184090636482
29920971 -0.004667463778183799 0.9971533520052352
29927051 -0.003144584946825488 0.996792332261724
29933130 -0.004527174934049238 0.9956885738992401
29939209 -0.003118441640976361 0.9967634357830183
29945288 -0.00367970794118524 0.9960342715263663
29951367 -0.0034297818123979786 0.9960078412471424
29957446 -0.0034413239863369427 0.99599206615396
29963525 -0.002319226328961419 0.9959041472828154
29969604 -0.0027179523299113097 0.9962445369202861
29975683 -0.002226952008453035 0.9960785702936751
29981762 -0.0023725369309585097 0.9960705235206981
29987841 -0.0016673381568740194 0.9961226084480181
29993920 -0.0015102443900591477 0.995734533483862
30000000 -0.0017064882022809304 0.9955001903255485
