# HZ S RI R 50
500000 -0.9496182762592277 -0.36703781824632276
500103 -0.9513080636078723 -0.3665006761257326
500206 -0.9500073437198931 -0.3667744548253699
500310 -0.9450769748487733 -0.36522566721732996
500413 -0.9457979432621343 -0.36511512864313367
500517 -0.9490932148121869 -0.36609797801801064
500620 -0.9496970893534397 -0.3661110831621203
500723 -0.9520780458467647 -0.3663200694308337
500827 -0.9506139346130396 -0.366075666363709
500930 -0.9504311361457926 -0.3660847947598446
501034 -0.9505999814062397 -0.3656386135552929
501137 -0.9511402939438186 -0.36658043195648743
501240 -0.9510663283097963 -0.365070450121437
501344 -0.9505528058326413 -0.3656624893362682
501447 -0.9498474884602209 -0.36544727284957124
501551 -0.9496937295806224 -0.36541396077579
501654 -0.950334988612278 -0.3650169725155149
501757 -0.95089973783825 -0.3649123815842294
501861 -0.9513925022959328 -0.3652980038655878
501964 -0.9516493907917519 -0.36518713867897606
502068 -0.9505035592245281 -0.3651882617564993
502171 -0.9504138015771683 -0.3646600648976251
502275 -0.9492658943225154 -0.36451514441915894
502378 -0.9496666177454457 -0.3647311120243993
502481 -0.9491537646158594 -0.3642753809201266
502585 -0.9502280251183279 -0.3639401609914495
502688 -0.9512084690873239 -0.3639347748451541
502792 -0.9512672040456487 -0.3642731241324811
502895 -0.9519313435928553 -0.3640999091601235
502998 -0.9525719265475941 -0.3644499338176271
503102 -0.9490316354218432 -0.363949517716424
503205 -0.948481808237731 -0.36342556345047095
503309 -0.951305933667957 -0.3639644625088956
503412 -0.951136284906012 -0.36338582830659827
503515 -0.9521193217761494 -0.3637875781471171
503619 -0.9510498779492084 -0.3632911811282228
503722 -0.9506488009340208 -0.36341802781350596
503826 -0.9507118530645744 -0.36299989324332793
503929 -0.9503356353259433 -0.3633161615930936
504032 -0.9509708215726347 -0.3630555832082258
504136 -0.9513982804715091 -0.36264347317608425
504239 -0.95169011854913 -0.36240902987661633
504343 -0.952156957511347 -0.36295744850352757
504446 -0.9518950231649232 -0.36300967034510695
504550 -0.9507486931642807 -0.36238972846111395
504653 -0.9511531170687927 -0.36251303752360126
504756 -0.9506445404080854 -0.36259150259970496
504860 -0.9508848643574914 -0.3625221536146077
504963 -0.9511066536420977 -0.3622834503121391
505067 -0.951836667358371 -0.3616468611874878
505170 -0.9517793330281048 -0.3619756814240503
505273 -0.9525605284903167 -0.3620647258286936
505377 -0.9518774209730019 -0.3617008525073486
505480 -0.9520759788771254 -0.3616715349108546
505584 -0.9513624956946701 -0.36158776613814464
505687 -0.9519256688220098 -0.3621220818006989
505790 -0.9500238092490445 -0.3614198987383266
505894 -0.9516614229964028 -0.3615243834207442
505997 -0.9520772992499138 -0.3609109176681016
506101 -0.9529206756908123 -0.36143768300533285
506204 -0.9528930716129063 -0.3609179012562436
506308 -0.9554286827460066 -0.361135694250014
506411 -0.9501777935318684 -0.3605253367358128
506514 -0.9522453169479326 -0.3610683080378408
506618 -0.9508150399862203 -0.36058102532543485
506721 -0.951073095302594 -0.36039874718344955
506825 -0.9531971196025423 -0.36059663341903603
506928 -0.9521986216841957 -0.3600627006300114
507031 -0.9520507928860753 -0.35979407462603535
507135 -0.9515967579342748 -0.36004771399492064
507238 -0.9525649172916689 -0.35922563303970056
507342 -0.9507688247911484 -0.3592608974673328
507445 -0.9523459878627644 -0.359972660664733
507548 -0.9518384144072528 -0.35969339486359814
507652 -0.951725330079115 -0.3597307555746485
507755 -0.9515239515691714 -0.3595649859576896
507859 -0.953017894077665 -0.35904015266074324
507962 -0.9528496473353846 -0.35892264443090355
508065 -0.9533263132813797 -0.35954656528432044
508169 -0.9536178177316044 -0.3592207958537066
508272 -0.9531621711546154 -0.35959504452801394
508376 -0.9523697258712015 -0.3589565392036866
508479 -0.9519999532173901 -0.3591480387694669
508583 -0.9517976284023504 -0.3589004079895985
508686 -0.9520126777963991 -0.3590279816136014
508789 -0.9527976814511133 -0.3583890820630139
508893 -0.9535602564395205 -0.35869026067610893
508996 -0.9531730183711427 -0.3587034017037216
509100 -0.9531965746437728 -0.3586383934743269
509203 -0.953851868957871 -0.35854542298893655
509306 -0.9531283457342946 -0.3582694360688632
509410 -0.9526375908418826 -0.35835263605222006
509513 -0.9531986471721877 -0.3581678623446894
509617 -0.9507837100619945 -0.3579099941069643
509720 -0.9521611247239332 -0.35748260753344474
509823 -0.9552211577641833 -0.3583335018720269
509927 -0.9542326848445086 -0.3578554685729588
510030 -0.9524650841171861 -0.35738609554631395
510134 -0.9530211166620695 -0.3574889668724079
510237 -0.953991619418091 -0.3578455949632739
510341 -0.9546031735885999 -0.35776037587409887
510341 -0.9511225252860231 -0.3573042833867735
510446 -0.9521229983642054 -0.35676719503787013
510552 -0.9509400378794687 -0.35660186256219695
510657 -0.9517964958686488 -0.3567416076818808
510763 -0.9529091669611278 -0.3568765307936962
510868 -0.9532783518104075 -0.3567539672864583
510974 -0.9537182416988998 -0.35589368443373315
511079 -0.9540350377143821 -0.35641346417524333
511185 -0.9541964344384944 -0.35654368102235157
511291 -0.9536985119359855 -0.35661942952023795
511396 -0.9528255801562474 -0.3564265854627456
511502 -0.9520048985564182 -0.35645014320752744
511607 -0.9530294183017255 -0.35563702503435035
511713 -0.9538551354343211 -0.35576798787232267
511818 -0.9537460619326561 -0.35566878509553673
511924 -0.9543853553542089 -0.35566473328827986
512029 -0.9537936050427639 -0.35582800235019335
512135 -0.954574091746732 -0.3555336580499825
512241 -0.9534815783983278 -0.3553871682921101
512346 -0.9536340482581561 -0.35534765636100796
512452 -0.9530986607410631 -0.35533810833660684
512557 -0.9529709911748467 -0.35536860125413283
512663 -0.9537253653725614 -0.3547904029877519
512768 -0.9538807720220683 -0.35470795565497415
512874 -0.9544121619157899 -0.3547777385431484
512980 -0.9546661240016148 -0.35503099080456785
513085 -0.9553412649182768 -0.354426416200138
513191 -0.9543103985983356 -0.3549645165499137
513296 -0.9538582679789684 -0.35471704542168914
513402 -0.9522648083092959 -0.3550803151463732
513507 -0.9544794004074768 -0.3541852227028205
513613 -0.9558733242815726 -0.3542425649278432
513718 -0.9540837658107478 -0.3541088413719838
513824 -0.9546179645545445 -0.35399712974937014
513930 -0.9546408507471532 -0.35399301493430174
514035 -0.9544256939411474 -0.35412030005969897
514141 -0.954023674329998 -0.3536705280430662
514246 -0.9536574840508671 -0.3537557217669283
514352 -0.9531750697495397 -0.3538556010475169
514457 -0.9542793419570937 -0.3530805710841503
514563 -0.9534450744861279 -0.35356508752158466
514668 -0.9536745806711063 -0.3536626274762376
514774 -0.9554690081560586 -0.35275891972328033
514880 -0.9554814367070263 -0.3531747974309987
514985 -0.9553419891628229 -0.3527684835910335
515091 -0.9557809424697924 -0.3536389381374816
515196 -0.9547641845743814 -0.35377602556646065
515302 -0.9536250056414806 -0.35285635756369904
515407 -0.9534855233414934 -0.3525424946291205
515513 -0.9539794480492757 -0.3529746883690261
515619 -0.9554210352435252 -0.3521079547948166
515724 -0.9556444283481673 -0.35198688012689405
515830 -0.9548468212260371 -0.35279770302651925
515935 -0.9552948738121085 -0.3519224624739547
516041 -0.9552941145815672 -0.3522700199843249
516146 -0.954734984640525 -0.35205329547626474
516252 -0.9541295249468604 -0.3520934351470128
516357 -0.9542493834154897 -0.3517635519986599
516463 -0.9547602297055482 -0.35172313380607995
516569 -0.9550842448988227 -0.3514047538081422
516674 -0.9555742204440085 -0.35128745216088936
516780 -0.9555358134632652 -0.35152933075080034
516885 -0.9558708140627112 -0.3510640556845452
516991 -0.9556051256305292 -0.351312222886679
517096 -0.9547371741416116 -0.351533072770509
517202 -0.9534752949791405 -0.3506822121511638
517307 -0.9532257385902007 -0.3511022350548146
517413 -0.9543581723836913 -0.3507172603428128
517519 -0.9549374909830279 -0.3507352152802704
517624 -0.9557768343807083 -0.35039996416568153
517730 -0.9548464091542891 -0.35067593773470057
517835 -0.9550402416203086 -0.3504894148314217
517941 -0.9548954294175864 -0.35104112849182206
518046 -0.9550817299821828 -0.3501573300132509
518152 -0.954651179362912 -0.3503665221414261
518258 -0.9532569334531346 -0.3493514791505735
518363 -0.9544518683761347 -0.3500544083873637
518469 -0.9556149024098015 -0.3497160849212879
518574 -0.9555933934733803 -0.3492424984875709
518680 -0.9563442259296414 -0.34928077400472024
518785 -0.9552908498032201 -0.34949927952979626
518891 -0.9552271846992174 -0.3483183964121653
518996 -0.9555941978520133 -0.3501857717626776
519102 -0.9549250383076167 -0.3493084397140665
519208 -0.9551504603634428 -0.3490477293550079
519313 -0.9551209667051148 -0.34825450605195973
519419 -0.9565457549139942 -0.3492299039383244
519524 -0.9563262713853283 -0.34900916787192987
519630 -0.9568372881699464 -0.34870452035753585
519735 -0.956798637387658 -0.3482204858013106
519841 -0.9577502985874292 -0.3499759708529815
519946 -0.9548411972220155 -0.34806957635044383
520052 -0.9553318958481918 -0.3490749863073032
520158 -0.9546182473864578 -0.34816095680392845
520263 -0.9550498416558743 -0.34790687591495656
520369 -0.9559502494828447 -0.34818495409921396
520474 -0.9567662269299172 -0.3482278758363816
520580 -0.9569061823016046 -0.3480985846293668
520685 -0.9571443945795582 -0.34836595500142864
520791 -0.9560502436383359 -0.34805604004698665
520897 -0.9557155180781752 -0.34796184605242275
520897 -0.9552109096496079 -0.3477413476476689
521004 -0.9560692638926821 -0.3473205905108865
521112 -0.956874058656985 -0.34735736354136854
521220 -0.9567018171560161 -0.34728046482970026
521327 -0.9547040054975763 -0.3470507655393532
521435 -0.9555627906997197 -0.34716035947804535
521543 -0.956773765240707 -0.3475593127187999
521651 -0.9557194725437409 -0.34689998730406657
521758 -0.9550573702151196 -0.3473815685078959
521866 -0.9599370457072266 -0.34747571966442714
521974 -0.9572991608166707 -0.3466909461783239
522082 -0.9576096803636632 -0.3464705235325742
522189 -0.957463200865709 -0.3465031259979666
522297 -0.9575252408672955 -0.3465432829536125
522405 -0.9570026848183981 -0.34628202921013085
522512 -0.9572456206814131 -0.3470594112533277
522620 -0.9561333613590619 -0.3461187839505334
522728 -0.9559441993869243 -0.3467783692158151
522836 -0.9571807753383084 -0.3455201701959805
522943 -0.9567762488769 -0.3469807324913649
523051 -0.957007165354461 -0.34518842323754456
523159 -0.9569364177050825 -0.3461518778328583
523267 -0.9580522013947709 -0.34564437849226454
523374 -0.9596013341855728 -0.34630111330472185
523482 -0.9523237921322407 -0.34441325704333964
523590 -0.9580664528950884 -0.34543757069236497
523697 -0.9579146730432664 -0.34569187548799707
523805 -0.9565660293102979 -0.34576241732629903
523913 -0.9592547161680377 -0.344827859965214
524021 -0.9614523107506165 -0.3454536481050587
524128 -0.9572888288980715 -0.34458785490529237
524236 -0.9610471769894603 -0.3454271954714737
524344 -0.9574755280409032 -0.3447812496838176
524452 -0.9679051159344201 -0.3471078053879289
524559 -0.9661963385914542 -0.34850287723868145
524667 -0.956209389422636 -0.3443764817494398
524775 -0.9603152023998176 -0.3445004259933714
524883 -0.9537394557766377 -0.3428566868590641
524990 -0.9468880560027858 -0.34005041756685817
525098 -0.9493699010485905 -0.3414536360720158
525206 -0.9580542540058636 -0.34401076779405615
525313 -0.9611117769610206 -0.34477836716537147
525421 -0.9560453356996155 -0.3434914496996631
525529 -0.9572431778696177 -0.3441891336584158
525637 -0.9595356392185475 -0.34423347385664627
525744 -0.9575340917387745 -0.3428230005266322
525852 -0.9587717763031354 -0.3433220630148355
525960 -0.9546526816887635 -0.34226480793026354
526068 -0.9552308089038237 -0.3425764131629546
526175 -0.9582253055647995 -0.34262316145186594
526283 -0.9588572544498809 -0.3428945057337448
526391 -0.956652845420472 -0.34277336722702584
526498 -0.9593945016520461 -0.3431179291654171
526606 -0.9522634619084767 -0.3410512483825493
526714 -0.9587744734533867 -0.3424685520782871
526822 -0.9588457972052473 -0.34237636228307405
526929 -0.9582419873028639 -0.3425403251312331
527037 -0.9590489462651904 -0.3422993467763958
527145 -0.9571970706564579 -0.3423401074003238
527253 -0.9579522460298135 -0.3420335301543688
527360 -0.9577423535460773 -0.34241815486129984
527468 -0.9576417773871669 -0.34169336345149104
527576 -0.9570431787108262 -0.3411885716845197
527683 -0.9579793167670632 -0.3413485684175918
527791 -0.9591905152631053 -0.34176522810135557
527899 -0.9597782434214827 -0.3422321551755466
528007 -0.9589936337846777 -0.3418783412878237
528114 -0.9594209279648025 -0.34219670208120784
528222 -0.9549059818579544 -0.3409681887785323
528330 -0.957061961205616 -0.3415154384937824
528438 -0.9577023117166734 -0.3410424395706847
528545 -0.958626546734571 -0.34068613194269576
528653 -0.9585709557535924 -0.3403021396219586
528761 -0.9588277004179999 -0.3408411568442154
528869 -0.9592244312106286 -0.34045021543182186
528976 -0.9582468036894622 -0.34032038255601027
529084 -0.9588025497890464 -0.3403083005154605
529192 -0.9579367076446237 -0.34017458287557784
529299 -0.9572683211677255 -0.3397389618557157
529407 -0.9583359404450414 -0.339336802924177
529515 -0.9587849643097182 -0.33946361992763724
529623 -0.9593593205428386 -0.34016703761987677
529730 -0.9603546948199663 -0.3399466599225527
529838 -0.9603514958966164 -0.339577255685773
529946 -0.9587870320531936 -0.3389223147582597
530054 -0.9585910986797364 -0.3391428205234304
530161 -0.9577456374945751 -0.33921537206278923
530269 -0.9583426455018674 -0.3389874373568673
530377 -0.9590836055445914 -0.33821757859233237
530484 -0.958899812557617 -0.3383904477458155
530592 -0.959982349231388 -0.3389720924508958
530700 -0.9594176518005656 -0.3384649093357028
530808 -0.9603335104066318 -0.3395229977600448
530915 -0.9587494915506647 -0.33825302961139053
531023 -0.95812640601568 -0.3382994171989993
531131 -0.9575963789245248 -0.33878199107326185
531239 -0.9595390163964743 -0.3383562972436917
531346 -0.9581395127550859 -0.3391475508930508
531454 -0.9605929872040312 -0.33778180808589514
531562 -0.9591452294215143 -0.3382822776644161
531670 -0.9598967470792614 -0.33804638742873866
531670 -0.9597241600425211 -0.3374953167103429
531779 -0.9593346536261546 -0.33825604570788587
531889 -0.9590712098692671 -0.3380244368063801
531999 -0.9585271516639 -0.3375148838613811
532109 -0.9579129581976472 -0.33801272572602287
532219 -0.9610022858803929 -0.33756601495953964
532329 -0.9574368449326432 -0.33708653594488475
532439 -0.9611841912967009 -0.33697827620843623
532549 -0.9598355367427891 -0.3367878870922916
532659 -0.9596981481509326 -0.33727331999752985
532769 -0.958080533543799 -0.3365889377530727
532879 -0.9586202747090675 -0.33722748713338396
532989 -0.9587055914539067 -0.3365312514238445
533099 -0.9589922970009057 -0.33656904967347423
533209 -0.959596674066903 -0.3361824123323998
533319 -0.9599859100519419 -0.3361435915169906
533429 -0.9603672730835967 -0.336236529936866
533539 -0.9601484381344142 -0.3364741623806863
533649 -0.960399792249884 -0.3357412104477454
533759 -0.9595652583545254 -0.3360373947062892
533869 -0.9595342438182033 -0.335823101091025
533979 -0.9599762939829095 -0.33604158767578873
534089 -0.9596669094794492 -0.33516648092736173
534199 -0.9597589337118535 -0.3353557452294878
534309 -0.9609001105617315 -0.3350893316863694
534419 -0.9595728583367352 -0.3353989539604606
534529 -0.9608267327170229 -0.3348476259014287
534639 -0.9600465551707442 -0.3350747851910813
534749 -0.9599762538235316 -0.33540668884119024
534859 -0.9592100399292289 -0.33555244284933006
534969 -0.9592628853215307 -0.33486572501019957
535079 -0.960515179734978 -0.3346201426894548
535189 -0.9597378316566897 -0.3348381554304641
535299 -0.9593890556575734 -0.3351920307592394
535408 -0.9619058830226527 -0.3342733032793114
535518 -0.9616592663164132 -0.3347854682557877
535628 -0.9599416938700904 -0.3339552697605575
535738 -0.9590931007121183 -0.33394803968775966
535848 -0.9597560201419063 -0.33438035214071826
535958 -0.9601668648095057 -0.3337682107242627
536068 -0.9604402133470167 -0.333450871070145
536178 -0.9610689342585252 -0.3335640110683318
536288 -0.9612788629891222 -0.33372824347134794
536398 -0.9607276732574277 -0.3331304222036809
536508 -0.9605623937763109 -0.333486391470355
536618 -0.9599810267109945 -0.33335206803380935
536728 -0.9599988715474649 -0.3335490149089422
536838 -0.9600233330411984 -0.3330881175854353
536948 -0.9608610369370745 -0.33276982817536355
537058 -0.9603807367700538 -0.33264682785360117
537168 -0.9616033140657656 -0.33297103204954487
537278 -0.9619391038478454 -0.33294450125812847
537388 -0.9615760077332037 -0.3323692075716438
537498 -0.9608580212934906 -0.33259083310192944
537608 -0.9609774118554436 -0.3326910231861812
537718 -0.9602759574296299 -0.33268666328727503
537828 -0.9601143459828158 -0.33197177950044304
537938 -0.9610534886229889 -0.33183336033391203
538048 -0.9613678839643399 -0.33184455124906764
538158 -0.961638227195465 -0.3323122961201104
538268 -0.9619625081259771 -0.3313726950255849
538378 -0.9615980676813611 -0.3312927362607001
538488 -0.9617977251210691 -0.33098536158250835
538598 -0.9613167109992233 -0.3328160279869896
538708 -0.9603852846801239 -0.3312702586316072
538818 -0.960427829118697 -0.332258154826378
538928 -0.9613422794475989 -0.3310852202891686
539037 -0.9618022776071584 -0.33070145161403103
539147 -0.9622367988376683 -0.33144412731618444
539257 -0.9619615184172781 -0.3310209926880338
539367 -0.9615911789145721 -0.33148698490812845
539477 -0.9606573530407935 -0.33130989113447035
539587 -0.9607602270291263 -0.33143092611317987
539697 -0.960326508003801 -0.33134780810564685
539807 -0.9611404913003299 -0.3299545044974431
539917 -0.9623988080249082 -0.33038610752556674
540027 -0.9627630840669557 -0.33060010462261935
540137 -0.9620009723887749 -0.33015920851347413
540247 -0.9619866943327112 -0.33028869594098814
540357 -0.9614504541507425 -0.33048050108856275
540467 -0.9606731240730784 -0.3299860941901373
540577 -0.960567047273297 -0.3296419344940749
540687 -0.9600473593040736 -0.32945896362147165
540797 -0.9606261857919249 -0.3294107046480963
540907 -0.9624394863866821 -0.329246369632786
541017 -0.9622296053072991 -0.32980237250007377
541127 -0.962254580885763 -0.3290595480409615
541237 -0.9618826059788468 -0.32893006833579935
541347 -0.9613314368814624 -0.3292764853347755
541457 -0.9610006720535005 -0.3292920865358147
541567 -0.9614691188936174 -0.3292262409431199
541677 -0.9618549821934661 -0.3286981516337579
541787 -0.9623650329035353 -0.32835643375959556
541897 -0.9627932534844823 -0.3283018101000044
542007 -0.9627263778368557 -0.32835958068804566
542117 -0.9627218300049292 -0.32841487648861467
542227 -0.9621452886607824 -0.32818315922156044
542337 -0.9621265844280295 -0.32826037903297794
542447 -0.9614722056158574 -0.3280169615708337
542557 -0.9619074653545305 -0.32802939101198986
542667 -0.9627732724097283 -0.3275528099044753
542667 -0.9622144493560464 -0.3276731006869664
542779 -0.9622619387470324 -0.32768729475612907
542891 -0.9634875948012426 -0.3282383720654495
543003 -0.962403924909478 -0.32734081294017187
543115 -0.9621314505848045 -0.3276402389861562
543228 -0.961176305237252 -0.3274454954374184
543340 -0.9617521126947868 -0.3270974427955171
543452 -0.9626984488119638 -0.3268888070078002
543564 -0.9625371144069687 -0.32733612981830956
543677 -0.9641573872130988 -0.32686471582310306
543789 -0.9624549368918089 -0.3268740300429989
543901 -0.96396533711669 -0.3267452710507831
544013 -0.9629519410335966 -0.32678946563919764
544125 -0.9626699431183072 -0.3265448565705505
544238 -0.9618654730521967 -0.32614999072207373
544350 -0.9625265759034366 -0.32595911124013544
544462 -0.9625939847094307 -0.3257428688697601
544574 -0.9629032561567108 -0.3260145264565968
544687 -0.96217235057168 -0.3254221209098685
544799 -0.9639454028342117 -0.3261736615041943
544911 -0.9628870679174917 -0.32520353024395715
545023 -0.962796857160642 -0.3260716541424398
545136 -0.9621745993680447 -0.32582568773439435
545248 -0.9624757270484245 -0.32501994298689724
545360 -0.9631385566652836 -0.3252520574398955
545472 -0.9635974734501465 -0.3249050171400733
545584 -0.9637431520572715 -0.32521355284925946
545697 -0.9634448801357517 -0.3249518688974639
545809 -0.9635587309367546 -0.32523563554307144
545921 -0.9630240892536268 -0.32499007603300584
546033 -0.9621161020478942 -0.3251130975380413
546146 -0.9627673632026451 -0.32440139926627926
546258 -0.9635893585989913 -0.324610560207742
546370 -0.9633462046114443 -0.3242845459735797
546482 -0.9634712796909313 -0.3245322887242118
546595 -0.9639810225877398 -0.3240590084435623
546707 -0.9638423537054731 -0.32458569051163294
546819 -0.9634655895027332 -0.32402291602875827
546931 -0.9641598698775966 -0.323913667543142
547043 -0.9616577038836666 -0.32401753070537226
547156 -0.9629580165721722 -0.3241946151162096
547268 -0.9636743935057803 -0.3233280642962949
547380 -0.9643547915863313 -0.32354823310023717
547492 -0.9643027291857896 -0.3238301279505355
547605 -0.9635883547128521 -0.3231348263423281
547717 -0.9648005220567402 -0.3234770402328588
547829 -0.9640935749422506 -0.3230474024024183
547941 -0.9626886053476161 -0.3240507994623515
548054 -0.9636079787164529 -0.3227953876194139
548166 -0.9632521935291458 -0.32272780128372286
548278 -0.9638244989648745 -0.3220048509520898
548390 -0.9643021855639187 -0.32249923442161826
548502 -0.9635920646133592 -0.3220651599185179
548615 -0.963959071192164 -0.32237793218521366
548727 -0.9634509648072006 -0.3219138395391691
548839 -0.9635345330266089 -0.32243626581748497
548951 -0.9642084901444327 -0.32248409390572896
549064 -0.9641048459505943 -0.32180714260459464
549176 -0.963901958537798 -0.3217160979873677
549288 -0.9661083589089734 -0.3223617675416677
549400 -0.9666522762637455 -0.3218472218517679
549513 -0.9658200350432453 -0.3221274464281133
549625 -0.9671197555813404 -0.32263135843653873
549737 -0.9641310926736625 -0.322454682772386
549849 -0.9642996289189146 -0.32227412362219754
549961 -0.9621865649324537 -0.3204784592636159
550074 -0.9657194099643936 -0.32130844629851857
550186 -0.9641156783818065 -0.3205809144574555
550298 -0.9653309306770423 -0.3212448683622707
550410 -0.9626604180145634 -0.32011070510800665
550523 -0.9658161866688659 -0.32100732591376097
550635 -0.9637718570280768 -0.3207120801258523
550747 -0.9612714619024573 -0.32016299277016746
550859 -0.9651571182144656 -0.3207617846683366
550972 -0.9662270255803184 -0.31944321388770275
551084 -0.9644822420431124 -0.31990183797714183
551196 -0.9667405441830931 -0.3199501798132685
551308 -0.9659961131670485 -0.31989336523006656
551420 -0.9648275568973536 -0.3194603030710856
551533 -0.9646337932077723 -0.3197922347060145
551645 -0.9643508634479764 -0.3196942621404141
551757 -0.9629138250138579 -0.3196983116396569
551869 -0.9650966758673368 -0.3190456787266178
551982 -0.9660433579689391 -0.318813847019992
552094 -0.964829425501744 -0.319092923217569
552206 -0.9650425117791799 -0.3194771047806074
552318 -0.9650772653716004 -0.319064706661019
552431 -0.9645824353682853 -0.318925483506329
552543 -0.9641587521025814 -0.31879390871090746
552655 -0.9640440801728831 -0.31863641609713034
552767 -0.9643854284175578 -0.31779880839097124
552879 -0.9648371209933447 -0.3180970244244361
552992 -0.965011946363399 -0.31780062611603055
553104 -0.9659636753233967 -0.3178478550309284
553216 -0.965754967117063 -0.31714413247902884
553328 -0.9655472722454843 -0.3185793541302944
553441 -0.9652101054232037 -0.3180426975835252
553553 -0.9646108071536484 -0.31836531724461886
553665 -0.9647848771624792 -0.3177306058093307
553777 -0.9652200665993741 -0.3178527883382985
553890 -0.9655727695471846 -0.3177776529072334
553890 -0.9653495744557247 -0.31743784323348545
554004 -0.9656078128446486 -0.31771794309657453
554119 -0.9658934147017326 -0.31743697934159065
554233 -0.9651409366510968 -0.31722527164378234
554348 -0.965638263967746 -0.3172656231656241
554462 -0.9646716003932014 -0.31722830742612373
554577 -0.9651075670450607 -0.3171117350619344
554691 -0.9658966628376044 -0.3166486708149416
554806 -0.9649102195544699 -0.31658344034953845
554921 -0.9659917298923171 -0.31679294373126776
555035 -0.9658431637053265 -0.31658209276051713
555150 -0.9656219535282135 -0.31625639745972667
555264 -0.9650869525185389 -0.31624390075493924
555379 -0.9643714348172203 -0.3168161987245448
555493 -0.9646105251589558 -0.3161606334470391
555608 -0.9653188744007362 -0.3155968542393324
555722 -0.9659973526586313 -0.31538676076564287
555837 -0.9663545188645334 -0.3158156574655396
555952 -0.9658324307602946 -0.31507657289547847
556066 -0.9663663888013684 -0.31537532900889115
556181 -0.9647770638349202 -0.3147666200242376
556295 -0.9653116828504161 -0.31544841971099297
556410 -0.9649950911076105 -0.31411819308326855
556524 -0.9658955762204259 -0.31395226988604386
556639 -0.966329894952874 -0.3145238982876144
556754 -0.9668952255628922 -0.3146918363190765
556868 -0.9663866411329289 -0.31489812932048045
556983 -0.9660864888049833 -0.31450885604621315
557097 -0.9656180961251835 -0.31532542227060867
557212 -0.9660609780011843 -0.3151373725739405
557326 -0.9639777006774356 -0.315290843382693
557441 -0.9667612855578138 -0.3149207826332844
557555 -0.9662653728328354 -0.31389095898191577
557670 -0.9667559881045322 -0.3143420296634363
557785 -0.9668667149994884 -0.3138763332600805
557899 -0.9664631362280859 -0.314250193396109
558014 -0.9660896310682998 -0.3140688989528724
558128 -0.9653051719342016 -0.3141619473609074
558243 -0.9654945320703835 -0.3137997335392662
558357 -0.9660692130002129 -0.31346182453024757
558472 -0.9668545098215279 -0.31295276717929765
558586 -0.9673006489564437 -0.3131735346918358
558701 -0.9667865766484465 -0.3128665809705598
558816 -0.9675218000227731 -0.3130252581677732
558930 -0.9664585855101139 -0.31309863699049706
559045 -0.9652720146624677 -0.31303916213553523
559159 -0.9660053982952299 -0.31270159989071783
559274 -0.9664317330576317 -0.3125495107894182
559388 -0.9666522163925719 -0.31199063423145784
559503 -0.9677288765865757 -0.3128456960760737
559618 -0.9664139400996723 -0.31166231527346794
559732 -0.9672764056907369 -0.31200019879337487
559847 -0.9665622644539383 -0.31221149109303326
559961 -0.9671969057308379 -0.31244310339982956
560076 -0.9665160919918635 -0.3120706540891271
560190 -0.9656742422187196 -0.31209531704094085
560305 -0.9661295225604422 -0.3123559282904235
560419 -0.9677868913314356 -0.309518638335678
560534 -0.9682922820171969 -0.30971542874842956
560649 -0.9675438170068054 -0.31300819586423645
560763 -0.9679379962699013 -0.3110531336585327
560878 -0.9673985457647677 -0.31060904113314125
560992 -0.9665901406514155 -0.3113002965568586
561107 -0.9661628206105487 -0.31108565555563256
561221 -0.9662718308845429 -0.3109723012886676
561336 -0.9659117807643776 -0.310895343680758
561450 -0.9687875066837287 -0.31067054048191506
561565 -0.9686453011837559 -0.3108453246800081
561680 -0.9673516441105864 -0.3102295218554233
561794 -0.967140211522273 -0.31059474304996343
561909 -0.9665435069274582 -0.3102360537791057
562023 -0.9655234185498581 -0.3106281698565275
562138 -0.9668791567260357 -0.31007003781093595
562252 -0.966262880033995 -0.30960558254352344
562367 -0.967864848689767 -0.309549785283813
562482 -0.9678128859050266 -0.3097348941106459
562596 -0.9685148701933111 -0.3097316485126428
562711 -0.9679910249890383 -0.3095310203899157
562825 -0.9651977795164489 -0.309053947340695
562940 -0.9673276658236919 -0.3099885746267672
563054 -0.9664419941055185 -0.30889071257732
563169 -0.9676146206804773 -0.30879797341225185
563283 -0.9678802681564752 -0.3085319905818595
563398 -0.9673977870004594 -0.3084418863656544
563513 -0.9685840675880835 -0.3095025378706066
563627 -0.9673114425276343 -0.3089078196553695
563742 -0.9686424401688685 -0.3090844306919487
563856 -0.9675895373116977 -0.3094660311405426
563971 -0.9670631686004098 -0.30832557481206857
564085 -0.9673898066932233 -0.30838565128941825
564200 -0.9681877648495958 -0.30724610304159194
564314 -0.9685362786390473 -0.3079226010086919
564429 -0.9675264386608021 -0.307997672736853
564544 -0.9675500190940018 -0.3083586728098064
564658 -0.9671971281474394 -0.3073354679002054
564773 -0.9669985851488707 -0.30794374462667096
564887 -0.9670788771163354 -0.3078623662598273
565002 -0.9679264292098101 -0.30765082187131404
565116 -0.9683085057847113 -0.306901828118187
565231 -0.9687790528095488 -0.3074107963009146
565346 -0.9687873726097476 -0.307115943849503
565346 -0.9684093265517358 -0.3068222323650833
565462 -0.9687548539606499 -0.3071654945933366
565579 -0.9661412331555136 -0.30699907490570477
565696 -0.9681966077052074 -0.30637767426531626
565813 -0.968041985838251 -0.3067829785051251
565930 -0.9690159360208794 -0.30657774398132953
566047 -0.9689128571059717 -0.30666955414081754
566164 -0.9697173096959245 -0.3062882486902136
566281 -0.9678088677087066 -0.3061086922870178
566398 -0.9680142925041112 -0.3060397460678661
566515 -0.9671527210780115 -0.30606025359202893
566632 -0.9681015672541762 -0.30582371595446234
566749 -0.9692148360079476 -0.30515224881475894
566866 -0.9689987442933548 -0.3049431037318777
566983 -0.9691975712842855 -0.3055978200975298
567099 -0.969450177746127 -0.3055498624015399
567216 -0.968985437748223 -0.30527715893545443
567333 -0.9682103976162151 -0.30517639397623464
567450 -0.9674100638639933 -0.3055330358162238
567567 -0.967746337852683 -0.30460607354570973
567684 -0.9690352183309304 -0.3048656285862936
567801 -0.9699346007266507 -0.30462810050794314
567918 -0.9689502256681356 -0.3046971547706381
568035 -0.96906595931179 -0.3045639774728341
568152 -0.9689198213137491 -0.30478730984226826
568269 -0.9685039483341947 -0.3047951599859015
568386 -0.9680538920250562 -0.304692371884554
568503 -0.968445304066956 -0.3040547129809688
568620 -0.9687452651150972 -0.3040030273202492
568736 -0.9703851364202718 -0.3036603192648263
568853 -0.9706033159892703 -0.30427025224184395
568970 -0.9683008450182125 -0.3041727276209621
569087 -0.9684583889425864 -0.30368814258398413
569204 -0.9685206434640771 -0.3039578611192301
569321 -0.9680762154817807 -0.30439398991090844
569438 -0.9683594591894481 -0.30361505530233873
569555 -0.9682995426193426 -0.30273070039474725
569672 -0.9685917989709604 -0.3023787911872651
569789 -0.9700388032477484 -0.3037104767123624
569906 -0.9694991515523192 -0.30357457003409666
570023 -0.970883356696344 -0.3029240061652248
570140 -0.9693855366952571 -0.30267468550215415
570257 -0.9688926778548481 -0.30324647223944506
570373 -0.9684003202682491 -0.30240750902107755
570490 -0.9689160714018179 -0.30193074529572655
570607 -0.9698044136208244 -0.3017648373632972
570724 -0.9695032853349967 -0.3024070826909823
570841 -0.9699411329392021 -0.3016051051685062
570958 -0.9694249206650484 -0.3018801414755573
571075 -0.9692534160737396 -0.30199558243526287
571192 -0.9685512416644423 -0.30181715493828254
571309 -0.9691461745647076 -0.3012479941530599
571426 -0.9698189699987626 -0.30119258748159833
571543 -0.9701688151371097 -0.30122644897686346
571660 -0.9702194808342902 -0.30113830296235783
571777 -0.9698234335645577 -0.3014406755711101
571894 -0.970802225523697 -0.30061657331595093
572011 -0.970839818950197 -0.30127059993410543
572127 -0.9678828843316869 -0.30164077235517445
572244 -0.9695872805132921 -0.30132350416510867
572361 -0.9702513242141092 -0.30088432823276895
572478 -0.9712753200594818 -0.30021847900891113
572595 -0.9706028636403546 -0.300736847664162
572712 -0.9694183145845638 -0.30131088731610484
572829 -0.9684729693845118 -0.3010697067575924
572946 -0.9723155862642148 -0.3003232271657603
573063 -0.971956635424001 -0.3001419899127761
573180 -0.9680070341338058 -0.3008557869556105
573297 -0.9697290574160403 -0.2997375735472497
573414 -0.9711872632763929 -0.29960582520095225
573531 -0.9704338458996112 -0.2993358832455412
573648 -0.9706876860963175 -0.2993050996403912
573764 -0.9703204289521137 -0.2995374376373602
573881 -0.9704932682580454 -0.3000083807289669
573998 -0.9699653420641801 -0.2986732061342232
574115 -0.9700792607784315 -0.2987449130135601
574232 -0.969938333110671 -0.2985483032019507
574349 -0.9707499389245763 -0.2986855545437425
574466 -0.9712824149638322 -0.29850889928461105
574583 -0.9710990557989496 -0.2984630028490212
574700 -0.9709725066385804 -0.2982456040848457
574817 -0.9703809316478663 -0.2982359938256352
574934 -0.9696608943994817 -0.2984264048349154
575051 -0.970715998666332 -0.2985211141317639
575168 -0.9709329189849578 -0.29783438573809773
575285 -0.9709302603473328 -0.29772442340033484
575401 -0.9708321128986794 -0.29777552953780856
575518 -0.9710609007720818 -0.2974337697405551
575635 -0.9708931017086205 -0.2979838185747723
575752 -0.9704144321952102 -0.2977079802821885
575869 -0.9701547069422284 -0.29756778890277463
575986 -0.9694644680469284 -0.29697530389677207
576103 -0.9714347877998833 -0.29901068980751216
576220 -0.9721436601632802 -0.29808769716892963
576337 -0.9697687406860357 -0.2970514908541773
576454 -0.9707310458917164 -0.29696414002455457
576571 -0.971648848530124 -0.2973419072319418
576688 -0.9718893478912466 -0.29648489628393704
576805 -0.9705135553241637 -0.2972186454337495
576922 -0.9704926386782385 -0.2972653817750418
577039 -0.9705382275389189 -0.29686846888883733
577039 -0.969660498686546 -0.2964478899991763
577158 -0.9700387408838725 -0.29595317807336713
577277 -0.9715683879746393 -0.2961677066591406
577397 -0.971683034035978 -0.2959346852951301
577516 -0.9712178222573628 -0.2956954676917461
577635 -0.9708868196906872 -0.29615310427167235
577755 -0.970397020904223 -0.2958207085508752
577874 -0.9711159549490113 -0.29556878890405536
577993 -0.971642454567726 -0.2953608779566667
578113 -0.9710225950307103 -0.2941798738439904
578232 -0.9706207800031985 -0.2942369114189059
578351 -0.9725762652618796 -0.29506600978593167
578471 -0.9712164926043501 -0.29476419555427247
578590 -0.970658898681761 -0.2950683205263547
578709 -0.9712757832610092 -0.2952780153646161
578829 -0.9711949147002666 -0.2944291527853351
578948 -0.9720094987344635 -0.29423855511225616
579067 -0.9723881111033742 -0.29449367206422933
579187 -0.9722372937459703 -0.2946741350967318
579306 -0.9717706303544843 -0.2940367062181445
579426 -0.9718970987816591 -0.2941018199555366
579545 -0.9711665547533193 -0.29474855790156707
579664 -0.9715509952239051 -0.29430785461935577
579784 -0.9709815591001135 -0.2939525494836493
579903 -0.971757143456728 -0.29347711376286073
580022 -0.9720978871889971 -0.2938593402934432
580142 -0.9741003454952724 -0.2940584594808279
580261 -0.9722776917736639 -0.29414658096108454
580380 -0.971939594004588 -0.29269205924822006
580500 -0.970863567321183 -0.29332062782944235
580619 -0.9715212124919475 -0.2932275411667419
580738 -0.971813101389796 -0.2928060431292055
580858 -0.9720599815209837 -0.2922384515057713
580977 -0.9720637951058295 -0.2928315600308839
581096 -0.9725950957652924 -0.2926229408214734
581216 -0.9732573869208879 -0.2922196015097046
581335 -0.9738785882712078 -0.2929483381132344
581454 -0.9703908523344843 -0.29255711569241766
581574 -0.9712040479625105 -0.2916916795817123
581693 -0.9728861688862875 -0.2918821709703075
581813 -0.9735895649195375 -0.29145624507521334
581932 -0.972835561463825 -0.29211220768866936
582051 -0.9729822570094168 -0.29219760364791125
582171 -0.9717546987289064 -0.29255590682327137
582290 -0.9686356278807035 -0.29022950920084056
582409 -0.969355520387803 -0.2901807935697921
582529 -0.9734663965245682 -0.290171760969796
582648 -0.9726111630121845 -0.29094210782516955
582767 -0.9724751612726756 -0.2909457467215218
582887 -0.9728722960100451 -0.2909306636595889
583006 -0.972452469009966 -0.2904305583548729
583125 -0.9721903517222531 -0.2912893845774705
583245 -0.9714738878696736 -0.29093476722345035
583364 -0.9720959811178785 -0.2903673300113703
583483 -0.9720377476831772 -0.2901828741500185
583603 -0.9730498285944821 -0.2902112001058922
583722 -0.9727017586831584 -0.29028149251848206
583841 -0.9729577529291062 -0.2898440067529572
583961 -0.9724290636736882 -0.28990728821505163
584080 -0.9717426471951418 -0.29019414955573114
584200 -0.9715294037257423 -0.28983577500689145
584319 -0.9716345351793474 -0.28887901080762246
584438 -0.9734397033486762 -0.2887060348705097
584558 -0.9712157801553415 -0.289624640996475
584677 -0.9724733169363927 -0.2891646711242886
584796 -0.9722108795303119 -0.2885821163182559
584916 -0.971281008962781 -0.28909842793288976
585035 -0.972060048805334 -0.2894739360559418
585154 -0.9732945648087412 -0.2890508648552223
585274 -0.9727062155358805 -0.2899127609794509
585393 -0.9773895095289818 -0.2876188148289093
585512 -0.9783937525835649 -0.28946421565104064
585632 -0.9700846863049378 -0.2876683229518217
585751 -0.9726204244130979 -0.2877847147603649
585870 -0.9730245560244941 -0.2886935379197093
585990 -0.9737394180999038 -0.28897286280168677
586109 -0.9723593687822556 -0.2879907960631481
586228 -0.9720399270124381 -0.28785448969118266
586348 -0.9706038951975958 -0.28701101542164104
586467 -0.9763128555613763 -0.2873389243048535
586587 -0.9732674543196339 -0.2871589567467274
586706 -0.9732022209967043 -0.2874848779865219
586825 -0.9728996043957794 -0.2874713482524276
586945 -0.9727201487119259 -0.287550832271911
587064 -0.9731557316098572 -0.2873046788474947
587183 -0.9736704712820621 -0.28664101031504124
587303 -0.9741359793142983 -0.28677605362858244
587422 -0.973625061747128 -0.28701772484908
587541 -0.9732317811942519 -0.2869976474404323
587661 -0.9730625767825036 -0.28688268464811634
587780 -0.9735088601492928 -0.28640886358164663
587899 -0.9729409117843512 -0.28636374330441994
588019 -0.974094351539226 -0.2860936633815053
588138 -0.9734756167734923 -0.2855844988268125
588257 -0.9747568867683306 -0.28615878691856655
588377 -0.9727457176025265 -0.2860702555407938
588496 -0.9758423029975918 -0.28746269960113796
588615 -0.9702057252217368 -0.28674814746038807
588735 -0.9762866165675371 -0.2867093713376533
588854 -0.9744678702541194 -0.2860093001344105
588974 -0.9744697821540542 -0.2852657510635672
588974 -0.9714383531919706 -0.2850405532340648
589095 -0.9732935030586684 -0.2851502293862684
589217 -0.9740914075306185 -0.2847259735200897
589339 -0.9720053335844252 -0.28455881638428177
589461 -0.9710835740485834 -0.283340350350282
589583 -0.9767349084961162 -0.28628870185799216
589704 -0.9750381925775528 -0.28469359665328775
589826 -0.9729841449723765 -0.2846260493797877
589948 -0.9732645269369825 -0.28433527687140187
590070 -0.9733589108898608 -0.284316104526911
590192 -0.9750894137134476 -0.28377146271544335
590313 -0.9750435538594849 -0.2842256271617554
590435 -0.9737686924522626 -0.2841680394987746
590557 -0.9752542149395683 -0.28443387332389725
590679 -0.9727822176077037 -0.2843826939986169
590801 -0.9754075224610647 -0.2843877277096015
590922 -0.9744905285904649 -0.2835190926378671
591044 -0.9751859621652151 -0.2830358011703578
591166 -0.9757081212681302 -0.2829245522777283
591288 -0.9752770276511608 -0.2832099573403607
591410 -0.9739643918184628 -0.28336102730491486
591532 -0.9737116543051497 -0.28293765172360585
591653 -0.9735131509533583 -0.28351670870638623
591775 -0.9730330037062542 -0.28285624886461175
591897 -0.9749282704566757 -0.282328434248153
592019 -0.9748242578168699 -0.28233170594940116
592141 -0.9733747162089463 -0.282310274682208
592262 -0.9745918225272985 -0.2823845544159677
592384 -0.9741507178703734 -0.28207275615231403
592506 -0.9743633175469635 -0.283418249980726
592628 -0.9738447282697428 -0.2833956307583782
592750 -0.9699590066880508 -0.28210018297491873
592871 -0.9742958923243853 -0.2819816028542586
592993 -0.9731049708916747 -0.2812306714977792
593115 -0.9750430866063098 -0.2813578477998389
593237 -0.9752363936510158 -0.28149865907004407
593359 -0.974273635757826 -0.28114642122573247
593480 -0.9747592678252905 -0.28145015738390106
593602 -0.9763655076146779 -0.2824092616742586
593724 -0.9742962823574304 -0.27962560680836906
593846 -0.9777621388281328 -0.2796889211986056
593968 -0.9726820619459053 -0.28093344298030043
594090 -0.9740932619193342 -0.28113682546712376
594211 -0.9750298293284704 -0.2807874073156728
594333 -0.9782456758575588 -0.28153721979938895
594455 -0.9744851334874071 -0.28122551607164736
594577 -0.9722764938254178 -0.28117546494025836
594699 -0.9678233435763771 -0.28110673970963784
594820 -0.9793351767428283 -0.27727494511892486
594942 -0.9719869887500779 -0.276890227855506
595064 -0.9796128219489243 -0.28034085261845565
595186 -0.9758141099501979 -0.2796598057564165
595308 -0.9733833511364115 -0.2801642858604855
595429 -0.9755358337447222 -0.28005233083455366
595551 -0.9739359087363244 -0.28002894134804485
595673 -0.9774465347280332 -0.2796943632964692
595795 -0.9735059295455264 -0.27892482904660915
595917 -0.9741235065681227 -0.2787615220106622
596038 -0.9748843218680486 -0.2796204826509175
596160 -0.9770587271982772 -0.2785799277125611
596282 -0.9752882061419087 -0.27917243783641577
596404 -0.975121857405739 -0.27891117694861145
596526 -0.9746809234637953 -0.27850323173381986
596648 -0.975426223364286 -0.27809570618761525
596769 -0.974463809832302 -0.27816827317138165
596891 -0.979355976001081 -0.27852038464333534
597013 -0.9847659507984411 -0.2786215350036962
597135 -0.9703087644019401 -0.277518776073681
597257 -0.9758992869646215 -0.27804158821342845
597378 -0.9784762589317676 -0.27832567421783816
597500 -0.9710222610492967 -0.27471666682655943
597622 -0.97478689786296 -0.27696401770165063
597744 -0.975971001488103 -0.27416478047106396
597866 -0.9686814221889449 -0.26741182125543317
597987 -1.0090371532187843 -0.287900952658552
598109 -0.9974715031466818 -0.2737252303792626
598231 -0.9827954787929328 -0.2821728521728338
598353 -0.9753019457235075 -0.27816653293321564
598475 -0.9791389165358094 -0.2813503044136406
598596 -0.9723101412484735 -0.2739059327009958
598718 -0.9826899175989903 -0.27778837267889656
598840 -0.973381864403988 -0.2805585321030483
598962 -1.0000027851469717 -0.28246684529516547
599084 -0.9908429240673081 -0.28706441585520637
599206 -0.9816378532688217 -0.2712052684458825
599327 -0.9751595119877825 -0.27490954327356004
599449 -0.9751739712563781 -0.27526891811418275
599571 -0.9716082795536852 -0.27579650691798413
599693 -0.9741556019847311 -0.2745884882355172
599815 -0.970266923555455 -0.2750617737579177
599936 -0.9663908446590419 -0.2750496921355246
600058 -1.000411100946993 -0.27556987679550754
600180 -0.9649273870019325 -0.2679890469548564
600302 -0.9947292807148734 -0.28043273553457737
600424 -0.9759445574547435 -0.2750603536838184
600545 -0.9648794561495118 -0.2735895007087872
600667 -0.9803679221879376 -0.27804467068093014
600789 -0.9739075836157575 -0.27307867932201496
600911 -0.9997756824507101 -0.27898536133139035
601033 -0.9955733374560993 -0.2662832725374035
601155 -1.0189563699778814 -0.28819393427859413
601155 -0.9925195065602276 -0.2659528993382864
601279 -0.9966088956666803 -0.2788651697497244
601403 -0.9764366277488277 -0.27395334249138487
601528 -0.9653601882449756 -0.2731696955931691
601652 -0.9788781801060299 -0.2724545621971748
601776 -0.9745727758738657 -0.2747165593653493
601901 -0.9683938269599972 -0.2701457965874358
602025 -0.9560633679458633 -0.2773082085441756
602149 -0.9509741249037753 -0.2726243381352995
602274 -0.9882260127306883 -0.2742699031381433
602398 -0.9779674389112075 -0.2723370751066682
602522 -0.9765264195461189 -0.2717615236969467
602647 -0.9783782361340136 -0.27283809893950683
602771 -0.9771408175841971 -0.27296309925382445
602895 -0.9773457448292815 -0.2736328362076297
603020 -0.9807587595825172 -0.2742805330952034
603144 -0.9722277626348274 -0.2697336359408758
603268 -0.9758717697104692 -0.27321568000866314
603393 -0.9754728547863134 -0.2721300296346016
603517 -0.9758862250784759 -0.2712733651087294
603641 -0.9744086439961668 -0.2708808463122379
603766 -0.9772831517114667 -0.2721492834194586
603890 -0.9775128041344345 -0.27192828834740473
604014 -0.974640729363975 -0.2712414925877636
604139 -0.9791520989900191 -0.27047902141585695
604263 -0.9780391523874524 -0.2701482991653632
604387 -0.9775071645116078 -0.27099451296054006
604512 -0.9785761763154123 -0.27094156873692843
604636 -0.9759974636848229 -0.27095457445066323
604760 -0.978728544401404 -0.2715503434931364
604885 -0.9772637040343456 -0.2706011875689118
605009 -0.9817882925595691 -0.2704380213305724
605133 -0.9798119050322552 -0.2699734150375488
605258 -0.9844934519333398 -0.27211557185432916
605382 -0.9769037407865633 -0.26885867319541146
605506 -0.9772770196485606 -0.269745914586232
605631 -0.9774757199971768 -0.2704620540038532
605755 -0.9765775903063759 -0.2702974091728552
605879 -0.9773899788769371 -0.2696260899849634
606004 -0.9771278901155276 -0.2690481886605295
606128 -0.9779371557499538 -0.2686488089244164
606252 -0.9813793986163772 -0.2710064311596235
606377 -0.9835518724807519 -0.27048161442198376
606501 -0.9781379626768798 -0.26948692068507957
606625 -0.9767564381504956 -0.2694129057399491
606750 -0.9750264190541799 -0.26836635103259004
606874 -0.9796715453457299 -0.26920113307752863
606998 -0.9768708660315119 -0.26831929279225913
607123 -0.9799111580547659 -0.268677497602489
607247 -0.9716583090528531 -0.26630589899500134
607372 -0.9749163767190973 -0.2662828101449712
607496 -0.9781777534324199 -0.26982055336687866
607620 -0.9768268179558095 -0.2686841657076746
607745 -0.9780067347018265 -0.26792982554314393
607869 -0.9773685128791703 -0.267542686631104
607993 -0.978360835501415 -0.2678246277773729
608118 -0.9784970198041762 -0.26744484310249966
608242 -0.9784753725858513 -0.2675474242544815
608366 -0.9777334258636785 -0.267282382331359
608491 -0.9774756544552305 -0.26736333198782825
608615 -0.976786061629975 -0.2674887128753132
608739 -0.9780250317681362 -0.2665747200228676
608864 -0.9783030989508581 -0.2663932654991781
608988 -0.9787741879377033 -0.26685426473004964
609112 -0.9789751670438231 -0.26657325084026023
609237 -0.978947124414337 -0.26635998314183523
609361 -0.9770876577759118 -0.26682675863574046
609485 -0.9766266260486995 -0.26695233811521574
609610 -0.9792470636623329 -0.26688379397145806
609734 -0.9785772516329792 -0.2660472474705961
609858 -0.9776075987989309 -0.26571509271420773
609983 -0.9785982476703975 -0.26623196831456275
610107 -0.9789313018249396 -0.2657074700598919
610231 -0.9782061886198691 -0.26607492881774036
610356 -0.9812370008201562 -0.2678758620998037
610480 -0.9723274441066915 -0.2659451256268516
610604 -0.9833446858936169 -0.26624257858260225
610729 -0.9804346105759424 -0.2650720813222152
610853 -0.9802050562589688 -0.26558888098785416
610977 -0.9808526616639032 -0.2650060677375929
611102 -0.9786600461238373 -0.265068760131515
611226 -0.9772344167403979 -0.26524611092337463
611350 -0.9750401544557359 -0.2651376273806372
611475 -0.9820732200149791 -0.26462019510038776
611599 -0.9794209953092268 -0.2644507271263201
611723 -0.9801900262029979 -0.26419207829665686
611848 -0.9789940937683314 -0.2647038481114021
611972 -0.9795260971240066 -0.26398508109618046
612096 -0.9794093110251252 -0.26355658004230714
612221 -0.9788869048667334 -0.26400239884800275
612345 -0.9776784159162676 -0.2639775643827219
612469 -0.9793508666463394 -0.26312238679936273
612594 -0.979594695284842 -0.2632305771501724
612718 -0.9796234042266291 -0.26316055542083977
612842 -0.9796106048158103 -0.2634715741148494
612967 -0.979368808770263 -0.26363877925537693
613091 -0.978367488095174 -0.2627441604024642
613215 -0.9782894282138294 -0.26329400762055916
613340 -0.9784877073232876 -0.2626506793670215
613464 -0.9778618685975047 -0.26255626315517955
613589 -0.9834423896813532 -0.2632709128047468
613589 -0.9833726326498593 -0.2632597234276558
613715 -0.9771549582040413 -0.2620720446234607
613842 -0.9786898152881105 -0.26191499407494534
613969 -0.9782497936287917 -0.26236205137004814
614096 -0.9782966756850757 -0.26242157749609485
614223 -0.977820036061493 -0.2622411500861806
614350 -0.9772565326036968 -0.2618971118352645
614477 -0.9760674230644921 -0.26111125814661806
614604 -0.9816562441939711 -0.261740123973577
614731 -0.9787509115573688 -0.2609370862914317
614858 -0.9787850696747915 -0.2612376632972649
614985 -0.9793406486150389 -0.2617945390911203
615111 -0.979146296780436 -0.2615369556291785
615238 -0.9786134966738068 -0.26056228426859124
615365 -0.9795272946158768 -0.26064363269374163
615492 -0.980186415293397 -0.26072387870734265
615619 -0.9797704475330302 -0.26055615781585895
615746 -0.9780759873761059 -0.260458639613425
615873 -0.9803927687584355 -0.26062417671868454
616000 -0.9789223414945634 -0.2609003214512393
616127 -0.9791916924307829 -0.2599160162713251
616254 -0.9796802755672163 -0.2596669959593932
616381 -0.9803775832003057 -0.2597529818304458
616507 -0.9799456391184288 -0.2598363675350636
616634 -0.9803577420979128 -0.25978240545085424
616761 -0.9800427349410133 -0.25988089361207223
616888 -0.9791909521636353 -0.26003921516197953
617015 -0.9794867621318698 -0.2593490266923305
617142 -0.9801717450659402 -0.25935622294981053
617269 -0.97988996262946 -0.2592483459580802
617396 -0.9803459618265404 -0.2592276731570316
617523 -0.9796480904889395 -0.25888852240902893
617650 -0.9785838921497373 -0.2586958728572222
617777 -0.9797025308261037 -0.25888595502869655
617903 -0.977684796072612 -0.2590907203604467
618030 -0.9798090722712384 -0.2585587752963002
618157 -0.9800236224735978 -0.25810488060372255
618284 -0.9812299946645683 -0.2585001073085139
618411 -0.980542870979858 -0.25820660850278954
618538 -0.9808540245417129 -0.25815761161690826
618665 -0.9800031513359195 -0.25826893018317304
618792 -0.9778659038746743 -0.25803125522892806
618919 -0.9792569032945322 -0.25749659909341743
619046 -0.979423844419711 -0.2570176959584369
619173 -0.980221784034716 -0.2570661506255605
619299 -0.9799224144551414 -0.2572163826672016
619426 -0.980831012067196 -0.25736817779452076
619553 -0.9799897601506655 -0.2566973424461767
619680 -0.9783795297814254 -0.256904665243881
619807 -0.9824597790268937 -0.2574134133817339
619934 -0.9824978413261183 -0.25711969099000576
620061 -0.9800115403023237 -0.25616595438904
620188 -0.9810668901770908 -0.25616198964175085
620315 -0.9812218849004444 -0.25647675914601237
620442 -0.9809009573523825 -0.25626003219102506
620569 -0.980836002973179 -0.2563637715100817
620695 -0.9798702650984576 -0.2564562263984562
620822 -0.9805304405314688 -0.2562648857050948
620949 -0.9810182438196355 -0.2562328208503213
621076 -0.9807338715141246 -0.255368424149817
621203 -0.981307411897835 -0.25583962408540506
621330 -0.9816780375427572 -0.25571867192173897
621457 -0.9808335572171832 -0.25535965403331495
621584 -0.9800552079119546 -0.25584869930357196
621711 -0.9799706080587335 -0.2554057747564253
621838 -0.9799892539222425 -0.25465206171801325
621965 -0.9802451922089317 -0.25406296029131487
622091 -0.9808849243871426 -0.25518878518065496
622218 -0.9812076739272532 -0.2548603312769964
622345 -0.980854946584475 -0.2542291871744999
622472 -0.980737182879378 -0.25460151545697085
622599 -0.9799886642135938 -0.25445828477247273
622726 -0.9789188137538051 -0.254210316463059
622853 -0.979010942480537 -0.253689025456097
622980 -0.9834390893996541 -0.25387866498658357
623107 -0.983379709398317 -0.2542990244455155
623234 -0.9819119442230032 -0.2537492870239522
623361 -0.9808658965188369 -0.2533900315652012
623487 -0.9802637215018024 -0.25371969303000524
623614 -0.979945412699049 -0.2537407012711021
623741 -0.9813633620764829 -0.25261834010317014
623868 -0.9811582586982207 -0.25214812612571275
623995 -0.9828998909830589 -0.253431741055113
624122 -0.9821458977135121 -0.2530307604492941
624249 -0.9816752427181021 -0.2525027091790877
624376 -0.9809747261481426 -0.25284681127866104
624503 -0.9809624981921716 -0.2534179424250058
624630 -0.9811737310079967 -0.25237389082204875
624757 -0.9811456278434428 -0.25225733925797467
624883 -0.982100271625556 -0.252264813362766
625010 -0.9824648956970636 -0.2523809142973435
625137 -0.9814988861706682 -0.252000323548162
625264 -0.9811329016118026 -0.2518352153817034
625391 -0.9810659875053795 -0.25289771353506363
625518 -0.9809712309065094 -0.25168306625381803
625645 -0.9814538506472567 -0.25147503214324546
625772 -0.9815645631303591 -0.25116484649907256
625899 -0.981625646599765 -0.2511257708595739
626026 -0.9808688923064899 -0.2509326515732799
626153 -0.9818871022303547 -0.2507920299615492
626280 -0.9804121886301237 -0.2506722612608719
626280 -0.9818443968765113 -0.25110176143479546
626409 -0.981654743770905 -0.2505235318270946
626539 -0.982278712945058 -0.2502070592954722
626668 -0.9820733263804738 -0.25075979449895475
626798 -0.9823878270672145 -0.2503068871209596
626927 -0.981570271741367 -0.25023684677024854
627057 -0.9823112878907395 -0.250844197490849
627186 -0.9810929609114977 -0.2508515918456265
627316 -0.9823876906502007 -0.24978238950176102
627445 -0.981930532123674 -0.24969793891424066
627575 -0.9827381202396622 -0.2497346626256072
627704 -0.9822065269367711 -0.24961397934716725
627834 -0.9821532840365229 -0.24929736763940916
627963 -0.982247301634636 -0.2499299323136023
628093 -0.9806470582423208 -0.24946207268170287
628222 -0.9817390867468072 -0.24929488579177778
628352 -0.9826570604795568 -0.24845640604504649
628482 -0.9825858666922742 -0.24888888220601255
628611 -0.9818868482677275 -0.24903781215096943
628741 -0.9819465717158822 -0.24876342521208095
628870 -0.982057541460275 -0.24885756350977847
629000 -0.9810830910109092 -0.24860124615133522
629129 -0.9814976875938756 -0.24823354080520812
629259 -0.9826137955492409 -0.24805651857268676
629388 -0.9819066830706878 -0.24748624711479605
629518 -0.9825403234433044 -0.2483562192015265
629647 -0.9823084093489605 -0.24734797242849396
629777 -0.9822987544837173 -0.24731471816053774
629906 -0.981222009261135 -0.24780066616657084
630036 -0.9805165173914953 -0.246758545169612
630165 -0.9833970845815526 -0.24705716155230542
630295 -0.9839735839855008 -0.24722556420235536
630424 -0.9825842803579855 -0.24669433372859165
630554 -0.982603009450791 -0.2468168199630651
630684 -0.982431266203126 -0.246595573513856
630813 -0.9822190656898933 -0.2472474294552106
630943 -0.9822649246336812 -0.2468496227696741
631072 -0.9822787857590376 -0.24623384599712775
631202 -0.9835387037693574 -0.24573302795105148
631331 -0.9838563150286956 -0.24574257339111255
631461 -0.9823474248098352 -0.24577376027852796
631590 -0.9827500732331369 -0.24534387513073422
631720 -0.9824952518837669 -0.2464582024264001
631849 -0.9828148442061654 -0.24604808211185064
631979 -0.9824709344353112 -0.24525124613239177
632108 -0.9837209934118709 -0.2454485344586585
632238 -0.9834815437527156 -0.24563488857514393
632367 -0.9842210258459129 -0.24586370580253358
632497 -0.9825614575064061 -0.2451925536047149
632626 -0.9824712221927641 -0.24584980688220207
632756 -0.9820282531617687 -0.2454011308619698
632886 -0.9818662327574643 -0.2449836969119822
633015 -0.9828909660019911 -0.24467242388638402
633145 -0.9827799610150539 -0.24430729928129896
633274 -0.9835046136695019 -0.2444729190143622
633404 -0.9831921292914616 -0.24414220132723455
633533 -0.9827185885437629 -0.2437853776509266
633663 -0.982927087628899 -0.2442447789597633
633792 -0.9818135630138608 -0.2444385445259286
633922 -0.9829408609089524 -0.2436561121873974
634051 -0.9834325045988075 -0.24331422388484478
634181 -0.9835049453858982 -0.24315619083933526
634310 -0.98374379856149 -0.24332392249001625
634440 -0.9835934903038538 -0.242989982960099
634569 -0.9830915849004274 -0.24338866352243893
634699 -0.9828112877948689 -0.24311729811201294
634828 -0.9829055578960585 -0.2427929051047308
634958 -0.9832375412140312 -0.2424767268509172
635088 -0.9838301928084862 -0.2426529858105537
635217 -0.9838311231381978 -0.24273712869877268
635347 -0.9839309177199007 -0.24321798727906496
635476 -0.9843409673540134 -0.241842329187633
635606 -0.9838177672812645 -0.24314551932832032
635735 -0.983238013507139 -0.24228627209464
635865 -0.9833576397026066 -0.2420331022440816
635994 -0.9834147948601198 -0.24206435651146863
636124 -0.9846065370581778 -0.24195906329885788
636253 -0.9845793822412933 -0.24174903972432035
636383 -0.9843235229345522 -0.24135721379229977
636512 -0.9821829215620734 -0.2420310161378414
636642 -0.9827422065715453 -0.24190945170066394
636771 -0.9838264800173222 -0.24144681737173332
636901 -0.984101376143348 -0.24074834666848077
637030 -0.9855995996159614 -0.24129710056525955
637160 -0.9840721161717597 -0.24104379977088883
637290 -0.9833744495603498 -0.24036033553553418
637419 -0.9826571085182523 -0.24066129044332205
637549 -0.9808320466712569 -0.2404082952109358
637678 -0.9841681463918465 -0.24016750144655183
637808 -0.9817745320500205 -0.23931838386975102
637937 -0.9847317849955424 -0.24001552367016146
638067 -0.9844424639685647 -0.2399543760756147
638196 -0.9841635490553716 -0.23942664700845112
638326 -0.9832333004350478 -0.23978666705265492
638455 -0.9837433456327086 -0.24055489482499212
638585 -0.9822085916841751 -0.23907649936461878
638714 -0.98387017420441 -0.2384349893050265
638844 -0.9842475489726895 -0.23930869377435798
638973 -0.9845088880441415 -0.23895551790573902
639103 -0.9833682051745412 -0.23877518422209507
639233 -0.9844039383442057 -0.238677101386196
639233 -0.9837190771820544 -0.23940788971450638
639365 -0.9840448031885389 -0.23901995464988515
639497 -0.9832492774796515 -0.2389155847196592
639629 -0.9847815512736282 -0.2382963417096722
639761 -0.9845224446815771 -0.2386511806095266
639894 -0.9845061849660511 -0.23834167816878848
640026 -0.9845667194418961 -0.23811652639197098
640158 -0.9841344542815604 -0.23856293464864545
640290 -0.9839611953835978 -0.2381080031750092
640422 -0.9848214921544022 -0.2377234940025177
640555 -0.9845307187222444 -0.23766640647438808
640687 -0.9846253740371633 -0.237714273404941
640819 -0.9849848027438614 -0.2369523343829826
640951 -0.9846059071689846 -0.2375398164756994
641083 -0.984128490284354 -0.2374211606259119
641216 -0.9839555312397443 -0.23710612020151434
641348 -0.9844208775343893 -0.23701078182487326
641480 -0.984973217636249 -0.2365414984118928
641612 -0.9851888650760844 -0.23708996369774324
641744 -0.9850057357303725 -0.2362093788855891
641877 -0.9843200831642714 -0.23630744171453552
642009 -0.9843925297370548 -0.23667654235794555
642141 -0.9838874588357674 -0.23639561147120067
642273 -0.9847362571566839 -0.2357868188969592
642406 -0.9850000165576599 -0.23551451601610332
642538 -0.9855615246853007 -0.23563520967787666
642670 -0.9850141692292732 -0.2357064247317969
642802 -0.9847696822036283 -0.23594545996272476
642934 -0.9849775364135375 -0.23576301099659325
643067 -0.9842293822925121 -0.23550857280072035
643199 -0.9851793293291926 -0.23514237099451085
643331 -0.9850856290676142 -0.23476591592875742
643463 -0.9855864283378823 -0.2348331696505899
643595 -0.9851196798422621 -0.23504903786496903
643728 -0.9848662325176064 -0.2342043185691563
643860 -0.9846676652714343 -0.2344453525115565
643992 -0.9843813970250663 -0.23495624390407902
644124 -0.984567054831775 -0.2342296307039072
644256 -0.9854080126352106 -0.2341958690838551
644389 -0.9852525686569326 -0.2342027549696647
644521 -0.9850624343621766 -0.2336612698085727
644653 -0.9856884391070874 -0.23361912004503538
644785 -0.9834612898974364 -0.23390020847139867
644918 -0.9847142415176453 -0.23389233014171007
645050 -0.9843678575768998 -0.23341174345390311
645182 -0.9849217131388772 -0.2328057877409678
645314 -0.9854227881693783 -0.23319696365046422
645446 -0.9859614092898031 -0.23276564538677413
645579 -0.9853397113485505 -0.23273979680621812
645711 -0.985036629025071 -0.23307354217755022
645843 -0.9848438043931336 -0.23338949591137845
645975 -0.9851404925236439 -0.23225826687524215
646107 -0.9858424415663086 -0.23194683111439596
646240 -0.985843622696312 -0.23221455308509387
646372 -0.9864556738287977 -0.23184711748927747
646504 -0.985356619246453 -0.23216954486602523
646636 -0.9854655104764886 -0.23227656567703303
646768 -0.9852455652037141 -0.23247184572682042
646901 -0.9849755883174821 -0.23187957743060175
647033 -0.9858296097479601 -0.2310285015367311
647165 -0.9857456681830113 -0.2317059334191676
647297 -0.9860698112412593 -0.23166033861133645
647430 -0.9855495700669737 -0.23116113429562585
647562 -0.984936744684555 -0.23150295204436355
647694 -0.9846777078556167 -0.23090510806691913
647826 -0.98445552350744 -0.2306352256600704
647958 -0.9874862782483692 -0.23084404173047157
648091 -0.9848960998880127 -0.23043572195341086
648223 -0.9855024077952054 -0.23061284526515755
648355 -0.985185448705705 -0.2304102887627999
648487 -0.984592571509551 -0.23060988197601065
648619 -0.9847603538916165 -0.22991898081061288
648752 -0.9855475779889262 -0.22944579199541051
648884 -0.9858788503639888 -0.22923744534084248
649016 -0.986260909724307 -0.22931688227336314
649148 -0.9862019750119584 -0.2292775947330812
649280 -0.9833782513790841 -0.2291628112772679
649413 -0.9840822893388153 -0.22927641658568557
649545 -0.9851925051576563 -0.22908259442344556
649677 -0.9880320959656701 -0.2293560442326374
649809 -0.9868559021662293 -0.22871161644202156
649942 -0.9860592807763912 -0.22866960614164294
650074 -0.9879913131195998 -0.22879606178695244
650206 -0.9856607340563406 -0.22861789071000024
650338 -0.9826093133022803 -0.22858215937093573
650470 -0.9854160241269105 -0.22830398789632622
650603 -0.9859969839018938 -0.22820392560280187
650735 -0.9847897137988556 -0.22782095934248703
650867 -0.9862605452914335 -0.22815805503469017
650999 -0.9855307698148812 -0.22751289864205826
651131 -0.9854622401130475 -0.22792177504670078
651264 -0.9858862945925204 -0.22833931399361285
651396 -0.9857946441871865 -0.22748591398472662
651528 -0.9857577068188378 -0.22703765015849292
651660 -0.9868928363790607 -0.22737141089697904
651792 -0.9867240458459441 -0.22685078739184203
651925 -0.9868981180881873 -0.22671591707433714
652057 -0.985510822509799 -0.22697363997643924
652189 -0.9851141013075897 -0.22702286349879733
652321 -0.9859757292491702 -0.2265288577721234
652454 -0.9864721422941707 -0.22576774114121936
652454 -0.985136664400792 -0.22688725580638128
652588 -0.9857246381195813 -0.22641352885842733
652723 -0.9867090803935127 -0.22615963640176054
652858 -0.9865949025329411 -0.22583495512259674
652993 -0.9869847911725964 -0.2259598171458154
653128 -0.9870752192713677 -0.22528328411954035
653263 -0.9870158673169329 -0.22580491387719034
653398 -0.9864245031164302 -0.22624717285895513
653533 -0.9860668778356445 -0.22538012343190952
653668 -0.9867822749720765 -0.2249779693754268
653803 -0.9876024151902281 -0.22531390007470983
653938 -0.9872338639955566 -0.22508268588531635
654073 -0.9871605447733846 -0.22528286806346262
654208 -0.9864783810575392 -0.22530369301285394
654343 -0.9863290197397286 -0.22548578383145557
654478 -0.9866405014964614 -0.22489375560430494
654613 -0.987223259558785 -0.2244172640628208
654747 -0.9874784384113763 -0.2245301958476361
654882 -0.9870654295150705 -0.22429958656253493
655017 -0.9864679731037709 -0.22453384137744015
655152 -0.9858237094623281 -0.2246032013950006
655287 -0.9855237520586133 -0.22456459789991123
655422 -0.9868862520341667 -0.22348570838828194
655557 -0.9872188038788456 -0.22317700054926848
655692 -0.9877872793189402 -0.2235929738827641
655827 -0.9871451156886919 -0.2235710150762288
655962 -0.9866478890119382 -0.22337155227532363
656097 -0.9873979752250253 -0.22341048306628913
656232 -0.9864280469656463 -0.22332153761445875
656367 -0.9864738080550396 -0.22264697753312276
656502 -0.9873128031936873 -0.22261394639374174
656637 -0.9877877436690824 -0.22227181439329824
656772 -0.9881362178097478 -0.22262755309521082
656907 -0.9870510211170297 -0.22201740951354676
657041 -0.9868884740966363 -0.2224538972364147
657176 -0.9871149527667725 -0.22246079908203703
657311 -0.9864991688014486 -0.22177466662100354
657446 -0.9877004762643211 -0.220928817418046
657581 -0.9878425768806184 -0.22144509763291556
657716 -0.9876476420713906 -0.221760061399197
657851 -0.9877782919373527 -0.22154205453905995
657986 -0.9876071998289285 -0.22126110044490754
658121 -0.9869054463809914 -0.22164354815048484
658256 -0.9873585929428134 -0.22106160819970064
658391 -0.9876244030048643 -0.22103390283906588
658526 -0.9879065206791451 -0.22138007610880095
658661 -0.9876574226001863 -0.22060321448535516
658796 -0.9876766043311318 -0.22097212675034086
658931 -0.9874841710318515 -0.2213075515460916
659066 -0.9869025246065769 -0.2203959592875586
659201 -0.9876008006708106 -0.21982867746440066
659335 -0.9876763020387347 -0.219982213242072
659470 -0.9879709490869312 -0.22004418751599786
659605 -0.9876031912861603 -0.2198926345591228
659740 -0.9871024820877773 -0.2199060033096033
659875 -0.9871674564239353 -0.2204827208020573
660010 -0.9858223647629603 -0.21960981139995175
660145 -0.9878479970177018 -0.21926763022267898
660280 -0.9856009170373158 -0.21880503275992536
660415 -0.9885515898558883 -0.21919748664546748
660550 -0.9879197710167381 -0.21850299005362067
660685 -0.9870840460442362 -0.2190970838340522
660820 -0.98701785574887 -0.21924548184258544
660955 -0.9870606429518868 -0.21856658684877256
661090 -0.9875442858162288 -0.21835144350370914
661225 -0.9883118960834165 -0.2185927261841852
661360 -0.9886513259433383 -0.2181293894448136
661494 -0.9881104167299766 -0.2188738490119311
661629 -0.9882252338345069 -0.21857783425969232
661764 -0.9874774285828716 -0.21832919192136038
661899 -0.9873316980722054 -0.217550458782897
662034 -0.9884363585303123 -0.21772529214750286
662169 -0.9884307701512413 -0.21776264767738732
662304 -0.9885931293901898 -0.2173896250691459
662439 -0.9880627896284961 -0.21720447829370065
662574 -0.9880489066471649 -0.21735153940511723
662709 -0.98783405483182 -0.21772407714597755
662844 -0.9876109066876582 -0.2173804295298763
662979 -0.9883140930645182 -0.21672288293335684
663114 -0.988418871804979 -0.21708290838987743
663249 -0.9889519958961762 -0.21661833131758657
663384 -0.9882129282963235 -0.21669255346213845
663519 -0.9882549034689416 -0.2160279009248407
663654 -0.9867171370192713 -0.21662182558247436
663788 -0.9875039949713872 -0.216212693363392
663923 -0.9883097605604343 -0.21595181599774335
664058 -0.9883272496849036 -0.21552131306270655
664193 -0.9892141173254854 -0.21603737546036905
664328 -0.9888124324282397 -0.215617323367082
664463 -0.988923060720593 -0.2157432835817358
664598 -0.9878119529323416 -0.21575946882383115
664733 -0.9878033768778974 -0.21624828142178215
664868 -0.9887381644786312 -0.21426275998744546
665003 -0.9888478201279862 -0.2145292004116906
665138 -0.9887936560069432 -0.21496046754126047
665273 -0.9887137211885791 -0.21452844165011434
665408 -0.9886438547079303 -0.21484597842125014
665543 -0.9884086579563383 -0.214884597482077
665678 -0.9875884865094698 -0.21473224084232817
665813 -0.9883835271750449 -0.2140340205549318
665948 -0.9891841414277859 -0.21404410317404743
665948 -0.9887145486674072 -0.21442342510684037
666085 -0.9890094856710816 -0.21374315495785223
666223 -0.9894469481089991 -0.21370455110964776
666361 -0.9886886482189032 -0.21385114350756496
666498 -0.9876348779811552 -0.21413814253509172
666636 -0.98837678586747 -0.21314202669343849
666774 -0.9887869242970941 -0.21315779880751268
666912 -0.9892754677395381 -0.2129926898767827
667049 -0.9894155937073703 -0.212928829464088
667187 -0.9889110237149464 -0.2126173341443536
667325 -0.9885004184766989 -0.21300916703496703
667463 -0.9875412888128021 -0.21296444793451907
667600 -0.9883356185073742 -0.21200705782987464
667738 -0.9903093848744293 -0.21196598095888186
667876 -0.9893089633030016 -0.21204780458873346
668014 -0.9895246050911841 -0.21168484128489473
668151 -0.9892846986746752 -0.2115421707284158
668289 -0.9887895806781822 -0.21210240057652197
668427 -0.9885269189208836 -0.21179994031219085
668565 -0.9887715966051533 -0.21130044241102924
668702 -0.989315400859515 -0.21122681129993695
668840 -0.9897560068105826 -0.211438530149468
668978 -0.989830609734065 -0.21104453211120028
669116 -0.989609853011398 -0.21079112625020202
669253 -0.9879897810576889 -0.21151684447822683
669391 -0.9884401916223243 -0.21078003204699444
669529 -0.9893627644630845 -0.21017879566331937
669666 -0.9891638771698323 -0.21090411213807123
669804 -0.9895044248544609 -0.20997119025324787
669942 -0.9897026537705503 -0.21037428439002584
670080 -0.9895010438263488 -0.2102403450133455
670217 -0.9892717981974678 -0.21056150381842229
670355 -0.9885484057509847 -0.20994749176765107
670493 -0.9894354509123074 -0.20974659844971064
670631 -0.9898469471156606 -0.20932372142582983
670768 -0.9897284119046296 -0.20982900000635427
670906 -0.9897678812258908 -0.20940272725640513
671044 -0.989303141482185 -0.20937308771849686
671182 -0.9888155692439825 -0.20960111865797187
671319 -0.9883166081136927 -0.20905026368571653
671457 -0.9886289480067192 -0.20852812126915127
671595 -0.9903484409080784 -0.20857955314016477
671733 -0.9903179237745864 -0.20844609913895124
671870 -0.9892679638021827 -0.20826570212545584
672008 -0.989620346791771 -0.20828534505976146
672146 -0.9893649087959134 -0.20870904552388705
672284 -0.9899098410299977 -0.2077276220440553
672421 -0.9907131327305405 -0.20793814736652225
672559 -0.9908160997637868 -0.20772514449728816
672697 -0.9904057660238529 -0.20779105709307621
672835 -0.9901849370660967 -0.20771141256513978
672972 -0.9897681712689087 -0.2075021493342289
673110 -0.989762619225465 -0.20793476405724962
673248 -0.9899766107080705 -0.20717011763038226
673385 -0.9902821750887285 -0.20707705445094612
673523 -0.9901573797949368 -0.2073291819132478
673661 -0.9902785265568322 -0.2068259784832062
673799 -0.989654513194126 -0.20678567724283137
673936 -0.9881324406665999 -0.2075873635632751
674074 -0.9856273613783536 -0.20654560153533938
674212 -0.9913586807052563 -0.2064424212365192
674350 -0.9904290868142697 -0.20598380971272262
674487 -0.9818167857893132 -0.20492634114654623
674625 -0.9850749368061803 -0.20515903423109166
674763 -0.9905217260244737 -0.20568453287684477
674901 -0.9878634090596433 -0.2058203273754606
675038 -0.9898083622612439 -0.20562028672167162
675176 -0.9898602879931194 -0.20520533706629285
675314 -0.9930415816324801 -0.20524277519302198
675452 -0.988025681932005 -0.20506226839682537
675589 -0.98901879953374 -0.2050313245230648
675727 -0.990697182981718 -0.20496957837189134
675865 -0.9873012217057303 -0.20496898520136553
676003 -0.9921447800005722 -0.20510444024941485
676140 -0.9848503126481901 -0.20380073591041273
676278 -0.9905638148961762 -0.20431494222400134
676416 -0.9914377515982375 -0.20424368890625885
676553 -0.9907370524317927 -0.20396968265172535
676691 -0.9899256195668865 -0.20402854151180114
676829 -0.9899316198186726 -0.2043853834938806
676967 -0.9904986829545678 -0.2038039666312812
677104 -0.9908432283319184 -0.20304572430291604
677242 -0.9906718041976036 -0.20322591980331006
677380 -0.9911183115416183 -0.20358452284274708
677518 -0.9906876835419796 -0.20294974075191966
677655 -0.99016883126744 -0.2034453360827938
677793 -0.9896176398011317 -0.20337511592280588
677931 -0.9898237586348744 -0.2028830668097364
678069 -0.9915663252879522 -0.2021171580118108
678206 -0.9908743931508139 -0.202695451842634
678344 -0.9909686163616807 -0.20237363539764497
678482 -0.9908915446701306 -0.20200893349856122
678620 -0.9909256973027382 -0.203044280242447
678757 -0.9897765176814579 -0.2027693775404985
678895 -0.9908522217197966 -0.2020161000600473
679033 -0.9911098918645943 -0.20153333212704846
679171 -0.9913831912346498 -0.20157289622640584
679308 -0.9915373748660095 -0.2014373370516759
679446 -0.9908849014885662 -0.20105187015745896
679584 -0.9905804938400009 -0.20191360117221618
679722 -0.9911875559759123 -0.2017133625920663
679722 -0.990200528942561 -0.20094234373482564
679862 -0.9915451315171117 -0.20100999788667367
680003 -0.9913214343792868 -0.20065470491492507
680143 -0.9909489273101001 -0.20138323849503234
680284 -0.9908098842383662 -0.20052057667967968
680424 -0.9915490287102623 -0.20094152469538823
680565 -0.9902337097538881 -0.20113632106291338
680706 -0.9899840868276074 -0.200171458905114
680846 -0.9915181318211763 -0.19988848382881355
680987 -0.9915530274240698 -0.19996382541879676
681127 -0.9911594156051676 -0.19983415498741308
681268 -0.9912025247755494 -0.19952708891422033
681409 -0.9907742708905112 -0.2001468477163554
681549 -0.9907324163475386 -0.199367585514981
681690 -0.9906949244366701 -0.19909135753949855
681830 -0.9915179404831779 -0.1991133948243374
681971 -0.9913843706746035 -0.19914925057712435
682112 -0.9913234421828558 -0.19835769699781453
682252 -0.9895874479480521 -0.19897740585755036
682393 -0.9892857814033207 -0.19919590604459528
682533 -0.9912485731606391 -0.19838687059693522
682674 -0.9916056989310182 -0.1980950862313463
682814 -0.9916709589829349 -0.1980677423922581
682955 -0.9916556678799195 -0.19791467143767547
683096 -0.9915634165777607 -0.19759262899117377
683236 -0.9912773046099271 -0.1982365884573607
683377 -0.9907535957770214 -0.19759021539878474
683517 -0.9908861069506936 -0.19721439832306864
683658 -0.9918680965281799 -0.19723922244723613
683799 -0.9917473502017355 -0.19750032658444552
683939 -0.9922303321658521 -0.19711506460611294
684080 -0.9912805860489284 -0.19735182061472453
684220 -0.9912109733244507 -0.19762734897446996
684361 -0.9912413418506144 -0.19657882375767405
684502 -0.9916083826269041 -0.1966701297829234
684642 -0.992124565297316 -0.1968541255564189
684783 -0.9923017915764023 -0.1965636730510286
684923 -0.9920742225346947 -0.19604375400829244
685064 -0.9914219415682743 -0.19642216962835052
685205 -0.9911694430046241 -0.1964993588200814
685345 -0.9920758814032249 -0.19576191431784384
685486 -0.9914819067573621 -0.19623877719483984
685626 -0.9929478381370438 -0.19587711603238578
685767 -0.9918836439976703 -0.19589370100272566
685907 -0.9910601638681616 -0.19552595043861035
686048 -0.9914036333804956 -0.19595183550642156
686189 -0.9909017562171464 -0.19522827581173116
686329 -0.9921462819042608 -0.1947467265990124
686470 -0.9913573745376485 -0.19450124146844663
686610 -0.9916398645859824 -0.19453316108764948
686751 -0.9920554042711837 -0.19438552552498972
686892 -0.9916552192004391 -0.19470444785444668
687032 -0.9918171680976458 -0.19486048821296098
687173 -0.990877925052272 -0.19447619633015015
687313 -0.992034523579748 -0.19402280770880487
687454 -0.9925416643380564 -0.1940567853989296
687595 -0.9924356246301412 -0.19372494425153902
687735 -0.9924050969673681 -0.19338020072169965
687876 -0.9921451142168212 -0.19375456889573234
688016 -0.9917999274015888 -0.19401486462461703
688157 -0.9913566928010661 -0.19354754359273332
688297 -0.9923175770720912 -0.19291873702783946
688438 -0.9922032544541742 -0.19341990683367805
688579 -0.9932920236637659 -0.19299789972936604
688719 -0.9927015097159191 -0.19256873899888188
688860 -0.9924053052219834 -0.1930962211815839
689000 -0.9917201625518592 -0.1929965843147976
689141 -0.9915280700383848 -0.1923019432932513
689282 -0.9926535179457482 -0.1919753896331815
689422 -0.9929754304111365 -0.19191661159625667
689563 -0.9909046334661896 -0.19190019816239343
689703 -0.9916084035886021 -0.19141713932102392
689844 -0.9935564133485998 -0.1925833512886382
689985 -0.9915735200893656 -0.1920314206917847
690125 -0.9915922408577502 -0.19139135686612876
690266 -0.9925672979787374 -0.19096683447407067
690406 -0.9924184774936505 -0.1910395069003067
690547 -0.9924213303607081 -0.19122745317893752
690688 -0.9929546725248523 -0.19054278869097016
690828 -0.9916060288963087 -0.19137339548533633
690969 -0.9920596980358453 -0.1909071543031276
691109 -0.9925325980690286 -0.19022501243969475
691250 -0.9930369147581594 -0.18985503306244766
691390 -0.9929097184151802 -0.19024743751288145
691531 -0.992708252784724 -0.1900680080792327
691672 -0.9920953653852262 -0.19040401334068227
691812 -0.9928341873819867 -0.19056427843792617
691953 -0.9925679088548186 -0.18972352076280796
692093 -0.9928348493211907 -0.18968147830874962
692234 -0.9928586869024111 -0.1896740742805566
692375 -0.9932038222069194 -0.18923935264419642
692515 -0.9932503992613816 -0.1887817963434906
692656 -0.9932627283073537 -0.18914471133160382
692796 -0.9914699821651166 -0.19008758391728045
692937 -0.9929417040710925 -0.1886974363444707
693078 -0.99342654936718 -0.18871225213031456
693218 -0.993854030528615 -0.18873317696899045
693359 -0.992813716804756 -0.18843878057772176
693499 -0.9926620103878415 -0.18829298655042545
693640 -0.9924040841321381 -0.1886814913492815
693781 -0.992683832326764 -0.18805619478481567
693781 -0.9932160080525906 -0.18758149972413787
693924 -0.993529591668791 -0.1879563795411776
694067 -0.9932139726737622 -0.18738773640296894
694211 -0.9932048219504276 -0.18764829790772009
694354 -0.9923274012626874 -0.1878861496130255
694498 -0.9924877448423501 -0.18735476573447896
694641 -0.9932498618364161 -0.18693686647853242
694785 -0.993167253661609 -0.18715593443659254
694928 -0.9934288894539793 -0.1867491408340213
695072 -0.9932480709973683 -0.18720721700215695
695215 -0.992833163994231 -0.18697217782766173
695359 -0.9926777191238392 -0.18693099354156154
695502 -0.9924513717864288 -0.18626445809011555
695646 -0.9934264188206005 -0.18616103534098002
695789 -0.9936339335839947 -0.18635817098448507
695933 -0.9932774855184153 -0.18588030088420618
696076 -0.993413623692666 -0.18571830589336707
696220 -0.9924315032233655 -0.1864948379853564
696363 -0.9930347398819173 -0.18565651297099958
696507 -0.9926760210280529 -0.18519354430212562
696650 -0.993101475987001 -0.18514332114348003
696794 -0.9936128707296125 -0.18528606051232374
696937 -0.993395788464607 -0.18450625365544285
697081 -0.9929383159486661 -0.1853278552409102
697224 -0.9929413030787613 -0.18547515654657393
697368 -0.993217765199552 -0.18451871680282744
697511 -0.9934054486487566 -0.18383608988489822
697655 -0.9945031202042998 -0.18391676856483855
697798 -0.9935660511415111 -0.18368777675472087
697942 -0.9940397243852711 -0.18423856220918589
698085 -0.9929417089055104 -0.18410157382722694
698229 -0.993528530715833 -0.18403692281279035
698372 -0.99342655146657 -0.18305999521135363
698516 -0.9938067395901596 -0.18370991545066778
698659 -0.9940653540894191 -0.18324995119274223
698803 -0.993661641632618 -0.18343358351193703
698946 -0.9950017208512895 -0.18350243976767583
699090 -0.9938122982898485 -0.18352837096313646
699233 -0.9937264945199638 -0.18314566851681904
699377 -0.9945701553509475 -0.18276819260887323
699520 -0.9940735599334367 -0.18270844735008845
699664 -0.9935625205706891 -0.18238896360053403
699807 -0.9932274807425583 -0.18239444703792215
699951 -0.9920787730378804 -0.1826679119421432
700094 -0.9941203252594769 -0.18245734707574837
700238 -0.9934937459576298 -0.18206698692491877
700381 -0.993883488192034 -0.18160090933723383
700525 -0.9951490137600614 -0.1822189386952426
700668 -0.9936997937287831 -0.18140487374957828
700812 -0.9941998462040456 -0.18172206318181705
700955 -0.9937694525746533 -0.1816893647823943
701098 -0.9931973944096776 -0.18100224931730188
701242 -0.9942624777624021 -0.18066833560736917
701385 -0.9942540927560901 -0.1807711515448709
701529 -0.9943495694421487 -0.18100057520670887
701672 -0.9939167857620624 -0.1802098646016567
701816 -0.994294573723282 -0.18114157784234228
701959 -0.9931968663065691 -0.18072349098504056
702103 -0.9949294961065878 -0.18055725053359598
702246 -0.995082352436402 -0.1796012441375192
702390 -0.9948350942961213 -0.18025943125408417
702533 -0.9943358439165829 -0.17975212567876628
702677 -0.9946288103659069 -0.17997705476334372
702820 -0.993864308834915 -0.1799752816072437
702964 -0.9939160787528264 -0.17925977971074175
703107 -0.9945715071443351 -0.17865995771514037
703251 -0.9946779604134601 -0.1793983018513499
703394 -0.9941058471753553 -0.17928780385388143
703538 -0.9945144654227285 -0.17887664749242863
703681 -0.9935478467820568 -0.17960857082585102
703825 -0.9937433479304582 -0.17904772868942878
703968 -0.993652032395298 -0.1788104248718614
704112 -0.9943998091202173 -0.17882471320812496
704255 -0.9948044387053898 -0.17857735519477386
704399 -0.994095323986993 -0.17815543586377292
704542 -0.9941777307148533 -0.17833771278530022
704686 -0.9934297549883407 -0.1785048815788401
704829 -0.994114384230077 -0.17754733247423876
704973 -0.9942285315395167 -0.17692690473302633
705116 -0.9942794468239725 -0.17747639554131464
705260 -0.994913915413385 -0.17702706331793155
705403 -0.9939527816362821 -0.17639417402616375
705547 -0.9941002702414934 -0.1772483626153388
705690 -0.9939128873707507 -0.17681539331055549
705834 -0.9942160382800772 -0.1767427454106491
705977 -0.9951324134266128 -0.17660802538848824
706121 -0.9959048715633997 -0.17646543236097506
706264 -0.9951520781018294 -0.17590009205524965
706408 -0.9948205427787885 -0.1761476289327335
706551 -0.9941894623137358 -0.17708594559439111
706695 -0.9943784020353619 -0.1758514118968448
706838 -0.99514447247213 -0.1755822227113566
706982 -0.9948378254741401 -0.17544053737421786
707125 -0.9952023701938415 -0.17544119016287293
707269 -0.9954926048656696 -0.17527183743582392
707412 -0.9949908555046425 -0.17551120418469301
707556 -0.9939454407212354 -0.17571159839158698
707699 -0.99443112430934 -0.17472952258014404
707843 -0.9952096732105667 -0.17461093023329124
707986 -0.9950565094331971 -0.17494096461087988
708130 -0.9949547887891772 -0.1742537243860045
708130 -0.9949550876059707 -0.1744076546411742
708276 -0.9949323538021463 -0.1742314054930648
708422 -0.9948928312779449 -0.17442505466712577
708569 -0.9944512692056756 -0.17457707245629187
708715 -0.9943248222965747 -0.1738648865906988
708862 -0.9951318065666209 -0.17371099397105993
709008 -0.995512934391563 -0.17370394954770557
709155 -0.9958666410199113 -0.173512557387661
709301 -0.9953171358185414 -0.17310600902405296
709448 -0.994952364053693 -0.1738268014162063
709594 -0.9940745430492677 -0.17314405461062699
709741 -0.9953363553764527 -0.172948539927477
709887 -0.9957011364441709 -0.17284494370543033
710033 -0.995273754291705 -0.17289824260068837
710180 -0.9954885932289035 -0.17250912620008152
710326 -0.9948462600003458 -0.17333223986195273
710473 -0.994271190746637 -0.17330173901704637
710619 -0.9956707785804488 -0.17191304581235123
710766 -0.9952603237157841 -0.1721611450008458
710912 -0.995206227855912 -0.17197576280753293
711059 -0.9954785824277887 -0.1719040828751899
711205 -0.9944266724585334 -0.17203784210666304
711352 -0.9936654630952448 -0.1723573619912219
711498 -0.9951412258418578 -0.1712699412420694
711645 -0.9946692283228866 -0.17130967747698936
711791 -0.9953439573949932 -0.1711086561580086
711937 -0.9950293925221537 -0.17109484381423906
712084 -0.9951127657782143 -0.17085312952807474
712230 -0.9951408314688807 -0.1713676800788992
712377 -0.9951821430732611 -0.17056449083296554
712523 -0.9922820898803073 -0.17016146532305904
712670 -0.9955821566502298 -0.1702284412494741
712816 -0.9960208511801522 -0.17017245478302245
712963 -0.9958134403974646 -0.1694569538843615
713109 -0.9950181212327107 -0.17027062709572846
713256 -0.9944576254703253 -0.16998101379415992
713402 -0.9952575401217331 -0.16956659072911773
713549 -0.9958482686116293 -0.16902872066408808
713695 -0.9961169759201143 -0.16873439785028058
713841 -0.9961078633992654 -0.16891371459345852
713988 -0.9957245534211159 -0.16900205130335041
714134 -0.9956486715656546 -0.16957572685911723
714281 -0.9953455365983462 -0.169102833785442
714427 -0.9949341859949886 -0.1687214927606854
714574 -0.9959558976588688 -0.16912518382484534
714720 -0.9960009347518574 -0.1689846482568775
714867 -0.9953989844939912 -0.16810767854286104
715013 -0.9954241000633756 -0.16873184407270916
715160 -0.9947990237993457 -0.1687827140010135
715306 -0.9949958948365268 -0.16796512258471288
715453 -0.9953301676464912 -0.16770241953970447
715599 -0.9959407335337835 -0.16783666833332592
715745 -0.9952393172101103 -0.16845169441032445
715892 -0.9948929510198476 -0.16735425902300277
716038 -0.9954159801264425 -0.16724373942324056
716185 -0.9961051819350069 -0.16767857039376804
716331 -0.9962983542899067 -0.16714304117544018
716478 -0.9958267715701011 -0.16609758921627296
716624 -0.9957184988336938 -0.16676600742538406
716771 -0.9955898800071902 -0.16696574996405775
716917 -0.9955821047883374 -0.16573698292001793
717064 -0.996158225994958 -0.16599282760774497
717210 -0.9966193949526434 -0.16540301601297963
717356 -0.9958480736580859 -0.16580981236028258
717503 -0.9957049883032715 -0.16568264329126714
717649 -0.9948796364705014 -0.1660499495120231
717796 -0.9955826591467009 -0.16508734385363297
717942 -0.9955726382425657 -0.16558988647212508
718089 -0.9965017709830027 -0.16536944921073068
718235 -0.9966256416482775 -0.16506023748024443
718382 -0.9961482433730162 -0.16525168829504303
718528 -0.9957048164467075 -0.16550650985324283
718675 -0.9948352502214446 -0.16477489466176387
718821 -0.9965302837792368 -0.16418070308158708
718968 -0.9960906109908834 -0.16429721267171132
719114 -0.9965419674382273 -0.1643671685401096
719260 -0.9959197741996758 -0.1637721519158358
719407 -0.9951486640679922 -0.16455842625361142
719553 -0.9958124062324186 -0.16455488199399215
719700 -0.9962920480040435 -0.16403514601545088
719846 -0.9959032112439958 -0.1636872909017876
719993 -0.9972065598553729 -0.16368386174894048
720139 -0.995900898136393 -0.1633508307636767
720286 -0.9967021850965929 -0.1633958660872929
720432 -0.9957651612216439 -0.1635738714372363
720579 -0.9962611601316267 -0.16285622818361586
720725 -0.9961413872884108 -0.1626611267109363
720872 -0.9968632943353128 -0.16249060594301892
721018 -0.9967194036518368 -0.16230576830649715
721164 -0.9964560383758855 -0.16224625062568584
721311 -0.9957368264001624 -0.16312311710493582
721457 -0.9958624200362409 -0.16217104618754746
721604 -0.9962279439041537 -0.16164437807764787
721750 -0.997345434362753 -0.16174031468041955
721897 -0.9965007014715499 -0.16156992863600142
722043 -0.9963269636346481 -0.16092240106738034
722190 -0.9964826728186769 -0.16162600324108406
722336 -0.9959802632259209 -0.16172886480222595
722483 -0.9961567774576799 -0.16087830024163505
722629 -0.9967446349758433 -0.16091299263384767
722776 -0.9967254787787928 -0.16117582719240317
722776 -0.9953481506105135 -0.1611277533548842
722925 -0.9976013327004263 -0.16036863238256668
723074 -0.9972244856679958 -0.1603304381036828
723224 -0.9966387560676552 -0.16054441525106586
723373 -0.9966312766878175 -0.16036528079296375
723523 -0.9962070784820595 -0.16029572953978038
723672 -0.9961675526110806 -0.1602689225224997
723822 -0.9978059733035449 -0.15973817687945116
723971 -0.9955481505328091 -0.15954793179861743
724121 -0.9972882762187412 -0.1598826045291257
724270 -0.9970701654647579 -0.15903272055572476
724420 -0.9969382164143352 -0.15980688062875614
724569 -0.9966888051167534 -0.15972627200766595
724719 -0.9971619293149262 -0.15874720495743533
724868 -0.9972847266761707 -0.158656428869614
725018 -0.9967429478244324 -0.15900816739494691
725167 -0.9975031401773177 -0.15833195155591842
725317 -0.9969503514066479 -0.15893409746391948
725466 -0.9967601523280296 -0.1590506874906078
725616 -0.996189287049657 -0.1585069871384415
725765 -0.9972091261354685 -0.15793128505175724
725915 -0.9975793794248136 -0.15750261058153428
726064 -0.9962672595837164 -0.1580638281643501
726214 -0.9973478554270944 -0.15809384320958336
726363 -0.9964956664792906 -0.1585904286193384
726513 -0.9967416434788943 -0.157223895670752
726662 -0.99707431292571 -0.1572363195597212
726812 -0.9978603189921667 -0.1568284102162661
726961 -0.9969627327284853 -0.15717694041574745
727111 -0.996904085597667 -0.15586340947201313
727260 -0.9951048927635489 -0.15722099456030725
727410 -0.9958564687817477 -0.1566494421685251
727559 -0.9961994104770537 -0.1556306625978143
727709 -0.9976800750955825 -0.156049167624666
727858 -0.99732740701017 -0.15591196941103588
728008 -0.9962997459607443 -0.15475258492260996
728157 -0.9980244295092022 -0.1562717631909398
728307 -0.9962055767753553 -0.1556209123574662
728456 -0.9972536600803181 -0.15542134584286618
728606 -0.9976138079180671 -0.1551467312983021
728755 -0.9981638165486385 -0.15488009376712547
728905 -0.9973739639397085 -0.15493660777516977
729054 -0.9974442832614655 -0.1555196305035771
729204 -0.9970868282767774 -0.15529881574180127
729353 -0.9969283948256057 -0.1548194165680108
729503 -0.9974744778339133 -0.15397118991540257
729652 -0.9979815536205414 -0.15436537082999008
729802 -0.9974394213302189 -0.15395440875337857
729951 -0.9975131463234871 -0.1544636840893886
730101 -0.9983632621920474 -0.15492568451280894
730250 -0.9949311253495863 -0.15387852122769455
730399 -0.9977251250878422 -0.15388916629212784
730549 -0.9978507949681907 -0.15370120778380636
730698 -0.9979167985916534 -0.15327186851234662
730848 -0.9965341217422242 -0.15339734324342988
730997 -0.9974110355318477 -0.15353001963548413
731147 -0.997076175754972 -0.15346592677821363
731296 -0.9970438541200937 -0.15248588567865148
731446 -0.9969828307132969 -0.1522269980671969
731595 -0.9976193969102655 -0.1526569376326124
731745 -0.9976984613270616 -0.15267953813514742
731894 -0.9976621747734937 -0.15275442656301372
732044 -0.9969497732168945 -0.15251016482533405
732193 -0.9981384395299183 -0.15168989451593265
732343 -0.9972850428742144 -0.15217057337075898
732492 -0.9984212801035306 -0.15223737260821696
732642 -0.9981211880806661 -0.1512381046037218
732791 -0.9983507318483059 -0.15174015738544827
732941 -0.9970186994906282 -0.15146312773490167
733090 -0.9972949126579594 -0.15137939250535287
733240 -0.9983334562131343 -0.15101418562979504
733389 -0.9982500472438497 -0.1512990009009294
733539 -0.9978300621944661 -0.15065084367848766
733688 -0.997500549139885 -0.15111891597931093
733838 -0.9967331629768673 -0.15122195530169558
733987 -0.9968397679690815 -0.15014176721531558
734137 -0.9975306180043555 -0.15025948604472886
734286 -0.9969065656844396 -0.14989099001582815
734436 -0.9988829683988333 -0.15013680727031825
734585 -0.9977414684114413 -0.14946064876043574
734735 -0.9973696753088273 -0.1503287477639874
734884 -0.9969793847770311 -0.1497880810865513
735034 -0.997743161296806 -0.14884129945653604
735183 -0.9982547630420981 -0.14897665298047466
735333 -0.998651432186968 -0.14895853304822823
735482 -0.9970322251945646 -0.14832495986278987
735632 -0.9979029747838749 -0.14971270829831346
735781 -0.9971553420142101 -0.14892343981534775
735931 -0.9984440693822428 -0.148456489651328
736080 -0.9977090797203653 -0.14797520596383107
736230 -0.9988914783553825 -0.14808696447886313
736379 -0.9989525817203564 -0.1485267642055799
736529 -0.9954902847269614 -0.14807545223753432
736678 -0.9979134344342881 -0.14934221197577677
736828 -0.9978983065180094 -0.1482182067598975
736977 -0.9987648579217155 -0.14784462047967617
737127 -0.9983522233481585 -0.14760874433039203
737276 -0.9988551931650363 -0.14753219163730638
737426 -0.9981787558461623 -0.14742145015608796
737575 -0.9976015347369938 -0.1476025512230623
737725 -0.9968074868142847 -0.14680637325610627
737725 -0.9973657860776087 -0.14660248240994522
737877 -0.9982509024362789 -0.14665832426848388
738030 -0.9988374122237039 -0.146625238542821
738182 -0.9983656907714539 -0.14593856568993963
738335 -0.997850747247556 -0.14661787859419415
738487 -0.9971849731972797 -0.14635053724628516
738640 -0.9965640543933451 -0.1459188049061924
738793 -0.9993445786350716 -0.14541617630913312
738945 -0.9993536722119569 -0.14553381692130732
739098 -0.9995798474379494 -0.14558740319583763
739250 -0.9981692559806817 -0.14560870414426047
739403 -0.9996390778500813 -0.14657095361406947
739555 -1.0016793040359377 -0.1446792199401008
739708 -1.0022212336437246 -0.14435046670676766
739861 -0.9997615513469994 -0.14493922489623426
740013 -0.9989937783743639 -0.14541936957913976
740166 -1.0001104281111846 -0.14475030223735577
740318 -0.9981426163729012 -0.1448733534613953
740471 -1.0001201578005092 -0.14440389149953267
740624 -0.9964361105243187 -0.1435855139747016
740776 -0.9974825890170705 -0.14378658236876316
740929 -0.9981247398919418 -0.14404304129914544
741081 -0.9983330924440159 -0.14382012886316292
741234 -0.9986485539453642 -0.14442629959838674
741386 -0.9979170423891502 -0.14389500152436774
741539 -0.9978346314118107 -0.14308240117871482
741692 -0.9985134437974925 -0.14333867077018703
741844 -0.9988095670539877 -0.14314102266321216
741997 -0.9985167702474409 -0.1427717158125126
742149 -0.9992561969535124 -0.14285940050730125
742302 -0.9979453911622397 -0.14330729334512254
742454 -0.9987232070259193 -0.14239830381815144
742607 -0.9999519220164558 -0.1429743460346782
742760 -0.9951640538284798 -0.14112141493759656
742912 -0.9984935936063012 -0.14242893325754935
743065 -0.9986477521358478 -0.1424462446634411
743217 -1.0002620689056987 -0.14167250005132676
743370 -0.9977108328472802 -0.14176998369444355
743523 -0.9979059686927617 -0.14083317584195015
743675 -0.9971888249125337 -0.13917426798510277
743828 -1.0044162624261475 -0.14141868924862616
743980 -0.9962975555312169 -0.14077142394870998
744133 -0.9987974385656261 -0.14144355792084534
744285 -0.9994279768514426 -0.14018721124927586
744438 -0.9988579484116227 -0.14040277334378948
744591 -0.9993742245359643 -0.14029792311286685
744743 -0.997337162710729 -0.1412967928825216
744896 -0.9997303493013058 -0.13971295101253461
745048 -0.9985054304451502 -0.14102146356005915
745201 -0.9975272910541857 -0.14070922146884338
745354 -0.998819190767678 -0.13965187310539695
745506 -0.9989044931910557 -0.1394157659116744
745659 -0.9987424454655005 -0.1397265031331764
745811 -0.9988667774858384 -0.13908453862453488
745964 -0.9993770807035637 -0.13975566016025556
746116 -0.9974378288998283 -0.13947265042613413
746269 -0.9983797566103808 -0.13862438411115635
746422 -0.9967456832429785 -0.13848022291135703
746574 -0.9997757331093926 -0.13842351842552114
746727 -0.9961315313315795 -0.13675238782207275
746879 -0.9968605533063566 -0.1404728231179883
747032 -0.9971929696260188 -0.1399338776710965
747184 -0.9970839473250265 -0.13770202657628622
747337 -0.99760860810149 -0.13747734430817454
747490 -0.9997439718466808 -0.13764591580625518
747642 -0.9988628424144289 -0.13730554240619147
747795 -0.9999368740956738 -0.1384279523578932
747947 -0.9943924990631465 -0.13838588097031745
748100 -0.9986019584628302 -0.138449535949946
748253 -0.9974500251227287 -0.1374224746921649
748405 -0.9990625777845954 -0.1370598151585585
748558 -1.0071273283936664 -0.13709695633179403
748710 -0.9938655676780541 -0.1375043504237014
748863 -0.9828900725569254 -0.1347193697256609
749015 -1.020995621074854 -0.1378722486145125
749168 -1.0174824772176017 -0.1356875972093709
749321 -1.0024379676513282 -0.13629795236823655
749473 -0.9968663994876145 -0.13359096239217877
749626 -0.9940073802053047 -0.13795054580028798
749778 -0.9898199564740942 -0.13509317116861935
749931 -0.9954364833025223 -0.13389213178487577
750083 -1.0280163798807473 -0.1373112426566803
750236 -1.0013052115895793 -0.13439214660457396
750389 -0.9973191523171855 -0.13442647561954413
750541 -0.9929596246153881 -0.13460902740542915
750694 -0.9984007040566473 -0.13496007817048258
750846 -0.9997340260687888 -0.13513754276972342
750999 -0.9949054027805495 -0.13442179878501043
751152 -1.0128318898640278 -0.13288616348026663
751304 -0.9914020315997211 -0.13451883653948074
751457 -0.9996422601475756 -0.13359705112947437
751609 -1.0058836453077762 -0.133678023180033
751762 -0.9995189607379147 -0.13408769813493526
751914 -0.9926702136272265 -0.13377066801305904
752067 -1.0035298124470187 -0.13476191019260378
752220 -0.9833108951020753 -0.1331959358937045
752372 -1.0045751977721005 -0.1318767880151292
752525 -1.0010465614440602 -0.1334583233024822
752677 -1.00410698356537 -0.133037301213563
752830 -0.999230404242977 -0.13284372695463081
752983 -0.9981437479056872 -0.13244410560710582
752983 -0.9918957884138457 -0.13108243047140214
753138 -1.005663122259206 -0.134330949444387
753294 -1.0018499523406783 -0.13127355780375563
753450 -0.999897594513219 -0.13265920130313763
753605 -0.9978962687988427 -0.1321848332274469
753761 -0.9994000768346615 -0.13130899104354876
753917 -0.9999915522113152 -0.13102960523276533
754073 -0.9999543594961601 -0.13127372297109505
754228 -0.9999703946948894 -0.13135388537470344
754384 -0.999297238176631 -0.13138642182046276
754540 -0.9994145719034875 -0.13110477095066636
754696 -1.000733021992629 -0.13094736026031076
754851 -1.000125462544502 -0.13036868636070434
755007 -1.0001026136163729 -0.1306843018258953
755163 -1.0043950144633995 -0.1310785977620261
755319 -1.001517002710884 -0.13123552847150122
755474 -0.9965537085804923 -0.1306713802717847
755630 -0.9992555472231412 -0.12996700746875106
755786 -0.9976748656968508 -0.129967725984954
755942 -1.0002681059001017 -0.13024149757443612
756097 -0.9950280694460447 -0.12911315087648695
756253 -1.0024979002817003 -0.13106139700244204
756409 -1.0023925091091568 -0.12940954666202886
756565 -0.9998164240806534 -0.12923394720505954
756720 -1.000257855953298 -0.12894111982581416
756876 -0.9997023492027357 -0.1285903913138807
757032 -1.000142283422263 -0.1288632535102156
757187 -1.0001601277626486 -0.12923922202368432
757343 -0.9981823402299627 -0.1288209100582906
757499 -1.0008838222606755 -0.1277100017736422
757655 -1.0002225823374824 -0.12778302746150663
757810 -1.0001907147907427 -0.12798111171256282
757966 -1.000310394255995 -0.12800541181107344
758122 -0.9997362602982273 -0.12790298857203763
758278 -0.9997282230596527 -0.1274883313004115
758433 -1.0000517703939364 -0.12701826212270004
758589 -0.9999666750852102 -0.12662260257183147
758745 -1.0000229029800598 -0.12713353154071272
758901 -0.9999364528667656 -0.12712241041188613
759056 -1.0000622001212136 -0.12750204519410238
759212 -1.0012057758063302 -0.12678318427974988
759368 -0.9993663264051468 -0.12709745395021044
759524 -1.0000142128018088 -0.12608957783333496
759679 -1.001034373478787 -0.1264722452781731
759835 -1.000894327607811 -0.1261088608952288
759991 -0.9998904959612608 -0.12639956193855573
760147 -0.9995631168582938 -0.1258430366484904
760302 -0.9999049384883142 -0.12582943126583107
760458 -1.0005719386904222 -0.1256719598960611
760614 -0.9993939272339798 -0.1253387889894973
760770 -0.9996444144332476 -0.12569113157668826
760925 -0.9992315159520939 -0.12575348014370363
761081 -1.0001418458298164 -0.12497210704409256
761237 -1.0010246311732047 -0.12459080287884684
761392 -1.0031918263974597 -0.12446728323963908
761548 -0.9986518928200073 -0.12415981052610808
761704 -1.0019262366330264 -0.12372810381297582
761860 -1.0005377445046866 -0.12451099271327572
762015 -0.9996686929653257 -0.12463553263385609
762171 -1.0002590499457829 -0.12404705892598637
762327 -1.0010502136210673 -0.12343885648556287
762483 -1.0008074793112878 -0.12357452905043298
762638 -1.0009996844491145 -0.12312236723021075
762794 -1.0002971835079526 -0.12391196512847324
762950 -1.000047176048173 -0.12329295972007251
763106 -1.0001243272365214 -0.12246580157790889
763261 -1.000558333736629 -0.12309362151238577
763417 -1.000852499077323 -0.12296523119506714
763573 -1.001244910293258 -0.12231846984952265
763729 -1.001246415462185 -0.1229839073174635
763884 -1.000097097762662 -0.12277082812558315
764040 -1.0007277080953112 -0.12188158756188906
764196 -1.0000674620485144 -0.12229729534504767
764352 -1.0013189033706102 -0.12234572278888414
764507 -0.9998679627206709 -0.12170899030135826
764663 -1.0007049671948633 -0.12174408753625987
764819 -0.9977424287277272 -0.12180036527991416
764974 -0.9993915555952194 -0.12082079690164402
765130 -1.0011631430682555 -0.12115434156611977
765286 -1.0004906318583622 -0.12115807499362931
765442 -1.0012281755404673 -0.12025662582418743
765597 -1.0016874312842396 -0.1209761916187837
765753 -1.0009810443612948 -0.12078197822871466
765909 -0.999718941545792 -0.11980889773428369
766065 -1.0008184716467308 -0.1205192762583994
766220 -1.001338089057285 -0.12011419116424055
766376 -1.0008573021989093 -0.11979304420011001
766532 -1.0009503846492878 -0.12058349920144619
766688 -1.0004951859246487 -0.1203340802419433
766843 -1.0002731694926874 -0.11936766266992381
766999 -1.000882906869828 -0.1198618552363498
767155 -1.00135874618429 -0.11949350395773164
767311 -1.0006921666580102 -0.11937404534576934
767466 -1.0008469753596423 -0.11907127579788465
767622 -1.0010609580706824 -0.11964466348683227
767778 -0.9991756403273098 -0.11911383995572235
767934 -0.9993620050967986 -0.11847143122365165
768089 -1.0009301084277025 -0.1185494365225342
768245 -1.000233739881612 -0.11790165610296824
768401 -1.001127099766078 -0.1185842245811917
768557 -1.0005994370653122 -0.11820390610310481
768557 -1.0020790049331258 -0.11772667916817707
768715 -0.999740138705844 -0.11726357506317234
768874 -0.9998049532420134 -0.11657791635849958
769033 -1.0008302444008736 -0.11761236305499473
769192 -1.0007578937904174 -0.1178554592876654
769351 -1.0003434931660273 -0.11711484699618217
769510 -1.0013118461589081 -0.11665889197022018
769669 -1.0013378688118624 -0.11701592958711728
769828 -1.0016336982079896 -0.1167682076311283
769987 -1.0009710196092787 -0.11735398912799033
770146 -1.0005917190755593 -0.11728798677634213
770305 -1.0001206241609903 -0.1159591067556251
770464 -1.0012843788206598 -0.11616249717460073
770623 -1.001586274152273 -0.11604635481915808
770782 -1.0009162152588458 -0.11569813816907562
770941 -1.0009061185089034 -0.11634826485166519
771100 -1.0007670220244562 -0.11595366054377651
771259 -1.0004862974716446 -0.1152675768769416
771418 -1.0013408339128131 -0.11529272132309282
771577 -1.0010655235618449 -0.11546751760263407
771736 -1.0006054549755654 -0.11475595556268607
771894 -1.000328091013425 -0.11539593718575045
772053 -1.0011304586724667 -0.11497861513239575
772212 -1.0007325317180382 -0.11439944832936662
772371 -1.00141548662057 -0.1143261025884401
772530 -1.0012125117330992 -0.11413746833870923
772689 -1.0009964653248906 -0.11339933219357795
772848 -1.0008335472204282 -0.11461157730125805
773007 -1.0007755941799117 -0.11429602870344725
773166 -1.0010119167261597 -0.11301249862889773
773325 -1.0013281117383717 -0.11342305178482433
773484 -1.001372032147939 -0.11309662784439392
773643 -1.001209194412876 -0.11273682211315122
773802 -1.0005457603218268 -0.11362178023798265
773961 -1.0008739425868676 -0.11278200703297073
774120 -1.0009405381176817 -0.1124698109405143
774279 -1.0015818611424365 -0.11230494861021902
774438 -1.001729666313164 -0.112935549260396
774597 -1.0012301255029612 -0.1123022931758196
774756 -1.0011723078855184 -0.11291084916461283
774915 -1.0007476796399288 -0.11290406755386365
775073 -1.001266880986948 -0.1119487461062809
775232 -1.002056029603447 -0.11198351125030659
775391 -1.0016590718912115 -0.11194172887577049
775550 -1.001468055088856 -0.1113240874965701
775709 -1.0012068943693653 -0.11164973587298278
775868 -1.0006732822413247 -0.11111890572730655
776027 -1.00198415723762 -0.1110888993353249
776186 -1.0020308898573587 -0.11050866927264066
776345 -1.0015214204859035 -0.11029827087641018
776504 -1.0014892563274915 -0.11070003539546192
776663 -1.0015490179801865 -0.11076288489207226
776822 -1.0003281961771888 -0.11045368653831968
776981 -1.003109069708404 -0.1098466827388587
777140 -1.000260276591507 -0.10965526539349593
777299 -1.0006781051517388 -0.1090858680774282
777458 -1.0013467762411592 -0.10973098689056981
777617 -1.0017149768320277 -0.10985837295587086
777776 -1.000166391494268 -0.10965549936878873
777935 -1.002010165051518 -0.1093898371422702
778094 -1.0028724952563832 -0.10863258783950432
778252 -1.0020062507125824 -0.10875359828072075
778411 -1.001414705906672 -0.1094929247373659
778570 -1.001839302587305 -0.10894780158368673
778729 -1.000525820567938 -0.10856948844667878
778888 -1.0015915169343375 -0.10851553617630692
779047 -1.0021921655845434 -0.10821617360940895
779206 -1.0014286830513026 -0.10776560305725548
779365 -1.0018627892165375 -0.10813477623800787
779524 -1.0010507064368945 -0.1082124735580677
779683 -1.0008913448382728 -0.10747469336852107
779842 -1.0014762691027912 -0.1072802691294569
780001 -1.0019112918876354 -0.10701227495286023
780160 -1.0027836150165375 -0.1069022274667832
780319 -1.000613909305024 -0.10719794006774748
780478 -1.002110377449417 -0.10718221926418246
780637 -1.0014333803487818 -0.1066198229696386
780796 -1.0012140156626868 -0.10621254819048052
780955 -1.0021187647165644 -0.10634512152839684
781114 -1.0023874840616525 -0.1062710254290652
781273 -1.0015322340916222 -0.1070746551324076
781431 -1.0017282966136862 -0.10725880843972617
781590 -1.0017637577782827 -0.1059408777459911
781749 -1.002289327032127 -0.10542745771852391
781908 -1.0023545925071793 -0.10535701085392858
782067 -1.0015445441576116 -0.1051390651478069
782226 -1.0012050933057681 -0.10548104162314953
782385 -1.0015225870682714 -0.10559963424253162
782544 -1.0013776703968926 -0.1049804061488409
782703 -1.0018687095278564 -0.10432727731324162
782862 -1.0016987171285487 -0.10484182144108255
783021 -1.0018462075349823 -0.10396874099501921
783180 -1.0016595721352648 -0.10448496774006083
783339 -1.001442860233826 -0.1043112121933522
783498 -1.0014823069707202 -0.1038809445547775
783657 -1.0021510257987702 -0.10349808060418908
783816 -1.0021226343297527 -0.10352397237698822
783975 -1.0017056783654354 -0.103338149134761
784134 -1.0016678033759872 -0.10330465841632637
784293 -1.0014256979199065 -0.10341630565224885
784452 -1.0020728104123349 -0.10257467359131298
784452 -1.0026051812257493 -0.10294927180999634
784614 -1.0020386843894995 -0.10296972841133174
784776 -1.0015987246391111 -0.10280290758312309
784938 -1.0018285690275999 -0.10224832733294408
785101 -1.0024623296052109 -0.10241091991674155
785263 -1.0023745162386661 -0.10218202096648948
785425 -1.0019458495057405 -0.10222443056925828
785587 -1.0018772420754318 -0.10237233308808387
785750 -1.0009958710513047 -0.10249850318008613
785912 -1.0030613498614525 -0.1014530372216357
786074 -1.002364435197803 -0.10160625599799164
786236 -1.0021580787736881 -0.10152310367525891
786399 -1.0018886002331215 -0.10172166504936453
786561 -1.0017856659044722 -0.10219838906515673
786723 -1.0017954086004377 -0.1009499601798543
786885 -1.0025300860800026 -0.10051133725867001
787048 -1.0024720303709351 -0.10098452542829495
787210 -1.0024396845344687 -0.1002549034360646
787372 -1.0013730291301326 -0.10057846205511954
787534 -1.0014651308726024 -0.10019709953679425
787697 -1.001246741620995 -0.09943024903761208
787859 -1.0024938512049388 -0.09957495374284964
788021 -1.0032430812974715 -0.0995373474421421
788183 -1.002013033131338 -0.0995301311057552
788346 -1.0023230339275064 -0.09987709666131832
788508 -1.0015816388523342 -0.09957067083570958
788670 -1.0015938783241591 -0.09887085949655963
788832 -1.0026414602570646 -0.09833419455979783
788995 -1.0020370097999305 -0.09889594136714192
789157 -1.0026061076553445 -0.09864375174073763
789319 -1.0021608834049989 -0.09906087004516878
789481 -1.0017596746096127 -0.09884217714008779
789644 -1.0028495317848354 -0.09761670861386434
789806 -1.002132461863696 -0.09823600199050789
789968 -1.0024921453677185 -0.0976685212639675
790130 -1.0027295832309482 -0.09779948955815992
790293 -1.0022653132360024 -0.09771077698094806
790455 -1.002242015268989 -0.09748239598741865
790617 -1.0030462904465705 -0.09682242991106359
790779 -1.0025688961763093 -0.09722142300868102
790942 -1.002079159553026 -0.09678433566732321
791104 -1.002600437622002 -0.09694578958315951
791266 -1.002220207851559 -0.09730718658325994
791428 -1.0016719800026337 -0.09606845438218499
791591 -1.0028254830820662 -0.09599084299847968
791753 -1.0024500339072293 -0.09591613383624702
791915 -1.002471882027844 -0.09559340062843677
792077 -1.0026414401738126 -0.09616339847454004
792240 -1.0024344893230817 -0.09600910908753539
792402 -1.0020461073351605 -0.09532967863091779
792564 -1.0029765781844666 -0.09525287479449478
792726 -1.0029125879114744 -0.09576793143696094
792889 -1.0024059654754938 -0.0952961410035428
793051 -1.002145302784801 -0.09537970087645929
793213 -1.0021724525106148 -0.0948834334703257
793375 -1.0024853776048055 -0.09508961004284663
793538 -1.0016994365678171 -0.09467647777460707
793700 -1.002881992017462 -0.09410944124221694
793862 -1.0020110260055652 -0.09417597595354155
794024 -1.0027015971143718 -0.09357604255638943
794187 -1.0026584755321752 -0.09387628247252763
794349 -1.0018613269017005 -0.09432994930540223
794511 -1.0020706479690722 -0.09335834288947059
794673 -1.002349267451057 -0.09327821806403094
794836 -1.0027042301735865 -0.0931298039677377
794998 -1.0027309992938993 -0.09252702789821327
795160 -1.002230281697115 -0.0935455525705196
795322 -1.0020670512792096 -0.09338057476317606
795485 -1.002765901631997 -0.09241344131455158
795647 -1.0029885324575587 -0.09198569351601041
795809 -1.0023279525203925 -0.09248001548597078
795971 -1.0027101223104167 -0.09241485015037856
796134 -1.002791145184775 -0.09284477548080439
796296 -1.001772869578919 -0.0923531694572439
796458 -1.0029172899374221 -0.09167330160434606
796620 -1.002746384097442 -0.09153671295637208
796783 -1.0023289168213059 -0.09116817190451694
796945 -1.0033049566213819 -0.09167442198911323
797107 -1.0020875450751685 -0.09176537218942754
797269 -1.0019518254453197 -0.09038379095335904
797432 -1.003041718325848 -0.09097783928876325
797594 -1.003406176028219 -0.09077191406502864
797756 -1.0029404887711104 -0.09010438024197864
797918 -1.0026407978296112 -0.090993290086326
798081 -1.0020979146705045 -0.09045641968647883
798243 -1.0023348236462089 -0.09007060187857614
798405 -1.0030597615873773 -0.08916578182603256
798567 -1.002955670105336 -0.08954524034901408
798730 -1.002586075825973 -0.08929839231794429
798892 -1.0027289817313423 -0.08927798812397283
799054 -1.0017718967140592 -0.08914221501886342
799216 -1.0032428006685177 -0.08927940827070315
799379 -1.0037743962950292 -0.08870586315654283
799541 -1.0025323583317907 -0.0887320139892031
799703 -1.0001242637749046 -0.08927730720032354
799865 -1.0030756454571794 -0.08925672315419925
800028 -1.0036984430765823 -0.08926388802572886
800190 -1.0026434801335389 -0.08835246738437845
800352 -1.004224201167415 -0.0883641726107041
800514 -1.0022901128488242 -0.08795651506161793
800677 -1.0045621508060925 -0.08779635221045369
800677 -1.0015314372481077 -0.08832447588808438
800842 -1.0034810971383505 -0.0877451323122365
801008 -1.0031604641019234 -0.08731290773685159
801173 -1.0027355376980924 -0.08727943232208141
801339 -1.0030035942360433 -0.08747957679314987
801505 -1.0026095713367549 -0.08764472565936562
801670 -1.0019426456497516 -0.08709941886889416
801836 -1.0033147503653495 -0.0863623100747887
802001 -1.0032918059929015 -0.08633078318021574
802167 -1.001737657270999 -0.08596036839684207
802333 -1.00293715994254 -0.08657965432141869
802498 -1.0025724177290298 -0.08649074341476645
802664 -1.002410613758751 -0.0860465760670683
802829 -1.002747737877105 -0.0851877901219352
802995 -1.0026678147530375 -0.08561320696470778
803161 -1.0034335372714995 -0.0851411201024497
803326 -1.002845157521887 -0.08562491902492474
803492 -1.0022123150042088 -0.08520044597583644
803657 -1.00259599477271 -0.0850714441207511
803823 -1.0029415798733394 -0.08458535998268776
803989 -1.0027171858966923 -0.08454477261251715
804154 -1.003188613919297 -0.08467324039167388
804320 -1.0030992643357572 -0.08487564956900921
804485 -1.002090077918208 -0.08399503442237853
804651 -1.003089383006003 -0.08379834868640346
804817 -1.0028908947385657 -0.08384349416721763
804982 -1.002986728238216 -0.08359337517757526
805148 -1.00329966338226 -0.08401655154467
805313 -1.0029187086985898 -0.08385969944876345
805479 -1.002200731790519 -0.0834121938952481
805645 -1.0032547314811417 -0.08324332741219434
805810 -1.0028033038284818 -0.08333055071916577
805976 -1.0031145669219432 -0.0829981194409924
806141 -1.0031583171267258 -0.0828536785463367
806307 -1.0018164046591187 -0.0824854646852275
806473 -1.0028882959216572 -0.08242115946053855
806638 -1.0030817085943662 -0.08215296046603823
806804 -1.0027226723781608 -0.08140091400217225
806969 -1.0027906204526094 -0.0818889470938579
807135 -1.0032118500479736 -0.08221337560849085
807301 -1.0026897533810186 -0.08117338094448141
807466 -1.0036947702577441 -0.08073295660578614
807632 -1.0035183992440195 -0.08105305585486641
807797 -1.003066367991716 -0.08102781744397158
807963 -1.0033085335852152 -0.0811116351413237
808129 -1.0031665500079794 -0.08123270488334992
808294 -1.0018534488138 -0.08076257639620223
808460 -1.003480024874836 -0.0810231793521095
808625 -1.003456187496029 -0.0802010382542521
808791 -1.0030467943187682 -0.08018312237747902
808957 -1.0030043188838142 -0.08080343935153479
809122 -1.003414519427087 -0.08021293313330943
809288 -1.002642398525785 -0.07920725217373761
809453 -1.002327914824976 -0.07935880602183064
809619 -1.0032134339061047 -0.07937654897448458
809785 -1.0027736657831476 -0.07918439460119167
809950 -1.0026234895254365 -0.07960956287335817
810116 -1.0025810068080034 -0.07951346917816397
810281 -1.0024307075629446 -0.07883416423267048
810447 -1.0030809830641978 -0.07861830134073616
810613 -1.003419193555445 -0.07854942768742182
810778 -1.00318290625148 -0.07846997505990594
810944 -1.0029592617769976 -0.07826308615375899
811109 -1.0027864299342577 -0.07831686908305918
811275 -1.0034895834559543 -0.07824534816081566
811441 -1.00332338220841 -0.07802564257948669
811606 -1.0031510691955625 -0.0772898445011833
811772 -1.0033694972940412 -0.07766590472371716
811937 -1.0028397676632361 -0.07777425509973761
812103 -1.0028456490022282 -0.07671516849029969
812269 -1.0036614480745856 -0.07691532603449033
812434 -1.0033226628769603 -0.07694839089189866
812600 -1.0033768887642807 -0.07662618188417611
812765 -1.0033514340557865 -0.07719647334663442
812931 -1.0031950658330349 -0.07659144762429373
813097 -1.0025980166497026 -0.07605914631840992
813262 -1.0033512452564182 -0.07583686725892791
813428 -1.0031409190817786 -0.07583819395737977
813593 -1.002877890352339 -0.07561466291887438
813759 -1.0036149061442483 -0.07613678849793548
813925 -1.0024488202504747 -0.07554433769246115
814090 -1.0033610456172695 -0.07533429299950824
814256 -1.0033796632845544 -0.07457739929719827
814421 -1.0033921723875296 -0.07461335601313125
814587 -1.003610825964923 -0.07511640399454642
814753 -1.0036119642467616 -0.07509692715190976
814918 -1.0028548871083933 -0.0741946003474087
815084 -1.0039348271026074 -0.07397361007822784
815249 -1.0033738674479056 -0.0741503626584009
815415 -1.0034770057655185 -0.07382125450620904
815581 -1.0038993566353376 -0.07391466082779921
815746 -1.0031226688571622 -0.07351587748787121
815912 -1.0033381136100705 -0.07358845256606074
816077 -1.0037182716626472 -0.0729042763726409
816243 -1.0038802036377976 -0.07300857721109581
816409 -1.0034027445856233 -0.07322198395111043
816574 -1.0032816626769472 -0.07346920283253017
816740 -1.0030208259399893 -0.07290751083690357
816905 -1.0036364412549312 -0.07291423359635735
817071 -1.0036740576111496 -0.07223033158593133
817237 -1.0033094403319698 -0.07228036952873779
817237 -1.0032232085955437 -0.07218374842471212
817406 -1.0035233104640373 -0.07283648457469899
817575 -1.0026514964521864 -0.0720014259780949
817744 -1.00372343708111 -0.07169802927773883
817913 -1.004127961210501 -0.0713427652430666
818082 -1.0032749917251957 -0.0711092042883326
818251 -1.0037218969909678 -0.07152208787622752
818420 -1.0038000540795293 -0.07112535064134778
818589 -1.0030890721737877 -0.0701977012264293
818758 -1.00394080730438 -0.07069878171494384
818927 -1.0036462650448363 -0.0710644298708312
819096 -1.0034856912424421 -0.07023305250606472
819265 -1.0031746252448213 -0.07054869480022703
819434 -1.0028680380339747 -0.07023441393613962
819603 -1.0037730302027892 -0.07025714783691595
819772 -1.0042312603905243 -0.06974142570749663
819941 -1.003447380517279 -0.06950205266686393
820110 -1.0036797632980257 -0.06996853762105791
820279 -1.003569856263797 -0.06982063745661209
820448 -1.003348797739747 -0.06915284802443923
820617 -1.0038894950999389 -0.069034233922503
820786 -1.0035589079979508 -0.06900438033234428
820955 -1.0031772367318554 -0.06857847496110722
821124 -1.00356663014831 -0.06899196102073157
821293 -1.0038724784950601 -0.06823053897593226
821462 -1.003322512560132 -0.06777109144993945
821631 -1.0035065124135165 -0.06809368813559608
821800 -1.0035398456700426 -0.06792109287814214
821969 -1.0038619055103495 -0.06818020923121722
822138 -1.0040948916395844 -0.06805776492397571
822307 -1.0025869668933811 -0.06728849818653236
822476 -1.0045724253488726 -0.06709108976022359
822645 -1.0037809480749726 -0.06726330686222144
822814 -1.0039500463731703 -0.06702864026383937
822984 -1.0032128523036459 -0.06764483483021444
823153 -1.0034996718385492 -0.06726039916250426
823322 -1.0036880076533576 -0.06701079722499459
823491 -1.0043734720495745 -0.06617115558024106
823660 -1.0037921139894344 -0.06638885856770617
823829 -1.004294527724771 -0.06640475409950193
823998 -1.0037404148735236 -0.06628507620997677
824167 -1.0022453814510808 -0.06581767266739588
824336 -1.0037194423364137 -0.06528194535284229
824505 -1.0051839087719343 -0.0649384505777729
824674 -1.004071998218691 -0.06510514637956172
824843 -1.003373906814895 -0.06580805894563886
825012 -1.001320123844236 -0.06504012822449717
825181 -1.0030157779954798 -0.06467971205610332
825350 -1.0038863604903305 -0.06420666489489898
825519 -0.9991650047844503 -0.0645618903649702
825688 -1.0042454972405843 -0.06439552568837448
825857 -1.0035085752757715 -0.06466090067643344
826026 -1.001377936548351 -0.06313074060757203
826195 -1.0037183660388773 -0.06321507569370076
826364 -1.004204353059776 -0.06361776440298773
826533 -1.004012064184424 -0.06383186944449959
826702 -1.0037526960411478 -0.06347207401044447
826871 -1.0031824521374753 -0.06374012820683005
827040 -1.0035591375693313 -0.06299320251400913
827209 -1.0042088267247125 -0.06254121755245098
827378 -1.0037129974828483 -0.06291153820424898
827547 -1.0032752221703665 -0.06267745044778039
827716 -1.0042350329865524 -0.06297725436576165
827885 -1.0039185320033945 -0.062384662107403246
828054 -1.0045481328705916 -0.062055182135128145
828223 -1.0035422514185022 -0.061655084472132256
828392 -1.0031059427639089 -0.06155040713792619
828562 -1.0037399747687523 -0.06179627290809697
828731 -1.0028730413007485 -0.06176398319868648
828900 -1.0031360541029208 -0.060840206650510126
829069 -1.0036029477428485 -0.06078131468948058
829238 -1.0038921582417244 -0.06076843376576369
829407 -1.0041735670377803 -0.060650228937744556
829576 -1.004023218139117 -0.060973639822878234
829745 -1.0028458936513351 -0.060893355613767054
829914 -1.0042748507817805 -0.06038842515199299
830083 -1.0043623546809606 -0.059865991900344154
830252 -1.0045819997491587 -0.0600584092013817
830421 -1.0038815197440065 -0.06022099817130287
830590 -1.0040267262105949 -0.06005325602643913
830759 -1.0032064501106648 -0.05942318137233541
830928 -1.0042201081554398 -0.058984540417656856
831097 -1.0038337806658162 -0.059650723445420585
831266 -1.003823138718794 -0.05921032654609188
831435 -1.0042411088594225 -0.05880745391262171
831604 -1.002947763595487 -0.05898806578224502
831773 -1.00350556877849 -0.0591493229233874
831942 -1.004050493238358 -0.058352337012408974
832111 -1.003913556062953 -0.058078706203169496
832280 -1.0038476016414744 -0.05815057307239974
832449 -1.0039551396720137 -0.05794502173391026
832618 -1.003095853834943 -0.05765014129528767
832787 -1.0039485451397865 -0.05714511002569712
832956 -1.0039358561830491 -0.05728521614408329
833125 -1.0039924857715343 -0.05722540172985003
833294 -1.0040837450985796 -0.05747084817249044
833463 -1.00377447204618 -0.05729415988641119
833632 -1.0034983006529432 -0.05662913793844217
833801 -1.0042058795135578 -0.056156643730552104
833970 -1.0040368332286318 -0.05605808726188836
834140 -1.0041400952532997 -0.0566661225281508
834140 -1.0038934069782843 -0.05684204734285742
834312 -1.0032974904823926 -0.05721725878300397
834485 -1.002981100455256 -0.056477345157788676
834657 -1.004115871788851 -0.05599603760951127
834830 -1.0037808377139819 -0.055466117812270406
835002 -1.0035549853812513 -0.05594446990015904
835175 -1.0037656805554338 -0.055763708920075275
835347 -1.003718599305532 -0.05480890893299261
835520 -1.0043195190461034 -0.054256693137226704
835692 -1.0035753384171946 -0.05477412736658266
835865 -1.003897885213947 -0.054577191222449285
836037 -1.0040995199655598 -0.05517206337094501
836210 -1.003112010137501 -0.0548558404255491
836382 -1.0039247548364478 -0.053804212186687815
836555 -1.0039664366889884 -0.05358111796067203
836727 -1.0037037497235768 -0.05383116991147301
836900 -1.0039830287652183 -0.05419440156426988
837072 -1.0039623385500243 -0.05363756618066902
837245 -1.0037941073054806 -0.05337391842781679
837417 -1.0041102089199216 -0.05308655887701414
837590 -1.0038753279504715 -0.05342184039876801
837762 -1.0045009508087779 -0.05336239165631823
837935 -1.0042489080870902 -0.05351557670319343
838107 -1.0029651632699526 -0.053000178913343826
838280 -1.0041237580543505 -0.05220965705760989
838453 -1.0043145617872615 -0.05264624181832707
838625 -1.003301190919918 -0.0524957356829376
838798 -1.0041405715013874 -0.05228437863002468
838970 -1.0038085624681916 -0.0519895900969249
839143 -1.003899569511662 -0.05212610949277117
839315 -1.0041925145450026 -0.051345093786741916
839488 -1.003368436479573 -0.05091374608331715
839660 -1.0033892963773776 -0.051997010110452414
839833 -1.0027063130758023 -0.051323278359747315
840005 -1.0037138933928857 -0.05100485848243534
840178 -1.0040978821100635 -0.050076643051918356
840350 -1.0039063320119364 -0.0505561393504356
840523 -1.0039894889043632 -0.050852122076230966
840695 -1.0036767074313828 -0.049592978116901006
840868 -1.0031302280539525 -0.05025135330812507
841040 -1.003940239002048 -0.049514939046247854
841213 -1.0037963909784289 -0.049509324873807756
841385 -1.0040879475604896 -0.049350458263442816
841558 -1.004030243859679 -0.049788274044716634
841730 -1.003735254070371 -0.049321948518846595
841903 -1.0033527879732311 -0.04925013809005071
842075 -1.0040775236342028 -0.04962600530503952
842248 -1.0042089853391984 -0.048794934168191695
842420 -1.0042603218148203 -0.04877991631487949
842593 -1.0039845311849753 -0.049034127583390784
842766 -1.003471280689538 -0.04891380642255124
842938 -1.003483102210582 -0.0478009494722167
843111 -1.0042757730068372 -0.04742677299397226
843283 -1.0040130928459534 -0.04753549052437824
843456 -1.003879617637795 -0.04783231862125992
843628 -1.0036699800108313 -0.047917386849814815
843801 -1.0027491111440823 -0.047575716608821976
843973 -1.004723722461332 -0.046839640156306664
844146 -1.0039291665499623 -0.046866163453646685
844318 -1.0033943592896117 -0.04636282735677687
844491 -1.0041944737460293 -0.04694723149966639
844663 -1.0036515047566863 -0.046202270845274174
844836 -1.0037624145298318 -0.04628925190358278
845008 -1.0047335799707446 -0.046061619832940756
845181 -1.0038433938101232 -0.04625782525478295
845353 -1.0039792967673002 -0.046178348047720724
845526 -1.0045992542295892 -0.04647763165635672
845698 -1.0029866744398994 -0.045520989507944476
845871 -1.0039779246077265 -0.044949296444763615
846043 -1.004108035745844 -0.04506845080306672
846216 -1.0038491675347805 -0.04515609852762253
846388 -1.0040129486623843 -0.045037269483897704
846561 -1.0034376045618922 -0.045174607304858026
846733 -1.0034161347480621 -0.04487772183592344
846906 -1.0042326923525753 -0.044443134643021194
847079 -1.0042136659424232 -0.044261278119635906
847251 -1.0039494754448155 -0.04435487886878983
847424 -1.0041679987208911 -0.044087710308808696
847596 -1.0027378396826205 -0.04364752324028271
847769 -1.0042382390452336 -0.04331554520993466
847941 -1.003998149152051 -0.043246482240786484
848114 -1.0042645239076682 -0.042993161747974164
848286 -1.0036087963583655 -0.043486139037437484
848459 -1.0033158470276404 -0.04303026274345271
848631 -1.0039315421742478 -0.04328216919693916
848804 -1.004315708555845 -0.042506114586440547
848976 -1.0039641625601932 -0.04156106655593624
849149 -1.0043955586632498 -0.04266789855170415
849321 -1.0052345170988228 -0.04246582061311478
849494 -1.003211275751029 -0.04166852178053809
849666 -1.0051654438138644 -0.04150054084718446
849839 -1.0038716371726857 -0.04193004312750851
850011 -1.004556533714968 -0.04217969633712342
850184 -1.0041881285489194 -0.04192771845582844
850356 -1.0040683035168587 -0.04108541460305676
850529 -1.0041496585698806 -0.04106351375421956
850701 -1.0043602691803903 -0.04064418134918835
850874 -1.0032193978365245 -0.040667529902420535
851046 -1.0032964711175123 -0.040613760977787454
851219 -1.0032122205212644 -0.04107821040837043
851392 -1.0038257759442584 -0.03997824826965613
851392 -1.0037682192605604 -0.03973122408558967
851568 -1.0039825009215102 -0.04030558944092951
851744 -1.0038853923308524 -0.04015170245592745
851920 -1.0031072025279695 -0.03920502468770238
852096 -1.0040124324582744 -0.03911164001769604
852272 -1.00374749361804 -0.039575832546862026
852448 -1.0038868825047331 -0.03904045630258948
852624 -1.00432166252385 -0.03914089454663138
852800 -1.0037378738872837 -0.03878092191707028
852976 -1.0047634187071557 -0.037887639333234316
853152 -1.0033878896857278 -0.039204295761836365
853328 -1.0041289823217003 -0.03839034462769214
853505 -1.0044090284055336 -0.03856064653951078
853681 -1.0039637105722317 -0.03864420537002435
853857 -1.0039560895587551 -0.0376885036646367
854033 -1.0041298736803868 -0.03749471231420204
854209 -1.0039798133653284 -0.037306079714553735
854385 -1.0038495133451102 -0.03718025931372364
854561 -1.0033789071391688 -0.037544469861654294
854737 -1.0037146741524905 -0.036439818025780106
854913 -1.0043935725240416 -0.03619373519458122
855089 -1.0040005809970298 -0.03636235407880962
855265 -1.0043314349970984 -0.0369229189428131
855442 -1.0042969378550521 -0.03623705355292043
855618 -1.003317578016644 -0.03622439195498598
855794 -1.00441014463304 -0.03551999553662876
855970 -1.004243603802765 -0.035786222002688495
856146 -1.0040057100251543 -0.03502176611951118
856322 -1.0047703547647602 -0.03531381429190969
856498 -1.0036241224081777 -0.03582916384767286
856674 -1.0037853412105504 -0.03540100154395624
856850 -1.0040712267878797 -0.03539808813554489
857026 -1.0038121100057475 -0.03447716298540938
857202 -1.0050674259861678 -0.034945534152142604
857379 -1.0036321310828045 -0.03522720587597239
857555 -1.0033014790231816 -0.03397612482245357
857731 -1.0038221696412206 -0.034169295398730516
857907 -1.0041446637914695 -0.03386249420103086
858083 -1.004055279960684 -0.03401183457386333
858259 -1.0042129681046905 -0.03406000029800348
858435 -1.0029192417447885 -0.033618897621047056
858611 -1.0046280115575335 -0.033068535493853475
858787 -1.0042118171704395 -0.03297754658538327
858963 -1.0041311471061785 -0.03294012142720998
859139 -1.0037835216665403 -0.03281641287552765
859316 -1.0034815762667026 -0.03237470912143629
859492 -1.0041150690610505 -0.031720188612778304
859668 -1.004470976281569 -0.03209169257583121
859844 -1.0041493002087973 -0.03221901193481493
860020 -1.004201453863124 -0.032172160755472315
860196 -1.0042547614730826 -0.0319659499317835
860372 -1.0041452998109481 -0.030693403432029247
860548 -1.0049706593372347 -0.031130918874308872
860724 -1.0039421699472753 -0.031480736171213115
860900 -1.0042675778924677 -0.03144342065915998
861076 -1.0040832738665983 -0.03190485219685342
861253 -1.0036792716010765 -0.031187518683442453
861429 -1.0038376176548955 -0.03049803072592564
861605 -1.0038255720717217 -0.030769248925374006
861781 -1.0039670558012417 -0.03018052660606959
861957 -1.004093435620505 -0.03063622223615398
862133 -1.0035225355925195 -0.03051272357555859
862309 -1.0036981176608006 -0.02971885554469604
862485 -1.0048709758149708 -0.029510688097813865
862661 -1.003919420742153 -0.02955505216178747
862837 -1.003860406922083 -0.029387841783409665
863013 -1.0036108961202452 -0.029510962195374538
863190 -1.0038090551694319 -0.028483437349163303
863366 -1.0048043814378624 -0.028549167456019004
863542 -1.0041429594063105 -0.028076429135427315
863718 -1.0040454682990354 -0.0286677967924429
863894 -1.0042789289067622 -0.02856022496011047
864070 -1.003206816446603 -0.028351537813917468
864246 -1.004151109038627 -0.02778481774943174
864422 -1.0035851109208387 -0.027601225409084024
864598 -1.0043540653902776 -0.027770272281781003
864774 -1.0039657636768045 -0.02763698274166914
864950 -1.0035657279796366 -0.02756429040645954
865127 -1.0038249304795093 -0.027551932979765065
865303 -1.0043234054013672 -0.026863804503257212
865479 -1.0032480467315055 -0.026960450706993554
865655 -1.0050859523335198 -0.02717508979323591
865831 -1.0038422089243308 -0.026960456101025727
866007 -1.0030105448090902 -0.026464502764050806
866183 -1.0041766709223872 -0.02605575527211038
866359 -1.0039716545542154 -0.025801267164396745
866535 -1.004315506291928 -0.025736959218799687
866711 -1.004404979915489 -0.025763231142421867
866887 -1.0030386190212306 -0.02569341138581641
867064 -1.0041503781084093 -0.024818850200725356
867240 -1.0044485429644148 -0.024974876659556153
867416 -1.0039630201080754 -0.024897287021538064
867592 -1.0040488592274242 -0.025033094873611727
867768 -1.0034503641901193 -0.025220850888011785
867944 -1.0034801107648532 -0.024774758869443744
868120 -1.0042480141773917 -0.024328629633016473
868296 -1.0040602181664486 -0.02429404312793881
868472 -1.003949663300078 -0.024841331227874443
868648 -1.0030849668404929 -0.024462802256984658
868824 -1.0045047248397625 -0.023307640635506662
869001 -1.003752022853205 -0.023412556412118025
869001 -1.0038514706251538 -0.023472772796180725
869180 -1.0040951048385487 -0.0233250751500985
869360 -1.00368341242661 -0.02330794528037754
869540 -1.003791361355999 -0.02362940333866373
869719 -1.0037297941777479 -0.023544216657344914
869899 -1.003323653032839 -0.022511425991680135
870079 -1.0039014660402001 -0.022062295734070463
870259 -1.004608441741487 -0.02238968320258362
870438 -1.004164594637253 -0.022309264965859724
870618 -1.0031760484150374 -0.021712831084207053
870798 -1.0041885833727664 -0.021692367504676124
870978 -1.0038226616755128 -0.021692170382813278
871157 -1.0040151418725127 -0.02162765094847362
871337 -1.0041530134037782 -0.02158728500579783
871517 -1.0034019634151452 -0.021183121814986838
871697 -1.0039306393052172 -0.02123093774226168
871876 -1.0043646323627586 -0.020619869052983197
872056 -1.004496549554788 -0.020377684973728803
872236 -1.0040658584972542 -0.020846883075722116
872416 -1.0032085334047411 -0.020721200291230493
872595 -1.0038281999349616 -0.019856983436653493
872775 -1.0039918772991903 -0.019674804536883986
872955 -1.0028600657522493 -0.0202878833294307
873135 -1.00437332318238 -0.019987675913113616
873314 -1.0035429125820854 -0.019491296690468167
873494 -1.0036403884030143 -0.01914368983479806
873674 -1.003867053746395 -0.01871198348745071
873853 -1.0035785429086195 -0.01884803646421854
874033 -1.0039860116729935 -0.018836912095912362
874213 -1.0041528743096124 -0.019176745634686614
874393 -1.0034585138432337 -0.017882551692309255
874572 -1.003774302231688 -0.01847042907538242
874752 -1.0039975225374727 -0.01791052364728203
874932 -1.0042118369707413 -0.018020760340781813
875112 -1.0043217611904691 -0.01848826074192172
875291 -1.003567227859277 -0.018006507241802066
875471 -1.004412849757072 -0.01725677995673138
875651 -1.0039768341136621 -0.016901333005314358
875831 -1.0041220231726322 -0.01750963468893733
876010 -1.004613015460964 -0.01795298538068932
876190 -1.0032578461209498 -0.017490209400419694
876370 -1.0037936101741836 -0.016791524965377794
876550 -1.0034212974193388 -0.01674237665001498
876729 -1.0035212418078407 -0.016501917713138248
876909 -1.0036153304157862 -0.016754486857637467
877089 -1.003318342265453 -0.016059121774983063
877269 -1.003200734236881 -0.015360117102423949
877448 -1.0036617121646423 -0.015488063071851443
877628 -1.0035334293483842 -0.015603980268032915
877808 -1.003973530459029 -0.015637105427615042
877988 -1.0037131515449036 -0.015355780919127567
878167 -1.003466910318083 -0.014603268186822437
878347 -1.004045863921797 -0.015073111995362008
878527 -1.0041710084949715 -0.014583407636923578
878706 -1.0040955540002199 -0.014548608503176564
878886 -1.0031773117185374 -0.014747232070962268
879066 -1.0042249394763902 -0.013932161711707094
879246 -1.003592992926319 -0.013990024107042531
879425 -1.003683758055125 -0.01391156267359094
879605 -1.0040027189351208 -0.013963589443320285
879785 -1.0033738000437773 -0.013640574845863077
879965 -1.0033816825904671 -0.013547267650401398
880144 -1.003513802487161 -0.012785979217957556
880324 -1.0034321218082336 -0.013202455273523251
880504 -1.0035510728242119 -0.01333232450653748
880684 -1.002947761284238 -0.012681604403707124
880863 -1.0034885231760804 -0.01252100427057803
881043 -1.0031010137107272 -0.011874071433558377
881223 -1.0026534891396381 -0.011460784315841147
881403 -1.0046538996871124 -0.011409476191058556
881582 -1.003704814913634 -0.012523689957395381
881762 -1.0035727535341812 -0.011736020858715265
881942 -1.0042754029430285 -0.010990896120431404
882122 -1.0040295131092263 -0.011492178897478321
882301 -1.0051081287057235 -0.011441822481558206
882481 -1.0045018864289104 -0.011527282064001757
882661 -1.0030073231912702 -0.010978196497863645
882840 -1.0037411767935351 -0.011057639682241547
883020 -1.0038312462063352 -0.010638343403565944
883200 -1.0036715271176382 -0.01055390109260061
883380 -1.0040691039967666 -0.01038663481693229
883559 -1.0023946313774774 -0.010130767915760659
883739 -1.0037726646956946 -0.009896882616827848
883919 -1.003379863979024 -0.009717564279212209
884099 -1.0032551428892924 -0.0095150143409663
884278 -1.0032850925776504 -0.009477431316137165
884458 -1.0035783682681725 -0.00955451836078839
884638 -1.0047012211822217 -0.008334381168209042
884818 -1.0033360028355653 -0.008450827131981526
884997 -1.003165797045546 -0.00884472155451388
885177 -1.0041786819369016 -0.008707544493048443
885357 -1.0022628384581935 -0.009597089986184387
885537 -1.003826278126536 -0.007018815315665843
885716 -1.0025849232558037 -0.008641931277897922
885896 -1.0032173414463343 -0.007992364211397452
886076 -1.0032987556197444 -0.007878041957853469
886256 -1.0033913098808778 -0.007812459219540133
886435 -1.0041037438476186 -0.007160596117968595
886615 -1.0032730001328167 -0.0071430315251138085
886795 -1.00337990134375 -0.006990966658988131
886975 -1.0034947574064728 -0.007346683969149294
886975 -1.0031770135462919 -0.0068738934781970296
887158 -1.0037392696587963 -0.006478395740700583
887341 -1.003497375026781 -0.0065741452107678875
887525 -1.0029723183876542 -0.006566735938912154
887708 -1.003580055412593 -0.005771696238668553
887892 -1.003490499373523 -0.00603102533104997
888075 -1.003701384475295 -0.0059198259922851205
888259 -1.0035019815988724 -0.0057892277886983185
888442 -1.0036732786785625 -0.00492242040829671
888626 -1.003959252804261 -0.005207200752899896
888809 -1.002991575741414 -0.0048320761680527066
888992 -1.0032646323007475 -0.004781162322863204
889176 -1.0036767036361074 -0.005122307794623055
889359 -1.0025699900101535 -0.0046144705681278484
889543 -1.003003213857022 -0.00401972215794099
889726 -1.0034381611051213 -0.0038611599677308974
889910 -1.0033215615218543 -0.00418859512327701
890093 -1.0035827772381816 -0.004560447627253206
890277 -1.002904475152658 -0.0038866507338688257
890460 -1.003377738655451 -0.0029847161879459996
890644 -1.0023975622594732 -0.004056405639650188
890827 -1.0042343088214705 -0.003450106204840318
891010 -1.0034625677413767 -0.0036136179055783852
891194 -1.0024770277644937 -0.0030600853870798358
891377 -1.003501123526252 -0.0027715475848377304
891561 -1.0028571304759077 -0.002564319155922526
891744 -1.0029533876403984 -0.0024219869368646754
891928 -1.0033693294182284 -0.0022191085900566698
892111 -1.0030747056823512 -0.0020834779123707612
892295 -1.0032058644576893 -0.0015046846897900608
892478 -1.0035659285412573 -0.0016171357192329334
892661 -1.0033787665278067 -0.001486180304746086
892845 -1.003587612867821 -0.0013971427646290735
893028 -1.0032047373206365 -0.0012075862537105973
893212 -1.0028925221427525 -0.000745923274828588
893395 -1.0028631771199077 -0.0005577302251055392
893579 -1.0015474405151141 -0.0008847344915371391
893762 -1.0042996593696305 -0.0020184117518776763
893946 -1.0057932995716294 -0.0008592222583849758
894129 -1.0028933457575688 -0.00017821023351115425
894313 -1.0020802500370194 0.0006035353034449385
894496 -1.0028690491589694 -2.7183359812553105e-05
894679 -1.0027931240717485 0.0013673178939996068
894863 -1.0056153932411085 -0.00046244529732723344
895046 -1.0029343242466415 0.001113648910031092
895230 -1.003368870592931 0.0013910770369522612
895413 -1.0032514972959405 0.0010311895352144863
895597 -1.003525047370826 0.001006774190452921
895780 -1.0034135723248103 0.001354762997311885
895964 -1.0024856444209673 0.0017502773407092353
896147 -1.0039860341851328 0.0020745771922087777
896330 -1.0028112422336481 0.0016835877428262854
896514 -1.0031413429489697 0.001783711233542363
896697 -1.0024424532283482 0.0027286508669719794
896881 -0.9974146480997764 0.0020671185530778766
897064 -0.9991492984952519 0.0015898266938496595
897248 -1.00302231346988 0.0025990965888916515
897431 -1.0071194679616162 0.0027966915424406475
897615 -1.0037517482825313 0.0027510035675489897
897798 -0.9998752663963415 -0.00024394556901765024
897982 -1.0084076589372135 0.008033232014190058
898165 -0.9952294541207518 0.001519274730924828
898348 -1.003183679922736 0.004619256870824231
898532 -1.0019376519325898 0.003872518376779487
898715 -1.0042364200854272 0.003919983992531512
898899 -1.0019594041550413 0.002342864088816024
899082 -0.998878682087831 0.0029486581997849697
899266 -1.0022489783043658 0.004834862338530282
899449 -1.0041278918725163 0.005118536062017481
899633 -1.0036798171411045 0.0050888855748111
899816 -1.0006279379763707 0.004108652945233788
899999 -1.005761755016251 0.0014935239283191512
900183 -1.0095117032530772 0.0018679868359285556
900366 -1.002735907508839 0.005529951510925054
900550 -1.0115600846592117 0.007118608050350556
900733 -1.0026049105460013 0.006458979392120744
900917 -0.9955252225696715 0.002249911335850422
901100 -1.0199239534121338 0.011684742149937827
901284 -0.9962599418733658 0.006757468556912892
901467 -1.0044358071273067 0.006949313919447958
901651 -1.006264292074905 0.008231517451627137
901834 -1.0008612033242585 0.00706014603413186
902017 -1.0028491897236502 0.008196664246088739
902201 -1.0061611752891861 0.008452596481742448
902384 -1.0019762425615941 0.007225448797582523
902568 -1.003888917088426 0.007534652264924654
902751 -1.0025631649031297 0.008267171351758704
902935 -1.0043609653830745 0.007937124968171129
903118 -1.0076733763655117 0.008546738974622433
903302 -1.0055341435411893 0.008596493377971507
903485 -1.0025912728749924 0.008601361341570319
903668 -1.0039523574053648 0.009234592726601305
903852 -1.0027073210823663 0.008955904624295075
904035 -1.0025108617199108 0.008303353236403471
904219 -1.0028459413242967 0.009310037224199619
904402 -1.001801121461774 0.009426151964965102
904586 -1.0029697800131145 0.009640102907482628
904769 -1.0027959298405922 0.009740535553389993
904953 -1.0029839783976946 0.009852398043794338
905136 -1.003625628795974 0.010260999218137295
905320 -1.0028043991334123 0.010419714854869614
905320 -1.002847336081285 0.010273049790074
905507 -1.0027863957612104 0.010679234061356286
905694 -1.0033145703939226 0.010403042121156033
905881 -1.0026320305623642 0.010523086515611126
906068 -1.001187928098292 0.010671768973631281
906256 -1.0026569868275554 0.01080013107626899
906443 -1.0050624092301899 0.011603274734394162
906630 -1.0023390421115128 0.01165553388813498
906817 -1.0014782490457503 0.011018908071676768
907005 -1.0030837565065716 0.011615907212804175
907192 -1.0014453235698169 0.011359485748737281
907379 -1.0008850051032847 0.012515545324605285
907566 -1.003168257259446 0.01273773083010174
907754 -1.0032075402876814 0.012873310038346119
907941 -1.0025549137220344 0.012198046301493107
908128 -1.0028617349265594 0.012959461590213191
908315 -1.002781857491756 0.013342970125236739
908503 -1.0024877599226103 0.013400704300678183
908690 -1.0028406876320552 0.013091621604668716
908877 -1.0029902395176786 0.013143368824693967
909064 -1.0024341654153675 0.013598437914234094
909252 -1.0015739082937793 0.014008337969618537
909439 -1.0047250253976017 0.014324884021858036
909626 -1.001699455835887 0.014069329669442106
909813 -1.0018270429912117 0.014091891029329269
910001 -1.0020944368912286 0.014797175516416773
910188 -1.0024715101787285 0.015478620374476984
910375 -1.0008339600597647 0.015552481210944043
910562 -1.0032777845539294 0.015584697020857963
910749 -1.0027465713609596 0.015254642357866893
910937 -1.00177749374686 0.016020474342758356
911124 -1.0023689727863057 0.016352073410511966
911311 -1.0034426485095889 0.01628241898289962
911498 -1.0021641591680894 0.016326794601950696
911686 -1.002523862595965 0.01621850923383527
911873 -1.0025919291937802 0.016835636067553075
912060 -1.002521439701112 0.01711600706918229
912247 -1.0021127152806455 0.016740601704826163
912435 -1.0030399802390437 0.016788981609208824
912622 -1.0025154588565766 0.01696863255176597
912809 -1.0022856672887517 0.01777599634292884
912996 -1.002045548371891 0.017752300073139958
913184 -1.0027510764448568 0.017677051239465825
913371 -1.0034769390076757 0.017966679999450817
913558 -1.0016542546665186 0.01758113387391119
913745 -1.0009464902400422 0.018174347129350288
913933 -1.0024452007339923 0.018326693940415528
914120 -1.0024928897737186 0.01857050434989506
914307 -1.0017562609709347 0.018610282123111287
914494 -1.0019858595991575 0.018270560166090116
914682 -1.0012409669659246 0.018828598784762087
914869 -1.0023501009775142 0.019691965357496982
915056 -1.0022280770812575 0.02003333191290432
915243 -1.0023264568512942 0.019672547407942064
915430 -1.0022784189202625 0.01997504106214016
915618 -1.0020308777945797 0.020055798613439653
915805 -1.0025751040027702 0.020041136351191983
915992 -1.002198125072319 0.0208374472900189
916179 -1.0024028386312756 0.020377033370774334
916367 -1.0022243612053314 0.019972924174706894
916554 -1.002758777419429 0.02074039040952342
916741 -1.0027758706375143 0.02127152387882347
916928 -1.0018163837510248 0.02130980449352969
917116 -1.0024562598226539 0.021067731333555394
917303 -1.0026191474821202 0.021537667059171706
917490 -1.0012129957438527 0.02130534363084337
917677 -1.0018293925003174 0.0220228821961719
917865 -1.0019534337586655 0.022460374178377315
918052 -1.0022987755074024 0.022429425418983632
918239 -1.0023477804092946 0.0222339625168428
918426 -1.0015620312020477 0.022382304825388406
918614 -1.0018569142751008 0.02306834014272607
918801 -1.0029115723501385 0.02357333942600547
918988 -1.002385484599505 0.023195443701350224
919175 -1.0024596857002348 0.023204031732310317
919363 -1.0018909475960962 0.023293150189783226
919550 -1.002439325661944 0.02390434009725826
919737 -1.0014035329402309 0.024658557123003855
919924 -1.0015414064851442 0.024104927596939038
920111 -1.002762580847608 0.024099837215560634
920299 -1.001485597371557 0.023710513387422267
920486 -1.0025684665331331 0.02472197339924021
920673 -1.002105968810871 0.02489018674193905
920860 -1.0017505017728572 0.024481372162608112
921048 -1.0024688916724314 0.025184165924040203
921235 -1.0014160150419869 0.02501542240119831
921422 -1.0022844297221176 0.02589728651762683
921609 -1.0016012845610063 0.025815094200820156
921797 -1.0023365566837519 0.025522549134357444
921984 -1.0015338119348813 0.02598214793962381
922171 -1.001237532726198 0.026057990787572656
922358 -1.0022680164190458 0.026708549678491535
922546 -1.00140888941578 0.026666848539472383
922733 -1.001414628676785 0.02644243993181406
922920 -1.0010872608589898 0.026574290314911868
923107 -1.0007057756127014 0.026931199177180114
923295 -1.002043515780027 0.02756360441985508
923482 -1.0019426110887177 0.027922558223251338
923669 -1.0019027449242226 0.027145747621980933
923856 -1.0025882868945317 0.02745999754206813
924044 -1.0014082513038078 0.0275666603337346
924044 -1.0020791069348962 0.02826582534338774
924235 -1.0018979975781515 0.02840943511764378
924426 -1.0019204958877534 0.027988473992230145
924617 -1.0023532061904183 0.028386455819685255
924808 -1.0012112456982951 0.028474414211405685
924999 -1.001159866237496 0.02873125491410558
925190 -1.0018000366722006 0.028839009278933538
925381 -1.0015726188838694 0.028812127053503157
925572 -1.001891578724146 0.029116185070273862
925764 -1.0017175783574506 0.0294037455311421
925955 -1.00259659166928 0.030041900243037697
926146 -1.0016192697938833 0.029879894595321258
926337 -1.0015730084469727 0.030203039288666068
926528 -1.0016092304922914 0.029993357627155135
926719 -1.0018721593846545 0.03029542937716281
926910 -1.0024245388382447 0.03102152669474281
927101 -1.0019307744819013 0.030915356704723538
927293 -1.0018020579446552 0.030801975115647817
927484 -1.0020096677956838 0.030607721460088836
927675 -1.0009838074119988 0.03075799922071072
927866 -1.0019168779280434 0.031402757480795344
928057 -1.0020320606243445 0.03136365848580937
928248 -1.0022460064958818 0.031410909129171334
928439 -1.001700952395855 0.031552032877285016
928630 -1.0010427129601154 0.03194693360804356
928822 -1.0016753425678189 0.032673926602482424
929013 -1.0017136263062925 0.03211425302273555
929204 -1.0018747246452182 0.03266143974984753
929395 -1.0011535013398807 0.03277593400151057
929586 -1.001760410240976 0.03325969750927595
929777 -1.001117422882453 0.03333498373060305
929968 -1.0014789554661392 0.03337643690563728
930159 -1.0018862866329263 0.0335885676233857
930350 -1.000862543615932 0.03377557493577717
930542 -1.0016911467690992 0.03403639780794368
930733 -1.0009841204035348 0.0346127850969888
930924 -1.0014778762432037 0.034241387174471796
931115 -1.0020598863835795 0.03432916765266211
931306 -1.0012291452859161 0.034496549334810694
931497 -1.0015879217401027 0.03497592039394097
931688 -1.0013490865419037 0.0350592986847308
931879 -1.0013406434012548 0.03510857616991841
932071 -1.0019776114964845 0.03524088014045692
932262 -1.001620780090617 0.03542071246575776
932453 -1.001762809253115 0.0364428040617026
932644 -1.001165274905723 0.03595744163616231
932835 -1.001609943392835 0.036002412710934524
933026 -1.001591823425622 0.03611167985516861
933217 -1.0010220433612764 0.03635634921266218
933408 -1.001610915286767 0.036960775681472956
933600 -1.0010152087404265 0.0367570677542081
933791 -1.0011435758483822 0.03683956400548842
933982 -1.001329447139132 0.03733750452790006
934173 -1.0009809732800963 0.037135902066527254
934364 -1.0012084812434598 0.0378165162388759
934555 -1.0014792327877353 0.038047443078633315
934746 -1.0013096845459006 0.03771668611080823
934937 -1.001121284537355 0.038228098107446304
935128 -1.0012214739798235 0.03798387216205774
935320 -1.0003400956827575 0.03795417280617816
935511 -1.0009321297268636 0.03817617967990938
935702 -1.0017194907614946 0.03868897227526174
935893 -1.0011313915769942 0.03886889804285311
936084 -1.0006771654131013 0.03889771841194359
936275 -1.0011746655782445 0.039277264159961904
936466 -1.000300044295607 0.039578950464460694
936657 -1.0009995325691372 0.03948692923950864
936849 -1.0015260842666072 0.03946500772661233
937040 -1.0005372957133034 0.0401637072406335
937231 -1.001703325003439 0.04063187117454815
937422 -1.000642871591028 0.04089438234239945
937613 -1.0010235259607674 0.04037708411527068
937804 -1.0009638567273313 0.0405069087313091
937995 -1.0006438052541111 0.041017353462041786
938186 -1.0011503343675165 0.041415744769466134
938378 -1.0005951447261967 0.041584192150890514
938569 -1.0005533421322512 0.04153501863784223
938760 -1.0011474418115913 0.041553762397885566
938951 -1.0005571814197238 0.041342513590411016
939142 -1.0015973617723886 0.04217610386923481
939333 -1.0012690990531916 0.04226336000769958
939524 -1.0008567432775701 0.041901648180442855
939715 -1.0009383980503503 0.042557179306485705
939906 -0.9999143268817163 0.04229430267586483
940098 -1.001246825839965 0.04340553320046892
940289 -1.000682930698059 0.043695277472487894
940480 -1.000508451952046 0.043134701246614685
940671 -1.0006140605584797 0.0435744626493503
940862 -0.9998857875962532 0.04325747175750646
941053 -1.0006790875048297 0.0444987553603807
941244 -1.0006527542565866 0.044236831995300895
941435 -1.000465226203975 0.04448704554402032
941627 -1.0009972742178221 0.044069274338325394
941818 -1.0001189233651309 0.044029083697589635
942009 -1.0007746927958825 0.044869038273749974
942200 -1.0007328724512514 0.04501837656392185
942391 -1.0011420477216255 0.04509657770888043
942582 -1.0009851443901812 0.0450443950211071
942773 -0.9997718994450011 0.04523732761730626
942964 -1.0006272432351393 0.04571600703453233
943156 -1.0004794919490259 0.04540161759746468
943156 -1.0007767698409744 0.04559074234674782
943351 -1.000222840119664 0.04601224324512824
943546 -1.0002505362973944 0.04611151565174084
943741 -1.000858665897782 0.046208719104578855
943936 -1.0006882593407154 0.04677946796972976
944131 -0.9999301263896914 0.0466023629184073
944326 -1.0002173606237232 0.04705647016753704
944521 -1.0002985948116423 0.04734230757649427
944716 -1.0006162437669928 0.04727267331587782
944911 -1.0004424178925326 0.047458120914108406
945106 -1.0000719837259335 0.04747889720301831
945301 -1.0004661866065376 0.048007860887348125
945496 -1.0005750410770944 0.04844774412984771
945691 -1.0007424090465875 0.04781181178886529
945886 -1.0006297373388577 0.04787701972168803
946082 -0.999960418534544 0.048379000677559875
946277 -1.0006536274610354 0.04890003482065104
946472 -1.0002974463479588 0.048736897339434516
946667 -1.0004853154427753 0.049019570094406835
946862 -1.0003010129829337 0.048759615447731344
947057 -0.9996712670452063 0.04916913192481567
947252 -0.9999330474806641 0.049694138350655385
947447 -0.9998633480892687 0.04935466146658588
947642 -1.0001580826976235 0.049654080343447766
947837 -1.001263567255954 0.04976268721596201
948032 -1.0001604915037843 0.05055101026796428
948227 -0.999506097772875 0.050587992964416024
948422 -0.9998925132673699 0.05043252254808687
948617 -1.0004997714752983 0.050512411749277654
948813 -0.9997302891664863 0.050394084972523935
949008 -1.000511297248462 0.05177796084224777
949203 -1.0000678752550727 0.05168649074769152
949398 -1.000013623741347 0.05125092376237686
949593 -1.0004975884415268 0.051331374742040844
949788 -0.9995786338073375 0.0512957050372864
949983 -0.9976164837812297 0.05183263527304643
950178 -1.0000831934575531 0.05250987455357705
950373 -0.9996467842122135 0.05176682840096888
950568 -1.0002682687420146 0.052296654016355616
950763 -0.9992270857557899 0.05247593372782581
950958 -1.000511356360771 0.053177154207411675
951153 -1.0000250498883292 0.05361303329184148
951348 -0.9995756719389376 0.05303165022113268
951544 -1.0000457529592937 0.05357312522840945
951739 -0.9993181355433596 0.05356604753619896
951934 -1.0003471159528994 0.05439917846072675
952129 -0.9995812568062322 0.053996313553538296
952324 -1.0000966638299984 0.054197355012741706
952519 -0.9996568079073223 0.05483514936244818
952714 -0.9994385661194629 0.05497902397443109
952909 -0.999658152387205 0.05532498137848152
953104 -0.9997434712989653 0.05483968050748951
953299 -1.0002968877219818 0.05520889580229156
953494 -0.9990531054060324 0.05521179175719594
953689 -0.9999771980705217 0.055628408583437365
953884 -0.9994168637287258 0.05638799719635981
954079 -0.9997435917426843 0.0556186653979666
954274 -1.0003623425608281 0.05583230465568606
954470 -0.9992671519812125 0.05613516247637051
954665 -0.9997124062979033 0.05656906792615036
954860 -0.9993336780010325 0.05673189798294213
955055 -0.9994562847541186 0.05670620776833117
955250 -1.0001679968955122 0.0569350265279124
955445 -0.9985442981268953 0.05678936295139702
955640 -0.999294767487145 0.058027169336829186
955835 -0.9996508792825084 0.05759158904693349
956030 -0.9997882370872392 0.05784640277507944
956225 -0.9996958468255089 0.05767961513189788
956420 -0.9986809338427273 0.05837060050939494
956615 -0.9995735206492694 0.05848745711281683
956810 -0.9999231201962797 0.05800402638785351
957005 -0.9997624043263088 0.05811647350083614
957201 -0.9995000664094672 0.057888269417758674
957396 -0.9994603244940364 0.05902344523985861
957591 -0.9990657342907892 0.058731350793488256
957786 -0.9994037211389322 0.05873799996317077
957981 -0.9994185743667832 0.059383336769122656
958176 -0.9989395047205368 0.0595483887237812
958371 -0.9987964593453278 0.05998194399525457
958566 -0.9987702839084212 0.060351771909724676
958761 -0.9991615422684161 0.060165041867406226
958956 -0.9995779839103855 0.0603261314443181
959151 -0.9985913670986225 0.06019780994114149
959346 -0.9993099605471883 0.060950978238929115
959541 -0.9985941270302495 0.0612198827783329
959736 -0.9992415109980359 0.06145232655388828
959932 -0.9992574302534978 0.06127412317105133
960127 -0.9990077421662418 0.06141083102640824
960322 -0.9993660421783753 0.06210197944159272
960517 -0.9991199556204583 0.06232291928263985
960712 -0.9990796518044156 0.06199545700925548
960907 -0.9990793172265063 0.06194523631240473
961102 -0.9992370565264204 0.06281098804592172
961297 -0.999067346393839 0.062465821220232455
961492 -0.9988337649289999 0.0625031954134888
961687 -0.9989262236050485 0.062423728772999676
961882 -0.9984848261642676 0.0626683120713454
962077 -0.9988075581887365 0.06316362614664306
962272 -0.9985753916847393 0.06368394284150708
962467 -0.998998207698741 0.06321495167458523
962663 -0.9989750108569219 0.06374340698781929
962663 -0.9986800249341569 0.0633664701459904
962862 -0.9986134660191895 0.06356237679345121
963061 -0.9985620984887547 0.06445192143996077
963260 -0.9984271689496682 0.06459119730265447
963459 -0.9985190545660435 0.0644745139824682
963658 -0.9991924412757808 0.06481531197008075
963857 -0.9987647027027421 0.06468910117648166
964056 -0.9992200580788082 0.06559448446141622
964255 -0.9986556667775546 0.06559268708043314
964454 -0.9989584462866209 0.06591530455882788
964654 -0.9989730445480351 0.06523353659480854
964853 -0.9986591165211673 0.06597426700347701
965052 -0.9985144780506376 0.0658725440659165
965251 -0.9986899871285173 0.06612127829816283
965450 -0.9988648011673033 0.06633226556226107
965649 -0.9981544189188858 0.06630478395957368
965848 -0.9981958575598285 0.06706643448104282
966047 -0.9978439237858951 0.06719878547471353
966246 -0.9983420820465531 0.06696246407998842
966445 -0.9986664013868095 0.06763369092786094
966645 -0.9980709851495384 0.06758062187905667
966844 -0.9982407824243058 0.06788192444476064
967043 -0.9982152764190607 0.06830789258504616
967242 -0.9984788902719901 0.06816572877716437
967441 -0.9987826256075658 0.0682105783166847
967640 -0.9987058945444147 0.06855926928018626
967839 -0.998378413958421 0.0687409291325025
968038 -0.998338138498234 0.06904880939006043
968237 -0.9979942296736896 0.06898324037097628
968436 -0.998567291065787 0.06874915590432076
968636 -0.9980652649985293 0.0697851745116991
968835 -0.9980508091445226 0.06965486692818205
969034 -0.9980912967734263 0.0694178392486764
969233 -0.9981973305656279 0.06987126244188079
969432 -0.9976838986582792 0.06972687735464535
969631 -0.9972998533729187 0.0704817815545679
969830 -0.9979522513396343 0.07059564557341572
970029 -0.9981181570902169 0.07065686163356547
970228 -0.9980559912051342 0.07082413827169004
970427 -0.9978568620193647 0.07131337344436393
970627 -0.9977308919967675 0.07173112043081155
970826 -0.997846648322721 0.07184458459512459
971025 -0.9981449052690761 0.0720870002894875
971224 -0.9984165129327159 0.07202368336001035
971423 -0.9971977433932211 0.0720795540977307
971622 -0.9981125718698823 0.07253565431937968
971821 -0.9985398894079911 0.07260274527591255
972020 -0.9983059711892637 0.07217712984901392
972219 -0.9977001423683379 0.0725698140356857
972418 -0.9969896627631455 0.07276399737218893
972618 -0.9973581923542175 0.07347180254820447
972817 -0.9977452279575991 0.07285980005118502
973016 -0.9985459838603504 0.07355221893587313
973215 -0.9979063907619498 0.07345906597810219
973414 -0.9975951740618351 0.07391642095332851
973613 -0.997712931648296 0.07421208730184958
973812 -0.9984239597609046 0.0744148894628072
974011 -0.9989112885404476 0.0740397331745057
974210 -0.9961789287786288 0.07514678770538731
974409 -0.9968372086409122 0.07395005432401852
974609 -0.9979510085240424 0.07504515181594046
974808 -0.9971777598950547 0.07468126703998251
975007 -0.9971919726569326 0.07575538808141077
975206 -0.9977628190363939 0.0756462946484737
975405 -0.997868455978736 0.0757664569069603
975604 -0.9963410434698218 0.07559282927277537
975803 -0.9979234582197251 0.07609157481195751
976002 -0.9980989863548353 0.07613896341206115
976201 -0.9980365718729988 0.07610331687462493
976400 -0.9978587247072792 0.07656225408446779
976600 -0.997357491326885 0.07668622767381478
976799 -0.9972989430467962 0.07759454488964329
976998 -0.9968550018574909 0.07746398364062271
977197 -0.9973937695063886 0.07697265742357
977396 -0.9976723850867018 0.07749101191731667
977595 -0.9958561704276506 0.07721104492713754
977794 -0.9973875187513402 0.07815115549956793
977993 -0.997138663794242 0.07834295911205112
978192 -0.997793380986962 0.07858507936513416
978391 -0.9970613944797905 0.07823619999517872
978591 -0.9963687007882283 0.0785931226768359
978790 -0.9969101633133701 0.07866076710728613
978989 -0.9974720501277353 0.07874153451570386
979188 -0.9977183967777237 0.07896344561673331
979387 -0.9968175298116272 0.07917177678731223
979586 -0.9971564413764162 0.07982259974316075
979785 -0.9968791627384895 0.07991046119250736
979984 -0.9972758244416678 0.07976058618129685
980183 -0.9972778407995002 0.07994249977137008
980382 -0.9967895381728098 0.07969456344771718
980582 -0.9970724808293625 0.08058139134300361
980781 -0.996621942484985 0.08077948266338948
980980 -0.997033484808284 0.08118317710976161
981179 -0.996564182986816 0.08094456232916941
981378 -0.9967334802456491 0.08127067154271249
981577 -0.996826224183909 0.08207102791175849
981776 -0.9972735068795565 0.08144452555233521
981975 -0.9974071963871628 0.08227543782772163
982174 -0.9965253466858038 0.08209701202071268
982373 -0.9971995488016007 0.08231294773009629
982573 -0.9967614931558713 0.08262096278766151
982573 -0.9963829245402528 0.08239567310770557
982776 -0.9966516006171525 0.08277172452247514
982979 -0.9965975478970948 0.08312174338135979
983182 -0.9966100471106242 0.08281000842323408
983385 -0.9970538206107901 0.08294005242095327
983589 -0.9963948910357688 0.08251188171607417
983792 -0.9964763864008569 0.08370286289878048
983995 -0.996741360808183 0.08335916723072509
984198 -0.9967325740171535 0.08337976470234486
984402 -0.996595981524602 0.08379046518967645
984605 -0.9961470437592119 0.08425718525437512
984808 -0.9964302645972433 0.08452780040049193
985011 -0.996293208207563 0.08432212754285336
985214 -0.9965900385633537 0.08481245528662948
985418 -0.9960971391372236 0.08475362384520556
985621 -0.9959754340796603 0.0856016074109858
985824 -0.9962169546590441 0.08528604424227708
986027 -0.9962647309809399 0.08582495095981442
986231 -0.9967706663937648 0.08583118081184317
986434 -0.9963775152039768 0.08589445088560355
986637 -0.9961140442819586 0.08603347018512292
986840 -0.9966058575158786 0.08583512442588129
987044 -0.9966637040285684 0.08626882645153883
987247 -0.996280784271643 0.08624320261993709
987450 -0.9959185507602769 0.08684158495523736
987653 -0.9959928116783592 0.08709510702029417
987856 -0.9961470475361942 0.08675439985947817
988060 -0.9966790648207713 0.08727556872317867
988263 -0.9956665212194389 0.08719663503117212
988466 -0.9952739156031394 0.0876947267874015
988669 -0.9959518446134776 0.08802151771131411
988873 -0.9959015217457817 0.08829419165202716
989076 -0.9960709873444603 0.08819648937604677
989279 -0.9954415807140993 0.08823641610548202
989482 -0.9962486020214164 0.08920869784450701
989686 -0.9957864797549202 0.0885696791417546
989889 -0.9964488501955094 0.08951145204013806
990092 -0.9957710004039916 0.08890958402583773
990295 -0.9957597980589296 0.08996207576978235
990498 -0.9960537046092093 0.08991901971504947
990702 -0.9959539357529461 0.08987984156408012
990905 -0.9962009117863676 0.08988270996488833
991108 -0.9957662048565274 0.08991653293145704
991311 -0.995422909534633 0.09034007818756423
991515 -0.996080264226007 0.09026358335838403
991718 -0.9964349302086934 0.09057886658780695
991921 -0.9956487349447326 0.09057069746338292
992124 -0.9960216619474113 0.091195101506299
992328 -0.9955540348208807 0.09188118559893074
992531 -0.995907246791957 0.09148439290351346
992734 -0.9957718015870505 0.0917359915338074
992937 -0.9957489058228617 0.09189654361733059
993140 -0.995283775057021 0.09231762408590588
993344 -0.995558993903659 0.09225131660938075
993547 -0.9959726299790133 0.0924924596916739
993750 -0.9956399414250161 0.09261195372862724
993953 -0.9952074571081514 0.09278011541076833
994157 -0.9953495777440017 0.09318152679604719
994360 -0.9959308403085165 0.09333149287375349
994563 -0.9958640210965811 0.09319090890298143
994766 -0.994364311398068 0.0934617083565966
994970 -0.995641191384468 0.0936393878179639
995173 -0.9956855230130207 0.09397983228026036
995376 -0.9957758315426254 0.09460564332391992
995579 -0.9953031495098038 0.09408450711319662
995782 -0.9940797610141501 0.09434131274527062
995986 -0.9950270408427571 0.09539541676399742
996189 -0.9953238998927835 0.09452427255609873
996392 -0.9951090553316141 0.09514154436887529
996595 -0.9945782663466214 0.09537914073059521
996799 -0.995117474206139 0.09511414966695209
997002 -0.9949898304503354 0.09636790112675674
997205 -0.9953110115498219 0.09600678212546325
997408 -0.9951200330202281 0.09607126917091548
997612 -0.9947536868158096 0.09598790466362979
997815 -0.9952780654848427 0.09675465459328873
998018 -0.9954568898508046 0.09616024329931898
998221 -0.9956351912984321 0.0974618110026506
998424 -0.9951037352130295 0.09715054371227715
998628 -0.9951750699573859 0.09788369924858065
998831 -0.9953105338707798 0.09808891551587115
999034 -0.994495479181674 0.09740389603275434
999237 -0.9950616090744683 0.09749529693826132
999441 -0.9940319360453045 0.09733404030909355
999644 -0.9939690611457485 0.09759707231888458
999847 -0.9947121276906591 0.09839089508670552
1000050 -0.994010039439554 0.0985834816596844
1000254 -0.9951761616210899 0.09800312858460368
1000457 -0.9942809596395156 0.0984346757113732
1000660 -0.9936450521471791 0.0984736291922384
1000863 -0.995066862223272 0.09849098293732318
1001066 -0.9958560277829123 0.09911470102991972
1001270 -0.9948766304840193 0.09931682375414431
1001473 -0.9948760709726922 0.09969739866926706
1001676 -0.9947281842335163 0.0992867551744563
1001879 -0.9943410053138025 0.09833324908886977
1002083 -0.9941377582218829 0.09755621931069212
1002286 -0.99385385560189 0.09842684564923032
1002489 -0.9945373813507827 0.09849422229304158
1002692 -0.9950787892506548 0.09833120052211218
1002896 -0.9952015298142156 0.09807703492278079
1002896 -0.9947398449962055 0.09855891374173423
1003103 -0.9948968392753 0.0983547148708547
1003310 -0.9952179840625209 0.09836327971683037
1003518 -0.9944090768338832 0.09843751228124388
1003725 -0.9944376905013478 0.09867897853883312
1003933 -0.9946069384986934 0.09882020465081284
1004140 -0.9952402144735648 0.09901987603971228
1004347 -0.9945124873909651 0.09901774719656338
1004555 -0.9947190665995884 0.09950918607098133
1004762 -0.9946255868483285 0.09977503444703953
1004970 -0.9949630337840832 0.09913373792670069
1005177 -0.9950554962186889 0.09908106146288845
1005385 -0.9950188206129943 0.09918571158140903
1005592 -0.9947534986621956 0.09905878407296155
1005799 -0.9951448556014026 0.09916386972667154
1006007 -0.995134584722698 0.09893808622184519
1006214 -0.9949102810736863 0.09870775210605588
1006422 -0.9946423330840071 0.0990412268820626
1006629 -0.9949245972327602 0.09906796729646908
1006836 -0.9949204598267392 0.09934279238130425
1007044 -0.9953963760320793 0.09921787828329105
1007251 -0.9946148939738169 0.09929804252848243
1007459 -0.9945897011209159 0.09966585925379352
1007666 -0.99444446166847 0.09939655395989522
1007874 -0.9952484595966634 0.0998146886222876
1008081 -0.9949413002134405 0.09897673992426521
1008288 -0.9944247161418535 0.09972205480041076
1008496 -0.9944524713495929 0.10001748600102488
1008703 -0.9950147326321158 0.09898036008098614
1008911 -0.9948817144110401 0.09891516593884427
1009118 -0.9942425599588883 0.09856073867394458
1009326 -0.9945332228956406 0.09966363296299424
1009533 -0.9948276266312399 0.09979172278872311
1009740 -0.9957922447130741 0.09975508961922641
1009948 -0.9954005370828216 0.0996991008842788
1010155 -0.9944877542450614 0.09986085940770359
1010363 -0.9949915131389543 0.10007517928591957
1010570 -0.995526303338977 0.09941047954533688
1010777 -0.99538937593269 0.0993092324836534
1010985 -0.9947288722014525 0.0993562680971702
1011192 -0.9948404437961066 0.099547453589567
1011400 -0.995060813497609 0.09979546277538887
1011607 -0.9948546802519675 0.09944349849232705
1011815 -0.9943361004457026 0.09913251796147149
1012022 -0.9934925174501359 0.09932019258227923
1012229 -0.9941788903223374 0.10018010526442209
1012437 -0.9944274875909465 0.09992539613926692
1012644 -0.9950166152534884 0.10029492058212801
1012852 -0.9942400929498003 0.0997828213923028
1013059 -0.9953480125031635 0.1001325530124657
1013267 -0.9949823101294953 0.10020372913983802
1013474 -0.9945674023646199 0.09956514892946697
1013681 -0.9949090968963733 0.09981720621510663
1013889 -0.9952819226110096 0.09985372062008435
1014096 -0.9953619647483289 0.09950332048757524
1014304 -0.9954776284399285 0.09965998300579614
1014511 -0.9936137634561154 0.09913810783150905
1014718 -0.9939392474835823 0.10014403395269024
1014926 -0.9943137793828014 0.09927876751523768
1015133 -0.9949935544899762 0.10013445351771551
1015341 -0.9948089819721055 0.10004128679903906
1015548 -0.9955231433866898 0.10029409645546901
1015756 -0.9943932434063183 0.09985228833837734
1015963 -0.9950905765239363 0.10006816640937372
1016170 -0.9953652273630373 0.09977817555532464
1016378 -0.9942544579638714 0.09992301172887723
1016585 -0.9947909168884268 0.10085191449287327
1016793 -0.9955399277946021 0.0992309352309137
1017000 -0.9957216930331563 0.09985467546454678
1017207 -0.9949968244669473 0.10016168303380724
1017415 -0.995568139173052 0.09979084355878803
1017622 -0.9954631847745314 0.10067533985251358
1017830 -0.9948309473771301 0.09978047408610087
1018037 -0.995164733848038 0.10044862245610019
1018245 -0.9944313036380502 0.10018478254768115
1018452 -0.994860278275885 0.10114647968167774
1018659 -0.9952657102811218 0.09991017280711274
1018867 -0.9949564491460089 0.10049122223358807
1019074 -0.994429531613831 0.09986384348519366
1019282 -0.9951675545390282 0.10050948826284506
1019489 -0.9944940368931627 0.10072689534254943
1019697 -0.9948894667847318 0.10043620745926557
1019904 -0.9943037586626878 0.10075052150352357
1020111 -0.9942200168753458 0.10027885750663015
1020319 -0.9944983826831832 0.1006332883102104
1020526 -0.9949827029652294 0.09995646699639993
1020734 -0.995031565416459 0.10064541024267987
1020941 -0.9947701912563393 0.10028333232097929
1021148 -0.995082254100537 0.10102412207615631
1021356 -0.9949035655398039 0.10088411874375568
1021563 -0.9949564313249133 0.10083470367694831
1021771 -0.9951416042902127 0.10093029309255924
1021978 -0.9941623501873764 0.10006256253837914
1022186 -0.9945100784228456 0.10088037447039047
1022393 -0.9945088900682773 0.10032216100419875
1022600 -0.9948155282478387 0.1007490686453841
1022808 -0.9947956132456739 0.10068254716855707
1023015 -0.9937404795800993 0.10076064270503457
1023223 -0.9945929135813104 0.1010623261278638
1023430 -0.9948989172642037 0.10095127761472789
1023638 -0.9955698111064736 0.10122246806810027
1023638 -0.9952002997116779 0.10125822070124259
1023849 -0.9965939682144807 0.10114149524505775
1024061 -0.9951997407617424 0.10135739255112315
1024273 -0.9948945981302405 0.10106696873400035
1024484 -0.9947290859878892 0.10121706232836529
1024696 -0.9946473603687364 0.10103298515235504
1024908 -0.9953910768728289 0.10103157763884002
1025120 -0.9951014793435526 0.10068962883745877
1025331 -0.9953614915770557 0.10052349212192763
1025543 -0.9953933360920298 0.1006628083316059
1025755 -0.9951870811438337 0.10122369062862668
1025966 -0.9953919960544051 0.10098320856233949
1026178 -0.9944715808566316 0.10170475015143214
1026390 -0.9949595069385264 0.10137673977400691
1026602 -0.9954991168053603 0.10180093893808675
1026813 -0.9946874211993916 0.10162086532524403
1027025 -0.9952233784079209 0.10225526203253113
1027237 -0.9955036943176969 0.10190081174240963
1027448 -0.994801182456231 0.10152720209267455
1027660 -0.9953346823638082 0.10152194563125648
1027872 -0.994168572789791 0.10097870628273936
1028084 -0.9949199865015006 0.10207334947128906
1028295 -0.9957274824849162 0.10037214662995841
1028507 -0.9950047329346333 0.10122324398518319
1028719 -0.9948305938470283 0.10068902198348517
1028931 -0.9944094795816046 0.10092483020706637
1029142 -0.9950179759282541 0.10124997666924407
1029354 -0.9952356217093938 0.1011346150214702
1029566 -0.99514974964941 0.10097511269448675
1029777 -0.9949852283491376 0.10142449051498673
1029989 -0.9943832910976537 0.10141466607949919
1030201 -0.9946626130781799 0.10126166952815249
1030413 -0.9948580633786844 0.10143920086627459
1030624 -0.994382446147396 0.10104684900635295
1030836 -0.9950136353728949 0.10172007793943849
1031048 -0.9944054051194007 0.10150648509636738
1031259 -0.993945367845609 0.10155157223602934
1031471 -0.9941698762225082 0.10142696016576086
1031683 -0.994338627456152 0.10159738057218362
1031895 -0.9948093257365832 0.10135251844095651
1032106 -0.9951350158896093 0.10187006724889529
1032318 -0.9959081350795422 0.10214270967419825
1032530 -0.9949976840448389 0.10166315848561573
1032741 -0.9947006057777236 0.10205892918960106
1032953 -0.9950059842029179 0.10139015284765214
1033165 -0.9948884614235735 0.10140699001564407
1033377 -0.9945485614025361 0.10159830747946119
1033588 -0.9938234921712775 0.10186492907980568
1033800 -0.9948671282146333 0.10185109189081634
1034012 -0.9945921023749762 0.10132911106219965
1034224 -0.9948437654541354 0.10144420973679878
1034435 -0.9947474684900968 0.10147451343020603
1034647 -0.9942260341013773 0.10208313441294162
1034859 -0.9953516865432478 0.10161531694066392
1035070 -0.9953537547502247 0.10228672184433867
1035282 -0.9951326159858914 0.10194335486667384
1035494 -0.9953552529459109 0.1022933836726543
1035706 -0.9944255865621918 0.10229230610389857
1035917 -0.995633724977033 0.10227948513313714
1036129 -0.9948160888934249 0.10241204889784275
1036341 -0.9941801160843203 0.10228199423025136
1036552 -0.9948920311927147 0.10209162722245582
1036764 -0.9957056794524257 0.10200087570641354
1036976 -0.995857701918653 0.10241832329170904
1037188 -0.994659365105764 0.10160060456957981
1037399 -0.9941421905424663 0.10161138943150134
1037611 -0.9944434001164414 0.10216037609832501
1037823 -0.9946330697061208 0.10222893829421542
1038034 -0.9949740089105906 0.10228927789220904
1038246 -0.9944694929976823 0.1023379155605134
1038458 -0.9945580667833378 0.10330887745543037
1038670 -0.9953940592644378 0.10290242573947829
1038881 -0.9951784550026459 0.10279360646288443
1039093 -0.9948172619556818 0.10258983507258752
1039305 -0.995221985405268 0.10269115950514758
1039517 -0.9951805745972204 0.10284228317046028
1039728 -0.995719008974825 0.10216181340299478
1039940 -0.9948227121052312 0.10167532253676356
1040152 -0.9933771087285815 0.1017674069737065
1040363 -0.9946284476092131 0.10217615829323345
1040575 -0.9957076651828057 0.10231531197253332
1040787 -0.9952319129021858 0.10200932265746246
1040999 -0.9945570573212303 0.10227558451625698
1041210 -0.9943604849437991 0.10237435290171301
1041422 -0.9943647031820796 0.10230523735839067
1041634 -0.9944908435001215 0.10285107085632472
1041845 -0.9943724905097827 0.10247437680194262
1042057 -0.9944498396119702 0.10290610060752746
1042269 -0.994416519930576 0.10321580127864914
1042481 -0.9945310430784734 0.10277126991061304
1042692 -0.9963852613036511 0.1032442495895857
1042904 -0.9940140251474934 0.10221920306189948
1043116 -0.9943860180832721 0.10310546706736934
1043327 -0.9948176943602158 0.10213309061540925
1043539 -0.9954734688277217 0.10289633480684342
1043751 -0.9967968301651727 0.10259187429976138
1043963 -0.9939054412942003 0.10210547279974282
1044174 -0.9939569878201886 0.10282402995600678
1044386 -0.9951165691161655 0.10256275820399602
1044598 -0.9943193819731682 0.10287323152427288
1044810 -0.9942286975349127 0.1023178737537295
1044810 -0.9944528605913346 0.10257220294026663
1045026 -0.9945947816320545 0.10284213105456924
1045242 -0.9948065461301059 0.10239061444360616
1045458 -0.993730175745919 0.10257615330266032
1045674 -0.9937838630213398 0.1030769972949492
1045890 -0.9943084483226214 0.10241850345361285
1046106 -0.9952901412681855 0.10348464901540073
1046322 -0.9950945260820628 0.10329945601492435
1046538 -0.9947024256124873 0.1036279957160375
1046754 -0.9920427297864814 0.10328276524811095
1046970 -0.9979998173568388 0.10330353345293918
1047186 -0.9938910072079099 0.10301989327471686
1047403 -0.9947055961770837 0.10335727816824042
1047619 -0.9974057922187427 0.10372545877741393
1047835 -0.9979125174830523 0.1042619829648164
1048051 -0.9965906372721364 0.10386072348892168
1048267 -0.9952078079681336 0.10306078038837789
1048483 -0.9931647174856705 0.10266627597635768
1048699 -0.9935745267872113 0.10326689028316705
1048915 -1.006789132063729 0.1082149760524792
1049131 -1.0063750039563881 0.1068548277617945
1049347 -0.993760601049602 0.1044377379307012
1049563 -0.991662229059359 0.10327305973164604
1049780 -1.0070582414334515 0.10631078441117581
1049996 -1.0066538973727825 0.10617122291637547
1050212 -0.9976787054285389 0.10464144761190185
1050428 -1.0006729154301623 0.10469320528635756
1050644 -0.9969314659502608 0.10422848445251756
1050860 -0.9978388744459694 0.10356806257323979
1051076 -0.9966343688482968 0.10347289117220139
1051292 -0.9984065754290017 0.10491990982372587
1051508 -0.9962671091335247 0.1032687646716571
1051724 -0.9961541864290675 0.10326223383473276
1051940 -1.001269174010517 0.10457152154673575
1052157 -0.9845147332140592 0.10102744920268024
1052373 -0.9953144497977487 0.10303319231595467
1052589 -0.9963695714568291 0.1042755778109871
1052805 -0.9937438089403275 0.10392328363811566
1053021 -0.9895310725802197 0.10303823405955599
1053237 -0.9950400080348913 0.10469711367053537
1053453 -0.994809031527175 0.10487985176306895
1053669 -0.9953277411468505 0.10412961518643703
1053885 -0.9940843512607761 0.10375020417928542
1054101 -0.9941574036990517 0.10369968603200785
1054317 -0.9947478203975083 0.10381881634100128
1054534 -0.9951745789984766 0.10371250291432066
1054750 -0.9952729234276664 0.10369466222286343
1054966 -0.9941594618478719 0.10383226510283644
1055182 -0.9926799279158993 0.10310007091774806
1055398 -0.9925600008134625 0.1037408256001796
1055614 -0.994376987484811 0.10366227028895873
1055830 -0.9937594836075612 0.1038092007577904
1056046 -0.9939219927272583 0.10354102127655258
1056262 -0.9915605091906426 0.10407967123813684
1056478 -0.9914049391448637 0.10323606111706979
1056694 -0.9935754303300443 0.10352942369459572
1056911 -0.993505563668627 0.10371060604291181
1057127 -0.994008265882635 0.10359373167820074
1057343 -0.9944843745744284 0.10383728035778757
1057559 -0.9944810508343606 0.10437415170375335
1057775 -0.9945619483158258 0.1047869039139749
1057991 -0.9949187318417418 0.10443906320800403
1058207 -0.9948954917933468 0.10474373055787084
1058423 -0.9939975720824157 0.10409706876558518
1058639 -0.9941121462222218 0.1042281814360538
1058855 -0.9944487106809565 0.1039520916997082
1059071 -0.9943800897330078 0.10401235045501693
1059288 -0.9951677817693888 0.10410305722193855
1059504 -0.9948211319745668 0.1040686521249398
1059720 -0.9940607585170251 0.10428211042491675
1059936 -0.9950740873406063 0.10495419263848846
1060152 -0.9943828902339046 0.10507203171707062
1060368 -0.9942119808977122 0.10431656710764461
1060584 -0.9941383152615269 0.10478824352588706
1060800 -0.9949562009780557 0.10437535676343822
1061016 -0.9945293514250434 0.10490705141011877
1061232 -0.9947300954948496 0.10507677694218405
1061448 -0.9948645493214514 0.10476510346657018
1061665 -0.9943268238321757 0.10453211759828257
1061881 -0.9949312510134933 0.1049899618529335
1062097 -0.9948305863824712 0.10433513429545746
1062313 -0.9940872612113667 0.10447046308149356
1062529 -0.994410078349482 0.10422671532055001
1062745 -0.9950609915324693 0.10410761008839524
1062961 -0.9940628901717538 0.10455932112904744
1063177 -0.9937468689771478 0.10445095057240283
1063393 -0.9938970338083312 0.1054881386300258
1063609 -0.9949313738198254 0.10458765453332684
1063825 -0.9945371603872403 0.10532358621217151
1064042 -0.9942335476122734 0.10483564138455274
1064258 -0.9941496137702133 0.10498927211131101
1064474 -0.9939411786524386 0.10459028403216368
1064690 -0.9964733021025797 0.1057070801210888
1064906 -0.9951223128886415 0.10499924480156123
1065122 -0.9952525012881915 0.10484597050960719
1065338 -0.9951855958107144 0.10524391702485421
1065554 -0.9951049282249189 0.10485091579800115
1065770 -0.994214108651237 0.1051085817395894
1065986 -0.9941635136674045 0.10518378579956804
1066202 -0.994552554118278 0.10524315299533045
1066419 -0.9946438547814199 0.10473152863880898
1066419 -0.9943565561608283 0.10488359567067237
1066639 -0.9941516249449973 0.10497791364871609
1066860 -0.9929659473414726 0.10519388769418975
1067080 -0.9938112957344138 0.10548712653956584
1067301 -0.9941351513185217 0.10522732883471948
1067521 -0.9945036265906914 0.10539696006982155
1067742 -0.9944319875973202 0.10560532730529221
1067962 -0.994914244272844 0.10565418405621396
1068183 -0.9951682688258121 0.10514433447053867
1068404 -0.9952528104795265 0.105382044949293
1068624 -0.9954136731167976 0.10490001186039544
1068845 -0.9939499962705801 0.10540039920285675
1069065 -0.9942234281747547 0.10556876749478192
1069286 -0.994460975231799 0.1055257727845485
1069506 -0.9942890452649775 0.10542683314993556
1069727 -0.9937657229564806 0.10502068697834252
1069948 -0.9937043206881466 0.1055168550448062
1070168 -0.994373991082714 0.10511848880657344
1070389 -0.9942919174594466 0.10514427577182203
1070609 -0.9941306467374887 0.1050854709110351
1070830 -0.9942947030129691 0.105306005495788
1071050 -0.9946828145942428 0.10470060906067621
1071271 -0.9947386399783018 0.1054456328065309
1071492 -0.9941113629128902 0.10514332936942491
1071712 -0.9944710946983112 0.10551519540699635
1071933 -0.9939471031292819 0.10537743004551058
1072153 -0.99440688754751 0.1063135618084658
1072374 -0.994179118443853 0.10547797339813668
1072594 -0.9935943288872663 0.10578377216739064
1072815 -0.9945248579669407 0.10577257834057621
1073036 -0.9953486015589353 0.10608955993163906
1073256 -0.9945122491443673 0.10559569538763591
1073477 -0.9941619528275086 0.10558068262203059
1073697 -0.9943508117031483 0.1056267486876934
1073918 -0.9949854730972629 0.1059624869270556
1074138 -0.9942310038571669 0.10607173145471423
1074359 -0.9939757593227001 0.105884285048132
1074580 -0.9941882333679656 0.10626847263840528
1074800 -0.9942835992962687 0.1056578609487413
1075021 -0.9947341473639052 0.10589956857520286
1075241 -0.9938427072775494 0.10586282945516992
1075462 -0.9940819999728414 0.10626227511522378
1075682 -0.9943896293761374 0.10621082543179655
1075903 -0.9947343316704219 0.10619557157401169
1076124 -0.9941277840493283 0.10610254026285865
1076344 -0.9939400736725857 0.10623251065149675
1076565 -0.9944229626154782 0.10600941051439672
1076785 -0.9957056441205295 0.10646840419637602
1077006 -0.9946960542304377 0.10579090313056431
1077226 -0.9953683606745501 0.10620638331267696
1077447 -0.9942459451309568 0.10573348321540382
1077668 -0.9949035510927446 0.10630072128720987
1077888 -0.9937356895217473 0.1056220998028542
1078109 -0.9938892333129102 0.10590060127287265
1078329 -0.9940874397720443 0.10600434526083095
1078550 -0.9941120984522419 0.10598974042104864
1078770 -0.9937189675321236 0.10634553905065544
1078991 -0.9934933704095484 0.10619259249582928
1079212 -0.9934381226921964 0.10674305024367427
1079432 -0.993623900773143 0.10612042560516255
1079653 -0.9939267042179726 0.10633884649695576
1079873 -0.9940625566184114 0.10611837959864061
1080094 -0.9943858317740376 0.10617457882016756
1080314 -0.9940354275159664 0.10558244537821829
1080535 -0.9944957673713631 0.10622348171936466
1080756 -0.994475846215503 0.10548922620599635
1080976 -0.9938878310189619 0.1063496648960745
1081197 -0.9939920951730294 0.10569138598196484
1081417 -0.9945408636924735 0.10625996399017484
1081638 -0.9940617986253855 0.10648355688309892
1081858 -0.9933194506263777 0.1065861286804822
1082079 -0.9934381994893078 0.1066145301731622
1082300 -0.993853462015193 0.10620397937282144
1082520 -0.9944561539212065 0.10682969519041945
1082741 -0.9937764174385435 0.10659026379979454
1082961 -0.9932593428001383 0.10674047837655104
1083182 -0.9938622950434698 0.10693431553906785
1083402 -0.9943662156515174 0.10674078027599888
1083623 -0.9931461035746537 0.10636085900168951
1083844 -0.9941077278279244 0.10734709801100444
1084064 -0.9942907362290758 0.10625352985172604
1084285 -0.994394844274075 0.10668919341582914
1084505 -0.9936790946717005 0.10605442950636595
1084726 -0.9945623036304279 0.10683057000305556
1084946 -0.9955189250770141 0.10602995096938594
1085167 -0.994643652005737 0.10613085128564849
1085388 -0.99447107810759 0.10587633397049107
1085608 -0.9938740247262272 0.10603782214413418
1085829 -0.9948308805689515 0.10629890290090348
1086049 -0.9947270426483147 0.10687387354020031
1086270 -0.994323553742955 0.10666644371938455
1086490 -0.9932781810396278 0.10680684759336231
1086711 -0.9937518084943641 0.10688536706627064
1086932 -0.9944170492306456 0.10747898508152198
1087152 -0.9941473227765889 0.10684459983839552
1087373 -0.9930022008155471 0.10708169767534423
1087593 -0.992786564004394 0.107088020965119
1087814 -0.9934512874153097 0.10738656121088075
1088034 -0.9941232696121844 0.10725007400712976
1088255 -0.9934778308054161 0.10685385347582013
1088476 -0.9939287148332397 0.10736308986567805
1088476 -0.9933776939625846 0.107133338608484
1088701 -0.9938149859722504 0.10665984120554478
1088926 -0.9944891820762971 0.10702024839732688
1089151 -0.994253124629634 0.10684315907739243
1089376 -0.9934582179034427 0.10669600090421795
1089601 -0.9947152619335984 0.10707130176904338
1089826 -0.9947472548033872 0.10710524257088912
1090051 -0.9943521321384428 0.10739017402307595
1090276 -0.9931845858927614 0.10716306057220319
1090502 -0.993482436761797 0.1076516982491549
1090727 -0.994312097440996 0.10867912527609462
1090952 -0.9939692484511772 0.10803538333941398
1091177 -0.993319191991176 0.10789553507276045
1091402 -0.9940014745557607 0.10781427593617778
1091627 -0.994025080995945 0.10774714627306962
1091852 -0.9942068661942516 0.1077103126716637
1092077 -0.9937015409202293 0.10773305299428279
1092303 -0.993891708071126 0.10752974955460048
1092528 -0.9947169627506283 0.10719892347040401
1092753 -0.994104088070855 0.10748527574363438
1092978 -0.9943080072582585 0.10668927235369027
1093203 -0.9936340930010948 0.10647619904290895
1093428 -0.9939082446697165 0.10725021864897655
1093653 -0.9933452804555487 0.10750062097419134
1093878 -0.9941470686000983 0.10748383223702963
1094104 -0.9930408421016901 0.10804765671077045
1094329 -0.9936195411495531 0.10746646360583813
1094554 -0.9934530142651038 0.10837975978722351
1094779 -0.9940779532019376 0.1076444553561096
1095004 -0.9930632793279625 0.10806272219910157
1095229 -0.993485346045531 0.10805572499588639
1095454 -0.9940770979150582 0.10760618775632463
1095679 -0.9941762630105828 0.10775945228437676
1095904 -0.9944273302637443 0.10778923149129378
1096130 -0.9944620619037816 0.1081350905452877
1096355 -0.9947714156259801 0.10786377752295763
1096580 -0.9945963271361632 0.10774996327428481
1096805 -0.9940165035304581 0.10743781077146267
1097030 -0.9948495253001275 0.10796899485210197
1097255 -0.9943697664724553 0.10798811369453175
1097480 -0.9943450173259596 0.10791907568884722
1097705 -0.9940001024527136 0.1076930506571642
1097931 -0.9945340650852622 0.10847947954808411
1098156 -0.994313848716034 0.1080058173515683
1098381 -0.9940058228772563 0.10843521500837501
1098606 -0.9936361098271267 0.10833180740706506
1098831 -0.9940042275497227 0.10890480724179076
1099056 -0.9941838233438174 0.10787842151264661
1099281 -0.9942200774091284 0.10856500680964369
1099506 -0.9938719312167318 0.10805319508173945
1099732 -0.9940213812995866 0.10855276413738539
1099957 -0.9941364261348286 0.10845585313722797
1100182 -0.9941418653520886 0.10803106878514776
1100407 -0.9940659780241891 0.10731773236321569
1100632 -0.9933170537701999 0.10700694333668076
1100857 -0.993614701348577 0.10742594300105256
1101082 -0.9933308422078664 0.10746943737791882
1101307 -0.9936784493415015 0.10783127496512088
1101532 -0.9938940336929384 0.10840988780038907
1101758 -0.9941059588238023 0.10909828692243168
1101983 -0.9946868743538856 0.10917328857832129
1102208 -0.9939871987285802 0.10898536744311065
1102433 -0.9935187265701573 0.10866324705987439
1102658 -0.9934341165238765 0.10908094670700791
1102883 -0.9934615019576504 0.10863626520848242
1103108 -0.9943389216526727 0.1090186164366464
1103333 -0.9942652018530468 0.10924786004626408
1103559 -0.9942275524357318 0.10896282576214585
1103784 -0.9946419745591025 0.10880500484225056
1104009 -0.9942668130515485 0.10920664856125986
1104234 -0.99402989962624 0.1084432735553299
1104459 -0.9932804156271149 0.10878220092706939
1104684 -0.993636526261868 0.10856725621858565
1104909 -0.9939593497941409 0.10904501178430377
1105134 -0.9938831204708276 0.10881358770946513
1105360 -0.992745194940389 0.10887158097036921
1105585 -0.9935100486623171 0.10857644875154157
1105810 -0.994058365851964 0.1090114119378838
1106035 -0.994269862391152 0.10877689507728827
1106260 -0.993191664938532 0.10811431747968739
1106485 -0.9942152243409447 0.10875670763018314
1106710 -0.9946465210830622 0.10866612974915829
1106935 -0.9941471848367788 0.10907328751846435
1107160 -0.9938951382105079 0.10894872661586127
1107386 -0.9940720648206087 0.10970215404375677
1107611 -0.9940022586843239 0.10887066996107339
1107836 -0.9937973420491788 0.109274509017781
1108061 -0.9932452790425892 0.10949947918681009
1108286 -0.9930949241249095 0.10942637051980666
1108511 -0.9934897596957858 0.10890153217288244
1108736 -0.9933073329325818 0.10924134537444855
1108961 -0.9932169578666848 0.10941657758738181
1109187 -0.9933875839479116 0.10964575996289477
1109412 -0.9943393002452854 0.10927214966643645
1109637 -0.9946953776574008 0.10932644324226858
1109862 -0.9943033255776759 0.10924849050422433
1110087 -0.9935168174433493 0.10958514070312383
1110312 -0.9941471349650169 0.10931710020740901
1110537 -0.9940885657315146 0.10942712746692812
1110762 -0.9942275593313707 0.10915499870424145
1110988 -0.993457702128368 0.10929229279795334
1110988 -0.9935731401000951 0.108925309692112
1111217 -0.9941170958687626 0.10912020309525912
1111447 -0.9940153354864255 0.10945510766545265
1111677 -0.9936044725529252 0.1095942976596791
1111907 -0.9941500059666833 0.10965911329551324
1112136 -0.9942655427508459 0.10923970049060755
1112366 -0.9941072283506857 0.10993582807610557
1112596 -0.9935721433969514 0.10898605932983103
1112826 -0.9936191247151351 0.10983455843013741
1113056 -0.9939516689997007 0.1099054348617173
1113285 -0.9943345864448004 0.11024364378317336
1113515 -0.9940883065498933 0.10975136353119865
1113745 -0.9944024312667948 0.10939062078984224
1113975 -0.9944427233249399 0.10925958722045365
1114205 -0.9947755077249224 0.10957367995570924
1114434 -0.9944968004753708 0.10932383332893439
1114664 -0.9939585105253113 0.10928852058926358
1114894 -0.9943507387523008 0.1091564667168678
1115124 -0.9946827381973605 0.10965199614533962
1115354 -0.9941430690439813 0.10923787077901556
1115583 -0.9931003770076962 0.10964426036456544
1115813 -0.993494218879842 0.11008765899804214
1116043 -0.9936303207500587 0.11025959161777257
1116273 -0.9933032986384353 0.11005230700175694
1116502 -0.9930085878049937 0.11016000829605518
1116732 -0.9935376130376619 0.11037240416611342
1116962 -0.993815812796389 0.11062676712222701
1117192 -0.9940491362444819 0.11036841916669382
1117422 -0.9939063815663379 0.11007529343088576
1117651 -0.993881402718797 0.10962972334808868
1117881 -0.9945580000063088 0.10944690087116077
1118111 -0.9942921455530512 0.10979656585041721
1118341 -0.9937805911460726 0.10973003019710181
1118571 -0.9939007094536432 0.11022587560019723
1118800 -0.9936033940446464 0.10957452165122798
1119030 -0.9941471173824357 0.1106147581720582
1119260 -0.9934630150817826 0.1106201613404353
1119490 -0.9930652794593071 0.11044534604093506
1119720 -0.993914485631747 0.11068975347676774
1119949 -0.9935057244993797 0.11063713396214794
1120179 -0.9930005794841485 0.10988523616145088
1120409 -0.992945817881089 0.11061092684720178
1120639 -0.993579409610945 0.11003036320608048
1120868 -0.9941888375501994 0.11020146354515034
1121098 -0.9933065022329928 0.11001591733566196
1121328 -0.9935818766251814 0.11003088800616878
1121558 -0.9938998339610271 0.11052284124561677
1121788 -0.9943540868476122 0.10989894748358964
1122017 -0.9940513316352169 0.11044497846378101
1122247 -0.9944575829218023 0.11000413845492084
1122477 -0.9944808538016425 0.110471740129656
1122707 -0.9942901969251874 0.11063452353639845
1122937 -0.9939146888342576 0.11027673875079272
1123166 -0.9936353674202976 0.11093720403593467
1123396 -0.9939561610611379 0.11098919895029774
1123626 -0.9940758227577171 0.11133779151193766
1123856 -0.9937378893687344 0.11096238545913652
1124086 -0.9941314036699055 0.11200953922771996
1124315 -0.9939485107721777 0.1109110167338088
1124545 -0.9954497068607399 0.11192445047407819
1124775 -0.9941475460065139 0.11100511537827205
1125005 -0.9950607910807454 0.11154502818455701
1125234 -0.9944692632203731 0.11080262082069167
1125464 -0.9932869837237421 0.11056033650537983
1125694 -0.9931680210736298 0.11044781875277229
1125924 -0.9938204017328359 0.11081012542604822
1126154 -0.993001804918175 0.11053562062481279
1126383 -0.9945375397752865 0.1112161560047018
1126613 -0.9928284838909606 0.11061185521877286
1126843 -0.993592128857171 0.11140595865940145
1127073 -0.9935107520264399 0.11096406043732708
1127303 -0.9938446627082131 0.1114274337704651
1127532 -0.992842640555765 0.11064671205317014
1127762 -0.99244678270298 0.11143536926784073
1127992 -0.993475666548269 0.11118966137895092
1128222 -0.9940676471278883 0.1117986420081055
1128452 -0.9934032091480657 0.11112574401070154
1128681 -0.9935955262583208 0.11129065408276101
1128911 -0.9939702680675467 0.11076064741963526
1129141 -0.9939934281614364 0.11144998668124158
1129371 -0.9939083102673846 0.11110694029207677
1129600 -0.993365845693544 0.11097162901772889
1129830 -0.9931579228171893 0.11099006309232261
1130060 -0.9937247230378881 0.11146952544443849
1130290 -0.9940023316541754 0.11125205449222056
1130520 -0.9933987846877491 0.11099479364598855
1130749 -0.994130849949784 0.11124672104481073
1130979 -0.9938398184061867 0.11172522221644393
1131209 -0.993811916376933 0.11143081504336154
1131439 -0.9921598808843273 0.11093363198469665
1131669 -0.9929622051366414 0.11167913968203812
1131898 -0.9935303705337244 0.11170766048476201
1132128 -0.9938238608153042 0.11140994806999728
1132358 -0.9929438630792581 0.11102082563124338
1132588 -0.9936687085644794 0.11150862514991473
1132818 -0.993986688857814 0.11132468798651621
1133047 -0.9941428806809021 0.1113475181170601
1133277 -0.993471827137783 0.1106165980398968
1133507 -0.9934241176158712 0.11121532918837063
1133737 -0.993539688464795 0.11121211130362255
1133967 -0.9947215556237551 0.11213508497931696
1133967 -0.9943142072775726 0.11177038561358876
1134201 -0.9932710400324511 0.11139418905658056
1134436 -0.9937970697084922 0.11229448361690561
1134670 -0.9937947523212112 0.11169586194584309
1134905 -0.9934494870694934 0.11207029432293639
1135139 -0.992337731327175 0.11095331071860717
1135374 -0.9925891212624205 0.11183996293036425
1135608 -0.9930046035564295 0.1121008835485053
1135843 -0.9937659896847432 0.11184121833404713
1136077 -0.9927810034145914 0.11197291743264542
1136312 -0.9933433470537402 0.1120619372731569
1136546 -0.994040611505754 0.11193480842164025
1136781 -0.9941827432083773 0.11200144605775379
1137015 -0.9933946479858742 0.11181556131285726
1137250 -0.9939495611986475 0.11151977831651767
1137484 -0.9940401390001563 0.11198624567454578
1137719 -0.9935828502673557 0.11147867973951178
1137954 -0.9928275095025659 0.11152255853638722
1138188 -0.9930166165711132 0.11172745119794311
1138423 -0.9934789889393228 0.11228111502235164
1138657 -0.9931261587128335 0.11221765425067433
1138892 -0.9924105305692452 0.11276513957613636
1139126 -0.9931689397604757 0.11259295138224067
1139361 -0.9929160255626732 0.11239065561266993
1139595 -0.9932160056123487 0.11160882295570006
1139830 -0.9926449772808775 0.11232478200342239
1140064 -0.9932485352255837 0.11176289357439251
1140299 -0.9934079438132727 0.11203409907130953
1140533 -0.9932497986577941 0.11184619006802182
1140768 -0.9929405331083058 0.11196849861095148
1141002 -0.9936030289094846 0.11173981505946887
1141237 -0.993500030392442 0.1116234185850222
1141471 -0.9933803985820366 0.1114512017081714
1141706 -0.993065348583811 0.11207764202541085
1141941 -0.9937229240502912 0.11271964505046335
1142175 -0.9936428629470909 0.11293169678519763
1142410 -0.9932671822931057 0.11198718918251603
1142644 -0.9927573573686214 0.11263777073569663
1142879 -0.9931501454734911 0.11238627545854994
1143113 -0.9940054839657956 0.11285595251535337
1143348 -0.9932644238919404 0.11181938614474206
1143582 -0.9929853121892346 0.11250428390510854
1143817 -0.9931846385982191 0.11296963998285049
1144051 -0.9934394337409254 0.11279806451009523
1144286 -0.9936805399922966 0.11213848739712572
1144520 -0.9928913158674298 0.11238256263001499
1144755 -0.9938380512934587 0.11239425940269859
1144989 -0.9943582710392135 0.11198176149738504
1145224 -0.9940632629301035 0.11246047728558109
1145458 -0.9934840841237024 0.11235392422154562
1145693 -0.9932465573734462 0.11281566735323198
1145928 -0.9936659671835811 0.11288538034422278
1146162 -0.9937913592264188 0.11315455250948554
1146397 -0.9934413276354646 0.11276222123679923
1146631 -0.9930845231069577 0.11255059133255603
1146866 -0.9936782901533402 0.11248489554950122
1147100 -0.994021704570024 0.11260364749757656
1147335 -0.9938503782153519 0.11194637828252271
1147569 -0.9937482241788184 0.11256925735676138
1147804 -0.993936146019661 0.11264589319703258
1148038 -0.9940000292055433 0.11255516898365371
1148273 -0.9929292801690756 0.11226584935903479
1148507 -0.9928267960841938 0.11246937227048281
1148742 -0.9932081912925944 0.1126686129276935
1148976 -0.9927168908327804 0.1129374634278337
1149211 -0.9921842873078106 0.11290665619706772
1149445 -0.9925807508496249 0.11313179887540956
1149680 -0.9931533890415744 0.11322827958435247
1149915 -0.9926499103203354 0.11335168185300026
1150149 -0.9922686622452532 0.11302801115623418
1150384 -0.9915101382565186 0.11379387796078184
1150618 -0.9937564051660734 0.11408992121091517
1150853 -0.9930871676112643 0.11382828298612989
1151087 -0.9934534649200661 0.11330404495707162
1151322 -0.9936317043761127 0.11403260305605556
1151556 -0.994055864653568 0.11309276313050909
1151791 -0.994507698532382 0.11327940443576322
1152025 -0.9935842579970575 0.11198660998073368
1152260 -0.9935284241672212 0.11266327287269713
1152494 -0.9940901916898605 0.11322342543925619
1152729 -0.9930496481839567 0.11271258889649402
1152963 -0.9926690530540635 0.11243050145824585
1153198 -0.9929095465665826 0.11330529204476265
1153432 -0.9940356846276919 0.11370049545932825
1153667 -0.9932359718718857 0.11359317222798763
1153902 -0.99320492131084 0.11342609591010132
1154136 -0.9934831875855796 0.1138972412627654
1154371 -0.9934614880869915 0.11414679137089218
1154605 -0.9928816441266651 0.11347435721403228
1154840 -0.9927781999977916 0.11332228106298094
1155074 -0.9928957709445881 0.11366199772751139
1155309 -0.9929287062423737 0.11352542339547102
1155543 -0.9927329667895135 0.11327721505993123
1155778 -0.992703760075746 0.11314748032360446
1156012 -0.993087613892598 0.1132724548907217
1156247 -0.9935640717661908 0.11352024514306762
1156481 -0.993475092693744 0.11393204132507058
1156716 -0.9927929237516997 0.11328805108483767
1156950 -0.9928850201953491 0.1137117431724631
1157185 -0.9935921910274645 0.11408114245035342
1157420 -0.9931660846334094 0.11383759702806157
1157420 -0.9928270001298404 0.1139269756967897
1157659 -0.9939854180615793 0.11381903705250328
1157898 -0.9941545245820285 0.11441636750084144
1158138 -0.99342802535494 0.11400039347824847
1158377 -0.9931679842485713 0.11432030331950584
1158616 -0.9939095292874512 0.1140391557992753
1158856 -0.9934043834765075 0.11403910149202937
1159095 -0.993310978730656 0.11323033972578303
1159335 -0.9938926818045988 0.11406874474479377
1159574 -0.9940219755726483 0.1139714034021
1159813 -0.9934764553345 0.11363343558788015
1160053 -0.992602924765134 0.11317528367071727
1160292 -0.9924744996407912 0.1136554374115504
1160532 -0.9932377600990249 0.11401632429068435
1160771 -0.9928989934569346 0.11390515835978768
1161010 -0.9922545697175326 0.1131584191454612
1161250 -0.9927065520015711 0.11402099016672537
1161489 -0.9934186969309274 0.1142977239531482
1161729 -0.9934585312170868 0.1148092232509176
1161968 -0.9931491707452659 0.11443487802359367
1162207 -0.9934888302520828 0.11442698558059691
1162447 -0.9938617078863058 0.11476169296616907
1162686 -0.9934750017605318 0.11488978465927731
1162925 -0.9931283071981479 0.11435735313694319
1163165 -0.9936662577155789 0.11408088877360559
1163404 -0.993872483311245 0.1143092519523706
1163644 -0.9935294755959729 0.11383640740039887
1163883 -0.9928183861031676 0.11404420905578945
1164122 -0.9931589160229556 0.11392196401659443
1164362 -0.9935716410244381 0.11441220688626355
1164601 -0.9927556739467298 0.11411246913525609
1164841 -0.9923445563063581 0.11454643240515149
1165080 -0.9928647979839689 0.11491237730398834
1165319 -0.9934131344315332 0.11543878786273289
1165559 -0.9933204232453018 0.11442154934971191
1165798 -0.9925897317881104 0.11525957378879724
1166038 -0.9931022438021494 0.11479984070908217
1166277 -0.993723016191567 0.11480894959734336
1166516 -0.9932884658530503 0.1140273219125253
1166756 -0.9927157619941726 0.11432452300080408
1166995 -0.9931945824947606 0.11436008015586266
1167234 -0.9937702163208095 0.11457092839463517
1167474 -0.9932864112367648 0.11416328709101176
1167713 -0.9922261436733747 0.11450055314186453
1167953 -0.9928545517923771 0.11454353180825565
1168192 -0.9933506604166095 0.1146421567037012
1168431 -0.9929305788596456 0.11413637719834809
1168671 -0.9926610081271197 0.11517284281917158
1168910 -0.9936083652432344 0.11513956093253284
1169150 -0.9931293090809837 0.11476534405365023
1169389 -0.9927514496975973 0.11431048327876836
1169628 -0.9935493696460318 0.11488652866891252
1169868 -0.9939843517890241 0.11529404119964735
1170107 -0.9935131686682966 0.11476064672307301
1170347 -0.9925967432599903 0.11426279502175406
1170586 -0.9931553910038796 0.11448811555912564
1170825 -0.9933635032167455 0.11514158144635253
1171065 -0.9934295207670866 0.11494411046298174
1171304 -0.9921141642407665 0.1145007002942686
1171544 -0.993048711730895 0.11511934176127991
1171783 -0.9929812131930046 0.11565212806089659
1172022 -0.9930315268339193 0.11516432451621846
1172262 -0.9913447579928348 0.11506260403572759
1172501 -0.9925878121991296 0.11484440845487986
1172740 -0.9928794140749645 0.11573909207733851
1172980 -0.9931650811175496 0.11601364337894636
1173219 -0.992616421540408 0.11574704400596225
1173459 -0.9929861789720149 0.11576624259026486
1173698 -0.993327487789662 0.11632018587499464
1173937 -0.9936448040052734 0.11567368780444007
1174177 -0.9926133516879053 0.11568050996961357
1174416 -0.9935104215390387 0.11524677538274929
1174656 -0.9932305006732416 0.11523557357285227
1174895 -0.9935641484574611 0.11465475667965867
1175134 -0.9924656733786108 0.11503668047272368
1175374 -0.9930383606001738 0.1152482954053627
1175613 -0.9932799027800603 0.11538074778376908
1175853 -0.9932777299849191 0.11582793171556917
1176092 -0.9924267576242213 0.115638779370229
1176331 -0.993147123939513 0.11555028456064545
1176571 -0.9928731281719616 0.11607740258492506
1176810 -0.9926069169459258 0.11607080533703869
1177049 -0.9932017427978443 0.1167607312683344
1177289 -0.9933480145620173 0.11606409719563515
1177528 -0.9933925329856873 0.11635643457350352
1177768 -0.9931335142287995 0.11585089995079094
1178007 -0.9931733151755684 0.11568194772314061
1178246 -0.9929222938384018 0.11520035410908833
1178486 -0.9935106267712498 0.11544542727922547
1178725 -0.9924003446466002 0.11498879651752734
1178965 -0.9924013829789887 0.11557538975660725
1179204 -0.992862140527343 0.11589047834835707
1179443 -0.9931054138691214 0.11671017401748304
1179683 -0.99218411621429 0.11640301850369954
1179922 -0.9926576198174716 0.11646507273320748
1180162 -0.9926854306948825 0.11620558742254393
1180401 -0.9935443833711536 0.11724796718314567
1180640 -0.9926494971884715 0.11571926923072082
1180880 -0.9934318263102182 0.11632502181432684
1181119 -0.9941436045169968 0.11570488858550813
1181359 -0.9940730012886653 0.11602587035637976
1181359 -0.9938583905184117 0.11576579118371796
1181603 -0.9929358271256074 0.11648953547416549
1181847 -0.993737621277553 0.11589428174648549
1182091 -0.993367474660924 0.11612669646528674
1182336 -0.9938700364131209 0.11621425786874837
1182580 -0.9932639655057784 0.11578962883910855
1182824 -0.993721242696847 0.11634058284797828
1183069 -0.9927898486216676 0.11663197425438522
1183313 -0.9927356135848134 0.11656707178438779
1183557 -0.9923848521962731 0.1165392425230258
1183802 -0.9929329147475311 0.11656795249159768
1184046 -0.9926165699416684 0.11651231127694575
1184290 -0.992141345737157 0.11605360869048709
1184535 -0.9921244422787987 0.1162719828802044
1184779 -0.9934398016570262 0.11687121972329396
1185023 -0.9938119394393597 0.11680971963626191
1185268 -0.9934647329173865 0.11620822248011571
1185512 -0.9945013504759784 0.11738744001919127
1185756 -0.9939484334162096 0.11694723361539015
1186001 -0.9941008832694271 0.11693772590122668
1186245 -0.9925810589167376 0.1167876961195926
1186489 -0.9929493777893701 0.11690100160356161
1186734 -0.9933959999679876 0.11695378197489821
1186978 -0.9934005911324836 0.11674022289203223
1187222 -0.9928178867383839 0.1171434870011024
1187467 -0.9930431473556135 0.11704242794569422
1187711 -0.9937748203003908 0.11756926622745387
1187955 -0.9929217527274957 0.11662364071117855
1188200 -0.9924956682622504 0.1172331450686469
1188444 -0.9938118565131823 0.11700261060066637
1188688 -0.9930195441555262 0.11778818954039215
1188933 -0.99299635818332 0.11671403771535237
1189177 -0.9926391298317339 0.11708309771577669
1189421 -0.9940209620451074 0.11719309833283587
1189666 -0.9926749507364436 0.11723734391718892
1189910 -0.9925184152241668 0.11628961739225055
1190154 -0.9924113571167942 0.11680627380260009
1190399 -0.9928788301066576 0.11670927785044505
1190643 -0.9927928681752072 0.11699193633651941
1190887 -0.9920446009212638 0.11710483732769374
1191132 -0.9923034916063878 0.11760743877316697
1191376 -0.99282793047253 0.1177695423128947
1191620 -0.9930341960917733 0.11796184929758582
1191865 -0.9922043746115572 0.11780628989728177
1192109 -0.9933407774058163 0.11739660348030072
1192353 -0.9931635121686571 0.11722059181226893
1192598 -0.9940520414362458 0.11713122720918066
1192842 -0.991951804883887 0.11688628974784766
1193086 -0.9929086277698167 0.11679743873821488
1193331 -0.9929262911230065 0.11742535934640459
1193575 -0.9928551631774092 0.11635697941586937
1193819 -0.9925889384783312 0.11703948177839134
1194064 -0.9924367468689306 0.11715872095920561
1194308 -0.991746944245246 0.11762639388529988
1194552 -0.9914325763509599 0.11657084684922199
1194797 -0.9885560690050363 0.11669908787755545
1195041 -0.9901885511773912 0.11665570706999685
1195285 -0.9925931519284824 0.11767282796184324
1195530 -0.992428486410297 0.11729388998313661
1195774 -0.9921469424333558 0.117360160823096
1196018 -0.9930396141111262 0.11716255780373364
1196263 -0.9926799664193863 0.11747533597940366
1196507 -0.9922531033657486 0.11634602167429893
1196751 -0.9920681792449192 0.1169169334823893
1196996 -0.9930685402511514 0.11767501377529364
1197240 -0.9919693310342124 0.11757324796035143
1197484 -0.9906547207316807 0.11707050099563622
1197729 -0.9927862972764977 0.11809996078401716
1197973 -0.9927435028777899 0.11973750791086425
1198217 -0.9884664415666095 0.11666844399764513
1198462 -0.9889107376465514 0.11674303657366429
1198706 -0.9896660127831454 0.11653151644687858
1198950 -0.9930371291281118 0.11808324493043483
1199195 -0.9934847514028995 0.11857289249970618
1199439 -0.9923392491772041 0.11789210693608522
1199683 -0.9907976734820322 0.11720803280849725
1199928 -0.9924368924758766 0.11815658639865798
1200172 -0.9939619261276607 0.11781255047802498
1200416 -0.9940602619774414 0.11889849342445054
1200661 -0.9947833579089577 0.11864165532083623
1200905 -0.9996613866886178 0.1213140753611297
1201149 -0.9837318227488159 0.115968545608763
1201394 -0.9917589705163102 0.11740587818346364
1201638 -0.9941063487927967 0.11798532551706338
1201882 -0.9892219326669338 0.11695428628846695
1202127 -0.9864873963969736 0.11614031107308848
1202371 -0.9897694047919303 0.1169383226012266
1202615 -0.9913893335657239 0.11780165419313615
1202860 -0.9914001944223834 0.11774917562597514
1203104 -0.9905663814450594 0.11684649918207093
1203348 -0.9912008281501805 0.11784903789944699
1203593 -0.9929203726593251 0.11852741018629472
1203837 -0.9928806800472734 0.11868001633985038
1204081 -0.9918882416591451 0.11752319834109579
1204326 -0.9930108820746897 0.11809560492596692
1204570 -0.9930909480898149 0.11805195311749772
1204814 -0.9936300416863802 0.11875139580807255
1205059 -0.9911196843230917 0.11776907203992071
1205303 -0.9949262077347331 0.11847237547288382
1205547 -0.9931318227914596 0.1192416396463828
1205792 -0.9938909097626712 0.11899603716651988
1205792 -0.9928780313851368 0.11854244790658744
1206041 -0.9932650255937303 0.11846176247265204
1206290 -0.9936564310237359 0.1191673988418607
1206540 -0.9931557734530572 0.11910077782304679
1206789 -0.9921378001097846 0.11909927971166172
1207038 -0.9930153030432469 0.11896019366385915
1207288 -0.9919054535950786 0.11861706031728712
1207537 -0.9925250162570488 0.11889098531425425
1207787 -0.9915661962060832 0.11829657883278119
1208036 -0.9921763019712834 0.11802032967299513
1208285 -0.9929676594062882 0.11886888433548207
1208535 -0.9921801237249493 0.11852741569163701
1208784 -0.9918888531762821 0.11881824393649715
1209034 -0.9921053274019224 0.11891790110750844
1209283 -0.9920167928837683 0.11881696051482016
1209532 -0.9909454058180757 0.11837429061977393
1209782 -0.9916902839846334 0.11884481235029254
1210031 -0.9929398073615209 0.11922838927094644
1210281 -0.9943103259161934 0.11926381365979062
1210530 -0.9924408296952908 0.11881976921551056
1210779 -0.9931347060384785 0.11927160391743878
1211029 -0.9937038268788684 0.11956662223577404
1211278 -0.9941638254717966 0.11940289454153365
1211527 -0.9918474584326586 0.11902556985521584
1211777 -0.9929693183153527 0.11889260059724921
1212026 -0.9931407055238802 0.11954091856566544
1212276 -0.9927416058441807 0.11897753007633537
1212525 -0.9923201201695118 0.11894727965281135
1212774 -0.9925849076143689 0.11924083230748922
1213024 -0.9931276463612716 0.11969321789361685
1213273 -0.9925391823111266 0.1194800423619474
1213523 -0.9931173654610447 0.11938296809731445
1213772 -0.9929731174995613 0.11967456949503771
1214021 -0.9927706660458989 0.11984569613660002
1214271 -0.9920335014936434 0.11934543772687399
1214520 -0.9925542017798876 0.11951096623489094
1214770 -0.9919912767409422 0.11985022396476812
1215019 -0.9925314297732571 0.119822851888187
1215268 -0.9919088070967833 0.11976823059470161
1215518 -0.9925911705565098 0.11963832447863952
1215767 -0.9925472195860441 0.11973319862021485
1216016 -0.9927519071970572 0.11887374374963526
1216266 -0.9926007491878343 0.11912317826521601
1216515 -0.9925228938372457 0.11936057310333534
1216765 -0.993369732345398 0.12004371802604773
1217014 -0.9925187333383674 0.11923861032227277
1217263 -0.9926703155572709 0.12029010031382466
1217513 -0.9929243915010227 0.12086094323869642
1217762 -0.9932000151525862 0.12014268194207202
1218012 -0.9925439979356148 0.11979084499063865
1218261 -0.9929192804396797 0.11993823857628975
1218510 -0.9927480167732076 0.11979965231901823
1218760 -0.9917125886308208 0.11963921264515873
1219009 -0.9921544752038725 0.11997152072877103
1219259 -0.9927501961494589 0.11997630732197978
1219508 -0.9929392983517884 0.12032131786659676
1219757 -0.9918146304527522 0.12043260876679639
1220007 -0.9926916746470821 0.11993332966399761
1220256 -0.9927388167386101 0.1207330638711737
1220506 -0.9929179702076906 0.12044466006883718
1220755 -0.9922379331788418 0.12017933987103961
1221004 -0.9931711194412233 0.12044370883254361
1221254 -0.9930608272024567 0.12026245954702892
1221503 -0.992643199375092 0.11901882092729728
1221752 -0.9925624878787689 0.1199032056982446
1222002 -0.9933469428274264 0.11991403559849234
1222251 -0.9927960438792663 0.1204672265360473
1222501 -0.991874543664147 0.12038156975653333
1222750 -0.9922339463265218 0.12001572251823409
1222999 -0.992477864605055 0.12066106380879407
1223249 -0.9929867854710273 0.12013431254061319
1223498 -0.99241761753774 0.12003611493258848
1223748 -0.9921768851414188 0.12012111576137556
1223997 -0.9921845767998522 0.1202175310087007
1224246 -0.9912958571522725 0.11940380146700552
1224496 -0.9916863610704882 0.12043686763613974
1224745 -0.9922218101523187 0.1202670653378026
1224995 -0.9922902437473132 0.12044544171563322
1225244 -0.9909098918305173 0.11985934684575228
1225493 -0.9919683220699087 0.12014597878012621
1225743 -0.9923114687528618 0.12012939614670107
1225992 -0.9923374751174362 0.1206138770464807
1226241 -0.9905060228277288 0.12021497025630788
1226491 -0.9922649496325944 0.12081738127532696
1226740 -0.9924571296726199 0.12113304535845902
1226990 -0.9921588772985508 0.12044562648776531
1227239 -0.9924385335973808 0.12062082430321787
1227488 -0.9923682559500838 0.12059061904828067
1227738 -0.9925355073350618 0.12054021635162018
1227987 -0.9916866381589071 0.12010212333517618
1228237 -0.99203745446433 0.11988713762689872
1228486 -0.9923024998132135 0.12051566029556927
1228735 -0.99290944969462 0.12068984718764932
1228985 -0.9915814213190285 0.1209426480269729
1229234 -0.9918202785092904 0.12068662001432733
1229484 -0.9921895572322461 0.12123561689331215
1229733 -0.9921806688148779 0.12042977219417664
1229982 -0.9915601654624466 0.12041916990282885
1230232 -0.9925284662095993 0.12118875926497796
1230481 -0.9924541888879419 0.12134322447734411
1230731 -0.9918038682323337 0.12139766115075053
1230731 -0.9922468569179864 0.12212090831163504
1230985 -0.9926787146391505 0.12168883164419028
1231240 -0.991358242501221 0.12153029853315298
1231494 -0.9922848802546002 0.12134932222728466
1231749 -0.9925866678293876 0.12178869936884934
1232003 -0.9920126751801833 0.12067940588919378
1232258 -0.9924473042775608 0.12098332732851876
1232512 -0.9930065197165253 0.12139089903600077
1232767 -0.9927466233112758 0.12096190177313196
1233021 -0.9921070244213728 0.1207370507779743
1233276 -0.9927831265620897 0.12089429418909534
1233531 -0.9929067947167111 0.12133338606164056
1233785 -0.9924967138278736 0.12126925467033674
1234040 -0.9921378265544929 0.12103362620404311
1234294 -0.9928058231773899 0.12140777048460853
1234549 -0.9925737662443352 0.12183664923953301
1234803 -0.9922717129480874 0.12114103027304558
1235058 -0.9913475857990539 0.12131868381273798
1235312 -0.9918590780477866 0.12142389141311748
1235567 -0.9921518051508127 0.12196345216452657
1235822 -0.9917013145072564 0.12161532437734716
1236076 -0.9919654519452216 0.12135552154627591
1236331 -0.9922493871311826 0.12165384377757626
1236585 -0.9920578238819479 0.12123342486032528
1236840 -0.9908324870375164 0.12142719404009135
1237094 -0.991585656001043 0.12133594186017925
1237349 -0.9917975675256671 0.12197357235711608
1237603 -0.9920356927345084 0.12103107989548202
1237858 -0.9915206059272217 0.12113210827802481
1238112 -0.9914459628294864 0.12150173505324964
1238367 -0.9917707916924655 0.12172507260257633
1238622 -0.9914004072574251 0.12140948222986009
1238876 -0.9915713726027557 0.12155726896433364
1239131 -0.992436814309735 0.12223073809667916
1239385 -0.9923014080255738 0.12166152847605274
1239640 -0.9909731546964615 0.1215605435216277
1239894 -0.991995945046486 0.12213866725323123
1240149 -0.992659700636692 0.12221154142522386
1240403 -0.992628363687901 0.12178676793043078
1240658 -0.9916910975669194 0.1214961119396391
1240913 -0.9920820515073016 0.1214264207533149
1241167 -0.9927829986009439 0.12207009800416052
1241422 -0.9918690453420627 0.12163174240707601
1241676 -0.99192579229569 0.12211480747142718
1241931 -0.9920813175760956 0.1222769491818016
1242185 -0.9920291005229449 0.12219005045020809
1242440 -0.990934026320808 0.1219472027128719
1242694 -0.9914189113411936 0.12196312955543126
1242949 -0.9914145205912892 0.1223089666515532
1243203 -0.9922794568417437 0.12195204870572249
1243458 -0.9917436584535948 0.12226780616821784
1243713 -0.9921344700862404 0.1220914925300396
1243967 -0.9923810162548858 0.12262684775501877
1244222 -0.9926356499468347 0.12163206145182719
1244476 -0.9921163553370448 0.12145881115670729
1244731 -0.9921719672657819 0.12166525721143756
1244985 -0.9929823881479584 0.12212457114082644
1245240 -0.9922758620381865 0.12216546856718477
1245494 -0.9924190902084423 0.12226071548509553
1245749 -0.9926190925027378 0.12241983616032667
1246004 -0.9929234099529239 0.12270742698177597
1246258 -0.9915615830710099 0.1223229957580108
1246513 -0.9922342706283998 0.1223945978647999
1246767 -0.9924193628616571 0.12279029642473187
1247022 -0.9929734240988719 0.12261738378596222
1247276 -0.9921319170386829 0.12237975259159438
1247531 -0.9924212609678889 0.12252190677817237
1247785 -0.992699348677957 0.12226339455265481
1248040 -0.9915744428805116 0.12205743232557585
1248294 -0.9920340741590382 0.12227162546380597
1248549 -0.9923614329248639 0.12275390942621653
1248804 -0.9923381664090614 0.1228116978716489
1249058 -0.9909840137507392 0.12205556448912717
1249313 -0.9919730401907442 0.12235399710649487
1249567 -0.9920023609555444 0.1231255009744534
1249822 -0.9922354561456612 0.12203550354349652
1250076 -0.9918302031923892 0.12226185373411427
1250331 -0.9921097469449974 0.12322191716961907
1250585 -0.9923402485490724 0.12308480282649562
1250840 -0.9919681095090382 0.12258893998368224
1251095 -0.9914912785070553 0.12285735540001479
1251349 -0.9926147397843047 0.12287884339018781
1251604 -0.9925836516355941 0.1229108048549919
1251858 -0.9911472722425742 0.12319062378017506
1252113 -0.9917312762867997 0.12324794078210943
1252367 -0.9917697228974318 0.12385250440704579
1252622 -0.9922308903354414 0.12356657805915461
1252876 -0.9912099253078779 0.12357719255126831
1253131 -0.9920919352011847 0.12365086093915537
1253385 -0.9918359834121675 0.12387701705758318
1253640 -0.9918492280511889 0.12263227577966086
1253895 -0.992123009405283 0.12326030372300414
1254149 -0.9926012321886929 0.12311172674231259
1254404 -0.9924318192675298 0.12311721643199132
1254658 -0.9913668689192237 0.12278127708784459
1254913 -0.9921156061416768 0.12295517775021138
1255167 -0.9925570918118424 0.12336467970652548
1255422 -0.9927657912811637 0.12344069434774002
1255676 -0.9917901198363821 0.12373012463671344
1255931 -0.9924050402111873 0.12346608088403041
1256186 -0.9930368412791901 0.12397662277166938
1256186 -0.992809725631286 0.1237866192113292
1256445 -0.9921921961325331 0.12318667962145306
1256705 -0.992512200571297 0.12353591074350652
1256965 -0.9924969854181636 0.12370470695460188
1257225 -0.9921095088821364 0.12413750146683668
1257485 -0.9908039737401845 0.12324559860553776
1257744 -0.9922703675769529 0.12406903801657032
1258004 -0.9922586066987524 0.12442718540648749
1258264 -0.9916818010602186 0.12328399963036459
1258524 -0.9913784325702737 0.12351382647046896
1258784 -0.9920786829926 0.12379179627552249
1259044 -0.9922073484208789 0.12417102687920135
1259303 -0.9916349519433354 0.12367116006328085
1259563 -0.9911876614212627 0.12362757854202208
1259823 -0.9921583861477323 0.12436385109532651
1260083 -0.9917728667443398 0.12323765903908693
1260343 -0.9909003057325585 0.12346782843155067
1260602 -0.9914376737601601 0.12388679489085253
1260862 -0.991832260039348 0.12380002960481153
1261122 -0.991048232611266 0.12311489621618536
1261382 -0.9915353895016442 0.12376827126802017
1261642 -0.9916977291785577 0.12359487994077216
1261902 -0.9924339897771364 0.12375024590524386
1262161 -0.9909464487165448 0.12346130937131354
1262421 -0.991741125483736 0.12407121735284593
1262681 -0.9920129938798431 0.12509236913739274
1262941 -0.9922099960201444 0.12404196583711584
1263201 -0.9913728031005375 0.12383618243999454
1263460 -0.9922679003870138 0.12422002651948366
1263720 -0.9924474800826846 0.12461211109683663
1263980 -0.9916346118867068 0.12364310980484669
1264240 -0.9919658534745446 0.1240084164073443
1264500 -0.9922642996137078 0.12412262742420432
1264760 -0.9923308167436643 0.12438091957685163
1265019 -0.9909905784504381 0.12369432806954489
1265279 -0.991735285075321 0.12394191243522092
1265539 -0.9920595892976127 0.12460787496886336
1265799 -0.9917267416687756 0.12387940666634975
1266059 -0.9913713442555219 0.12430867492878091
1266318 -0.9923886991423744 0.12458627963682387
1266578 -0.9927454701469823 0.12506446685343428
1266838 -0.992872489351785 0.12478053973417252
1267098 -0.9925951289855813 0.12479427752780235
1267358 -0.9935102671807534 0.12498998250131026
1267618 -0.9926130114933217 0.12391909257688673
1267877 -0.9926023115205439 0.12471216121491666
1268137 -0.9931250180077387 0.12443239644631114
1268397 -0.9925242722153392 0.12500116123793958
1268657 -0.9912101000458792 0.12433773716555042
1268917 -0.9917039791876026 0.1246433166756057
1269177 -0.9916060975178834 0.12564888018735879
1269436 -0.9918981195801915 0.12480622289445342
1269696 -0.9910574529727617 0.12544333766919916
1269956 -0.9919182287513816 0.12549820539567177
1270216 -0.9918827098405198 0.1253536033090283
1270476 -0.9905228156012877 0.12471348912149167
1270735 -0.9914866106119561 0.12478763330553883
1270995 -0.992107489833633 0.12496258976895043
1271255 -0.9924961967380285 0.1249923008930645
1271515 -0.9908281296918537 0.12442536224764116
1271775 -0.9919472699417754 0.12425648210446341
1272035 -0.9925216286775762 0.12493148449250364
1272294 -0.9917316670273113 0.12334191590650541
1272554 -0.9914975018764206 0.12408391690048855
1272814 -0.9914816197451495 0.12460591107262209
1273074 -0.9914993463199292 0.12484491106789043
1273334 -0.9912173102696249 0.12480305546216748
1273593 -0.9917344637643258 0.12537042288983533
1273853 -0.9926620103570357 0.12548927301010362
1274113 -0.992194677351569 0.12534073094763235
1274373 -0.9912649042536205 0.12560657718889856
1274633 -0.9908220567272574 0.12546372040145143
1274893 -0.9917502515013566 0.1256367575345079
1275152 -0.992747864932856 0.12475986453613623
1275412 -0.9906006949528622 0.12464289671050097
1275672 -0.9901846442401814 0.12436303151838193
1275932 -0.9912548020222604 0.12503376887312243
1276192 -0.9896598202546492 0.1250453357558835
1276451 -0.9918817573982858 0.12557466108425827
1276711 -0.9930002591344467 0.1259399090493699
1276971 -0.9917124811844239 0.12504478274781458
1277231 -0.9918894437190923 0.124483097719138
1277491 -0.9923807229344604 0.12522478155111189
1277751 -0.9921439491677552 0.12552209451343566
1278010 -0.9920069196551353 0.12537391445172819
1278270 -0.9929494618336902 0.12573863701487978
1278530 -0.9922926729308165 0.12614076513172356
1278790 -0.992629531596992 0.1257440784483524
1279050 -0.991191702287048 0.12533107097018353
1279309 -0.9922505343447465 0.12612163764926818
1279569 -0.9922726425464928 0.1255795400993258
1279829 -0.9912957099084392 0.12526178460812082
1280089 -0.991374436994041 0.12578108961226908
1280349 -0.9916029891425726 0.12621064259845893
1280609 -0.9916515668321668 0.1263101509670762
1280868 -0.9907629555755325 0.12555540165720963
1281128 -0.9915848061887367 0.12622996252349467
1281388 -0.9914666838381464 0.126704638791066
1281648 -0.9918727420112754 0.12639455190943785
1281908 -0.9908466404511846 0.12571849005483293
1282168 -0.9914203822873537 0.12611043791569232
1282168 -0.9924362276330603 0.12609933322805117
1282433 -0.9923515225811024 0.12658953396949105
1282698 -0.9907850101186463 0.1258516715256727
1282963 -0.991436422166795 0.12625727565394018
1283228 -0.9915050456062667 0.12638777956609215
1283493 -0.9913515221127632 0.1252666785018816
1283759 -0.9913111840805199 0.12545200909461307
1284024 -0.991623017193082 0.1258337154606786
1284289 -0.9911023646702215 0.12649793217543165
1284554 -0.9899199094643614 0.12578218068628558
1284819 -0.9913676054195316 0.12642021436309117
1285084 -0.9923419332926421 0.12637153067634327
1285350 -0.9912948381810625 0.12605933533635885
1285615 -0.9915118053758093 0.12606832388861858
1285880 -0.992256906894292 0.1260513758140811
1286145 -0.9917881393141661 0.1269904213940721
1286410 -0.9908094687813681 0.12567726756637929
1286676 -0.9918282523195154 0.12613724356185288
1286941 -0.9920161026637336 0.1269145381183495
1287206 -0.9915561434343971 0.12571574641618272
1287471 -0.9914143732401423 0.12573758754930286
1287736 -0.9919734997962947 0.12614970392176486
1288001 -0.9918685654721082 0.12714080507976966
1288267 -0.9903555495018276 0.12628200848000307
1288532 -0.9917263768058928 0.12704898108736581
1288797 -0.9918710077757847 0.12731408599387778
1289062 -0.9916799948470698 0.1265398830993906
1289327 -0.9914006423107387 0.12644349792337847
1289593 -0.9919948405491582 0.12662014377900951
1289858 -0.992150606461532 0.12714842595869744
1290123 -0.991312664961055 0.12620132994741226
1290388 -0.9923394728587429 0.12676787919347657
1290653 -0.99220894373467 0.12690704719267562
1290918 -0.9914058619837336 0.12624966080031766
1291184 -0.9913436662286684 0.1267782741408206
1291449 -0.9918053184324696 0.12722512306050593
1291714 -0.991874094130333 0.12742042247330773
1291979 -0.9908103291955355 0.12715811205421174
1292244 -0.9917456985555264 0.12770625362384147
1292510 -0.9922304095186374 0.127965065808563
1292775 -0.991339842694959 0.12709889328760898
1293040 -0.9916105991926936 0.12733274596994038
1293305 -0.9919187360214528 0.12740778040173614
1293570 -0.9919196365698129 0.12725252077766946
1293835 -0.9906059846085978 0.1267319197686655
1294101 -0.9912929536167487 0.1269757860737312
1294366 -0.9913334231923117 0.1265036454440667
1294631 -0.9909418883503212 0.1259257307047957
1294896 -0.9912139070655112 0.12623312739495687
1295161 -0.9909651728756923 0.12697183850964186
1295427 -0.9915559164312893 0.1273412949783011
1295692 -0.9901231149993113 0.12702654609610917
1295957 -0.9912058949949508 0.12651075661165034
1296222 -0.991647739527043 0.12713408917850877
1296487 -0.99160289344079 0.12727977731944703
1296752 -0.9911550181171613 0.12716135625529676
1297018 -0.9914958995600524 0.12770878766253072
1297283 -0.9918986334099397 0.12762424138465847
1297548 -0.9920453878613048 0.12686848631893086
1297813 -0.991525656426067 0.1266048224719444
1298078 -0.9916085648304204 0.1269121434160351
1298343 -0.9916622553806812 0.12759816010602507
1298609 -0.9914575690529706 0.12690946521827304
1298874 -0.991592213168286 0.12728734801705727
1299139 -0.991747978133421 0.12801647166345795
1299404 -0.9920773777785161 0.12728227725458913
1299669 -0.9910631977783594 0.12806576623144653
1299935 -0.9920751309722231 0.12799939147455994
1300200 -0.991638835852783 0.12817672196190616
1300465 -0.9911590064702639 0.12715874301761923
1300730 -0.9910318544578095 0.12736523214055787
1300995 -0.9919401780150249 0.12805186073049876
1301260 -0.9924476384647523 0.1274978469794769
1301526 -0.9917031199958298 0.12715515744300537
1301791 -0.9919020149068843 0.12790771115862795
1302056 -0.9915550799068287 0.12807600242349518
1302321 -0.9902812982776331 0.1274785097645939
1302586 -0.9908549796914898 0.1279906631109324
1302852 -0.9909843642397334 0.12881911117864608
1303117 -0.9923392272038085 0.12815920468880238
1303382 -0.9907743898873738 0.12815057719783968
1303647 -0.9915983773658573 0.1286025843438016
1303912 -0.9922860649518316 0.1283550580806265
1304177 -0.9907379176397422 0.12761158438398984
1304443 -0.9911842453417761 0.12825672230760865
1304708 -0.9912075479673068 0.12831093414885072
1304973 -0.991813457317134 0.12845270344708173
1305238 -0.9902996393280437 0.12785570379547892
1305503 -0.9912560208120991 0.12824394574371642
1305769 -0.991591555923473 0.12785717456154722
1306034 -0.9905305557237378 0.12704332987281258
1306299 -0.9907127018005301 0.12768615293258728
1306564 -0.9912388000709711 0.12803793695959798
1306829 -0.991425418928757 0.1285335751341218
1307094 -0.9906263526597899 0.12764078194303893
1307360 -0.9910820479359765 0.12884584884889635
1307625 -0.9916437107900254 0.12876979820460738
1307890 -0.9910812822316653 0.12791508094592638
1308155 -0.9910232607508782 0.12844642755726338
1308420 -0.9921678657540438 0.12887600397029778
1308686 -0.9917088256306944 0.12883098826158834
1308686 -0.991222096177195 0.12830751136571436
1308956 -0.9911587809686305 0.12902083916909474
1309227 -0.9916824059776623 0.12920271805485228
1309498 -0.9900114353967883 0.12828718372739703
1309768 -0.9914254468306838 0.12930192433334486
1310039 -0.9915822772199467 0.12928914578788572
1310310 -0.9910612592094218 0.12857144473784293
1310580 -0.9912880489718051 0.12892562728948972
1310851 -0.9916069473366369 0.1294443657459412
1311122 -0.9922558124827451 0.1294375208522238
1311392 -0.9909782039697475 0.12939151222226228
1311663 -0.9916324604420843 0.1293178937397176
1311934 -0.9918511465944198 0.12962628244940808
1312204 -0.9909582566581568 0.1288403619267203
1312475 -0.9915686163420632 0.129067356762768
1312746 -0.9908764923546504 0.12940117570785928
1313016 -0.9921482572793722 0.12934549951923896
1313287 -0.990654279189842 0.12882563208623712
1313558 -0.9915246659716337 0.12884584174146974
1313828 -0.9918991975795808 0.12960511904598285
1314099 -0.9913167784997777 0.1284371450427478
1314370 -0.9914404630573881 0.12883448416515864
1314640 -0.9921366531940471 0.12949900781431398
1314911 -0.9921748830482863 0.12902103074531268
1315182 -0.9911502048057664 0.1289438170624007
1315452 -0.9917646752640568 0.12927334126624665
1315723 -0.9925339341777538 0.12949719156168496
1315994 -0.9911657902472455 0.1285419234245904
1316264 -0.9912170049689797 0.129221142808925
1316535 -0.9920880264803703 0.13027001366047866
1316806 -0.9919717503220806 0.12881539404670647
1317076 -0.9908173057821382 0.12913178922873092
1317347 -0.991526445445387 0.1295709488289369
1317618 -0.9917156119173655 0.12945672105186548
1317888 -0.9910426046695898 0.12913535594607264
1318159 -0.9915350257510168 0.12924190888460774
1318430 -0.9914713789893751 0.12956820388852666
1318700 -0.9923660045300929 0.12861998504465583
1318971 -0.9906651232847501 0.1287925520829848
1319242 -0.9918200987927579 0.12928801474399435
1319512 -0.9918725331887188 0.1296030685482184
1319783 -0.9909929355234864 0.1293564085510733
1320054 -0.9910450768125902 0.1294396251795783
1320324 -0.9919045732007341 0.1301073179051041
1320595 -0.991748256994886 0.12948579779272487
1320866 -0.99118158402332 0.12945206271237092
1321136 -0.9916074961978419 0.1302305240608561
1321407 -0.9918382011882366 0.13007908101546142
1321678 -0.9906335968296144 0.12953216704162007
1321948 -0.9917589529736188 0.12994159424515975
1322219 -0.9925080159498642 0.13020940568857348
1322490 -0.9917600148456687 0.13004146621664409
1322760 -0.9912245353502925 0.12979037427382556
1323031 -0.9909976875812161 0.1302770912846587
1323302 -0.9916795355756971 0.1301820719926056
1323572 -0.9903696848044458 0.12961147516080512
1323843 -0.9917456965743857 0.13039011727554292
1324114 -0.9919709760396312 0.13041132164280825
1324384 -0.9909788666437321 0.12947040776903004
1324655 -0.9916294508761537 0.13015041578481945
1324926 -0.9916007261463237 0.1304911346450219
1325196 -0.9922570502278864 0.13030263538288067
1325467 -0.9913368641145363 0.12978167570516286
1325738 -0.9919700001784265 0.1300929398821109
1326008 -0.991908041789979 0.1303925741371234
1326279 -0.991571825739152 0.1296034202762507
1326550 -0.9920413303079612 0.13009208728801594
1326820 -0.9916732826883147 0.13065697877842067
1327091 -0.9925089953633237 0.13038981095060448
1327362 -0.9913149408492767 0.13014113276642317
1327632 -0.9916811054688829 0.13049300441096007
1327903 -0.991781843602051 0.13076615273496325
1328174 -0.9910065947493969 0.13025272507491267
1328444 -0.9909889648055742 0.1306848968481983
1328715 -0.9915177721368761 0.13111463562319414
1328986 -0.9918369595127001 0.1305837126605094
1329256 -0.9911879951021425 0.1302101522985441
1329527 -0.9916967018774931 0.1312966564279331
1329798 -0.9922551423814053 0.13114555667167768
1330068 -0.9911351805736506 0.13043430531645014
1330339 -0.9916321257643577 0.13098420830724944
1330610 -0.9913911735179625 0.1312051172720357
1330880 -0.9912233032457762 0.13069855864731383
1331151 -0.9909649318306512 0.1303924394588485
1331422 -0.991080798267311 0.13145060205990108
1331692 -0.9909201452152665 0.13124029709102242
1331963 -0.9898925257958378 0.1304119330685279
1332234 -0.991534236085589 0.13128553218412908
1332504 -0.9912312521935002 0.1314419445886277
1332775 -0.9911333454037783 0.1309714255024853
1333046 -0.9910170845221904 0.13095076800585545
1333316 -0.9910746842777934 0.13154331044253467
1333587 -0.9915908407524836 0.13141479646004706
1333858 -0.9906464580650014 0.13078995379509925
1334128 -0.9912347521684967 0.13121157666891536
1334399 -0.9918878750855277 0.1314975351844099
1334670 -0.991169784121553 0.13100578724008952
1334940 -0.990904798746472 0.1309756528176106
1335211 -0.9912960767309561 0.13151442755982948
1335482 -0.9926163820602122 0.1317333199537236
1335753 -0.99056674196263 0.1311772552790166
1335753 -0.9908100593607965 0.1312628843335692
1336029 -0.9914014664449508 0.13207953677209275
1336305 -0.9918092645745301 0.1323378531981003
1336581 -0.9908935975453924 0.13165875689363868
1336858 -0.9915190417399945 0.13203698833545183
1337134 -0.9917329889328793 0.1325780933471198
1337410 -0.9919936915878362 0.13147335664346443
1337686 -0.991063827999538 0.1313353065044399
1337963 -0.9915234272446332 0.13216099939916143
1338239 -0.9917542958817361 0.1320379295142469
1338515 -0.9908169511757976 0.13125704930129148
1338791 -0.9915328820192367 0.13211496608902534
1339068 -0.9914523128498919 0.13205903324874038
1339344 -0.9909338114066666 0.13131327374286186
1339620 -0.9914470950097102 0.1315026329423412
1339897 -0.9910786072572738 0.13231579996197432
1340173 -0.991058930057818 0.13218058428210205
1340449 -0.9895420852763774 0.13121350493130574
1340725 -0.9914784249962885 0.13178438281125618
1341002 -0.9914686832481714 0.13208168888346522
1341278 -0.9907598799328 0.13098975891713044
1341554 -0.990791706251942 0.1316005919061166
1341830 -0.9911625051525962 0.13220045684388346
1342107 -0.9912855646980072 0.13160296677154684
1342383 -0.9903155790413224 0.13177384374692866
1342659 -0.9911719246459922 0.13206220420495562
1342936 -0.9911951265854105 0.13266679421893662
1343212 -0.9899721117718624 0.13196790107688644
1343488 -0.9902483148022769 0.13261877305013417
1343764 -0.9927982274775585 0.13370485017049696
1344041 -0.9908209372434371 0.13212899380045734
1344317 -0.991203129361615 0.13239909766089558
1344593 -0.9910816424290909 0.13263868175965762
1344869 -0.9907996572980033 0.13218839043172115
1345146 -0.9901347864464559 0.13218848714815515
1345422 -0.990668933601026 0.1322166849037147
1345698 -0.9910861272750785 0.13216473003067855
1345974 -0.9898052113264111 0.13188183737323805
1346251 -0.9900501282106742 0.1319017480403878
1346527 -0.9889724448954559 0.13179288609480805
1346803 -0.9866380689366328 0.13039198785999978
1347080 -0.9878106203862805 0.131568732223426
1347356 -0.9897118949094154 0.13138681751226722
1347632 -0.9900102389431069 0.1317889197886695
1347908 -0.9950378603224272 0.13415496097446045
1348185 -0.9940740479144167 0.13375127479020224
1348461 -0.9937301431018145 0.133325048949605
1348737 -0.9926391076445445 0.13397691820976534
1349013 -0.9926431867245482 0.13396874369758985
1349290 -0.992635663716481 0.13344797261475302
1349566 -0.9902243538106172 0.13225023610861436
1349842 -0.9943707637943177 0.13432707956791223
1350119 -0.9856236378377997 0.13286582596932378
1350395 -0.9871549815646546 0.13153628786381458
1350671 -0.9879419801194079 0.1317249356781296
1350947 -0.995926077710689 0.13361998282780377
1351224 -0.9866354726454954 0.131949259746814
1351500 -0.9898755427438359 0.1327613538224243
1351776 -0.990870809957145 0.13357764695222635
1352052 -0.9915952059220637 0.13412780519426867
1352329 -0.9906513564709164 0.13258683595605253
1352605 -0.9904729943089575 0.13285867055409348
1352881 -0.9903369516436688 0.13264745980537687
1353158 -0.9872640613685907 0.13170206692307268
1353434 -0.9890404251782711 0.13208453097808723
1353710 -0.9900317249581204 0.1326252868012368
1353986 -0.990577093800871 0.13283995209496752
1354263 -0.989464427767001 0.1321377691437384
1354539 -0.9902463864147492 0.132906387351173
1354815 -0.9905716352823838 0.13308489806364768
1355091 -0.9900911992324425 0.1318475523358474
1355368 -0.9904332144522289 0.13268328817384734
1355644 -0.9914012741501197 0.13326337644979064
1355920 -0.9922372882389007 0.13275896824945754
1356196 -0.9911469182653446 0.1326896023350568
1356473 -0.993011600984664 0.1338026364037154
1356749 -0.9906803632812073 0.13262513208860757
1357025 -0.9893808752630107 0.13268081992497469
1357302 -0.9911882464948661 0.1330926592002897
1357578 -0.9908986435052889 0.1335282032055856
1357854 -0.9894023661392214 0.13268403065062526
1358130 -0.9897500336976219 0.1329110165157303
1358407 -0.990394016312163 0.1333264291829843
1358683 -0.9905624659458809 0.1328441083227817
1358959 -0.9903078411144133 0.13229745530407444
1359235 -0.9900653956872625 0.13326410335145425
1359512 -0.9907268241519009 0.13282368732888528
1359788 -0.9891095546669977 0.1324507626516502
1360064 -0.9904142626692317 0.13310416714108653
1360341 -0.9899647595632097 0.13344585542057552
1360617 -0.9898486398676868 0.1329692742090636
1360893 -0.9900021709854763 0.13313065021918336
1361169 -0.9908703428100736 0.13347317509254808
1361446 -0.9910313929928674 0.13314242497950865
1361722 -0.990304921219868 0.1329930145303703
1361998 -0.9907466479673607 0.13400968967002014
1362274 -0.9909264766040612 0.13369201103128983
1362551 -0.9888279369183484 0.13274239635413096
1362827 -0.990417773049461 0.13375309572224103
1363103 -0.9909121041978894 0.13420958690138132
1363380 -0.9899811742006472 0.13321135629113798
1363380 -0.9901162211856661 0.13357064312775868
1363661 -0.9905322525314597 0.13300104650432923
1363943 -0.9903940457526698 0.13323286987160746
1364225 -0.9903803414736109 0.1337357192587628
1364507 -0.9910520868731035 0.13385915234237125
1364789 -0.9897417469170334 0.13335316714786843
1365071 -0.9904118429649618 0.13382174469913533
1365353 -0.990255849096437 0.13406093553890397
1365635 -0.9898989902146172 0.1333160078265951
1365917 -0.9899535713885568 0.13361496995450534
1366199 -0.9907362281344335 0.13389492942045905
1366481 -0.99031683567109 0.13403488666866864
1366763 -0.989490607148426 0.13361981087947028
1367045 -0.990462897437616 0.13455361891932593
1367327 -0.990589622689608 0.13450867511588085
1367609 -0.9895322571155525 0.13367656840024825
1367891 -0.9906224830691831 0.13385560673040905
1368173 -0.9904090066946277 0.1344160014550921
1368455 -0.9898800110087485 0.13329084616906128
1368737 -0.989527677740599 0.1340386027586128
1369019 -0.9902191831437606 0.13457220664460176
1369301 -0.9907216454759261 0.13383319378354322
1369583 -0.9897485199929877 0.13387286000168544
1369865 -0.9904020069527566 0.13465261224006414
1370147 -0.9907098681233323 0.13490256314922155
1370429 -0.9901553222740874 0.13440105151945497
1370711 -0.9903535402059765 0.1348064402309147
1370993 -0.9906275856212213 0.13485427504917297
1371275 -0.9899805755571901 0.1341235095446324
1371557 -0.9892688452566543 0.13450204800031948
1371839 -0.9900423420851316 0.13515692474942578
1372121 -0.9902021523036288 0.13438201650279857
1372403 -0.9898795223913465 0.13463744301043742
1372685 -0.9901904263676284 0.13497993212502452
1372967 -0.9898010951663855 0.1349608364688832
1373249 -0.9896913429107551 0.13453218550686022
1373531 -0.9900700498115156 0.13497742187304815
1373813 -0.9909125018208256 0.13555074530975877
1374095 -0.9897325611562403 0.13533721233409807
1374377 -0.989697993828141 0.13457342850718879
1374659 -0.9904430632143149 0.13501818697754892
1374941 -0.9905878535919675 0.13494448563348815
1375223 -0.9895531877788658 0.13477214242812433
1375505 -0.9902473017367338 0.13521532298876465
1375787 -0.9907319919438304 0.13524086305303196
1376069 -0.9891561630282557 0.13379874688330098
1376351 -0.9904032515422223 0.13539666233730324
1376633 -0.9908219783605399 0.13540054896542955
1376915 -0.9897650609626943 0.13480311882683188
1377197 -0.9901850443933626 0.13563131476527923
1377479 -0.9903323645082144 0.13516819260854535
1377761 -0.9904139937918266 0.13491052306345233
1378043 -0.9903937368143937 0.13440274998623913
1378325 -0.9908509031457498 0.13519557276478938
1378607 -0.9906388115820195 0.13500357389031192
1378889 -0.9896061809863974 0.13486248453199262
1379171 -0.9900006602159847 0.1349188759302431
1379453 -0.9900838227889979 0.13578424025869623
1379735 -0.9891564854218844 0.13499477049395459
1380017 -0.9896868917022585 0.1358019656565102
1380299 -0.9901732647775034 0.13569419150126294
1380581 -0.989702939625339 0.13517988091150002
1380863 -0.9895990882119173 0.1352420422715106
1381145 -0.9904314978719555 0.13590841788795796
1381427 -0.9902408720586315 0.13533524393590754
1381709 -0.9892488459917269 0.13488505540866266
1381991 -0.9906042904296439 0.1356807052341468
1382273 -0.9909796941145627 0.13631447619044737
1382555 -0.9900573669322471 0.1350263046527644
1382837 -0.9902632009127337 0.13507413145129732
1383119 -0.99050438640336 0.13575562646648529
1383401 -0.9904835558940179 0.13527357919505834
1383683 -0.9902938063102176 0.13523234728646938
1383965 -0.9902221395067476 0.13605720698431023
1384247 -0.9906990803570984 0.1355808201710589
1384529 -0.9895342565648121 0.135148916076148
1384811 -0.9900064208737362 0.1359880840374275
1385093 -0.9902465964315972 0.1362946480492273
1385375 -0.9893435967125975 0.1355272883757473
1385657 -0.9904748043793824 0.13643954361494184
1385939 -0.9909262955760295 0.13630380985844373
1386221 -0.9902996385075055 0.1359343475941043
1386503 -0.9903253139284859 0.13571144944103394
1386785 -0.990397403024245 0.1365804324838115
1387067 -0.9905882419149855 0.13548524184952906
1387349 -0.9891746534108296 0.1357195977509135
1387631 -0.9899869996979126 0.13601158433663219
1387913 -0.9903545855989665 0.13654373431023564
1388195 -0.9893213939719249 0.13582719211583555
1388477 -0.9903931702200802 0.13641014420377476
1388759 -0.9911409158834147 0.13726459963320992
1389041 -0.99060577153121 0.13645420953891815
1389323 -0.9901593707835646 0.13591066390107073
1389605 -0.9908913893597888 0.13653505688233641
1389887 -0.9905551972985084 0.13583956031015593
1390169 -0.9894908247007087 0.13566426653440875
1390451 -0.9904327627163048 0.1365226196064708
1390733 -0.9902936466970271 0.1364236802408705
1391015 -0.989619272966731 0.13620292489895713
1391297 -0.9899424975851061 0.13714669932373783
1391579 -0.9902420338593749 0.13677639133672206
1391579 -0.9905295211644966 0.13683538678119642
1391866 -0.9893718255881933 0.13627076187317075
1392154 -0.9902544878424923 0.13693210435383785
1392442 -0.9908300087556359 0.1376685356086132
1392730 -0.989846750432844 0.13610402041288883
1393018 -0.9904384429514018 0.13683099858507686
1393305 -0.9910744640513165 0.1370514566340676
1393593 -0.9907472030819937 0.13664498365255662
1393881 -0.9906246719255211 0.13665997205824518
1394169 -0.9908322269388029 0.13735526352542698
1394457 -0.9907465066828733 0.1369920757191614
1394744 -0.9896372103662491 0.13711979824729228
1395032 -0.9900794218042912 0.13806132693709705
1395320 -0.9904181452129694 0.13734927689261406
1395608 -0.989146455478697 0.13639620578405195
1395896 -0.9904548431692645 0.13714744398926085
1396183 -0.9912681985256018 0.13812160884432276
1396471 -0.9901989259580489 0.13704925488077732
1396759 -0.991002943270548 0.13782260543799107
1397047 -0.9912011817109121 0.13817205651521694
1397335 -0.9904124107818422 0.1371422013589784
1397623 -0.9899733983862227 0.13708187372772793
1397910 -0.9911043960860529 0.13766836238696387
1398198 -0.9910213476882043 0.1374692869790616
1398486 -0.9904794365454982 0.13737840286336508
1398774 -0.9909826433493031 0.13768806545953316
1399062 -0.9905791384189526 0.13742119821941173
1399349 -0.9902454392312323 0.13731902992599648
1399637 -0.9899541054545153 0.137764717456947
1399925 -0.990988831185075 0.13782113911093952
1400213 -0.9899636177023664 0.13692926107797299
1400501 -0.9902691280479525 0.1376587045877246
1400788 -0.9906713487115745 0.1376628415316228
1401076 -0.990398561405601 0.13697248534977927
1401364 -0.9899013765260478 0.13732339853109832
1401652 -0.9905700363892391 0.13780037171038134
1401940 -0.9911230646892225 0.13732853578958673
1402227 -0.9901076576910338 0.13725066812066275
1402515 -0.9904966451510533 0.13802373603903162
1402803 -0.9905199780456209 0.13802251534180376
1403091 -0.9895963653515598 0.13745040669471958
1403379 -0.9899730732242757 0.13803508135945544
1403667 -0.990334345090158 0.1383743781632845
1403954 -0.9894231700573053 0.1375619077859474
1404242 -0.9902185433130533 0.1383626951188457
1404530 -0.990741235783592 0.13857720222799488
1404818 -0.9905553444033888 0.13790675319592954
1405106 -0.9902168637197486 0.13797400933749615
1405393 -0.9905168476283402 0.13859589104939232
1405681 -0.9906516065596911 0.1383376514339112
1405969 -0.9893635512430377 0.13778575132204646
1406257 -0.9900797595403493 0.13887873354274496
1406545 -0.9904967953645559 0.13876132598463883
1406832 -0.9889807973612202 0.13748296892320197
1407120 -0.9895905990989051 0.13779725093089107
1407408 -0.9906642714439445 0.13868402737033766
1407696 -0.9902319318251841 0.13840905056388453
1407984 -0.9894181993972996 0.1375962787613662
1408271 -0.9902992378937062 0.13820213276933319
1408559 -0.9902683065921123 0.13829917743515893
1408847 -0.9891727337075653 0.1373641935085128
1409135 -0.9899014707391863 0.1379574406642934
1409423 -0.9901207087974042 0.13849449277133988
1409711 -0.9894386094168558 0.13735932023480174
1409998 -0.9895949438670005 0.13814523387341548
1410286 -0.9902913797856997 0.13826286637356847
1410574 -0.9901088060821962 0.1384841693651185
1410862 -0.9894526734294289 0.1378502466407349
1411150 -0.9900940550830056 0.13861481568646014
1411437 -0.990093660220437 0.1380594851782986
1411725 -0.9888345790094436 0.137936424783708
1412013 -0.9894043319248583 0.1384912897481071
1412301 -0.9903925720007575 0.13928674669625263
1412589 -0.9886862785483994 0.13775748191118622
1412876 -0.9892927932983296 0.1385010609375101
1413164 -0.9896182356517507 0.1388734223707645
1413452 -0.989232657183483 0.13791942324765513
1413740 -0.9890103244717311 0.13820555368517468
1414028 -0.98962152770579 0.13820522983662328
1414315 -0.989767162363893 0.13827164082090843
1414603 -0.9890054916266595 0.13864836464325614
1414891 -0.9896548254851019 0.13966201436148465
1415179 -0.990098347346676 0.13879529123725512
1415467 -0.9882089092367935 0.13808136292475204
1415755 -0.9895732898551228 0.13909069528723383
1416042 -0.9898267156028264 0.13913629378723277
1416330 -0.9883827541139053 0.1385508286447345
1416618 -0.9893857482120997 0.13911639500237097
1416906 -0.9895741279418658 0.13961174197794743
1417194 -0.9890432177431131 0.13903600563759613
1417481 -0.9894466740818193 0.13917121551038533
1417769 -0.9899472995890115 0.1394200770574991
1418057 -0.9905706931790681 0.13939000170471263
1418345 -0.9896046572648197 0.13906978635302072
1418633 -0.9905341417750898 0.13973433062550777
1418920 -0.9906077363050402 0.1393123341908611
1419208 -0.9891601691648594 0.13827546389410308
1419496 -0.9905032434307427 0.13937303149961733
1419784 -0.9903620260812286 0.1402269071319602
1420072 -0.9897913415000402 0.13923042284476236
1420360 -0.9898256097967104 0.14006092533084571
1420360 -0.9902951203635506 0.1397795402569499
1420653 -0.9904626729897633 0.139585009923331
1420947 -0.989253320291683 0.13956721136157085
1421241 -0.9904754707511023 0.14013405934056547
1421535 -0.9905156798415596 0.13932724011542919
1421828 -0.98981769727063 0.13887193899947223
1422122 -0.9908008989460456 0.13980744170836845
1422416 -0.9908543045303437 0.13975021414555314
1422710 -0.989958303953127 0.13909355821020492
1423003 -0.9906880567952918 0.13983863778964928
1423297 -0.9906773262666441 0.14018828387176288
1423591 -0.9887165388513659 0.13914390243390753
1423885 -0.9892690717521503 0.13956245222588173
1424179 -0.9895017137184402 0.14031085516909877
1424472 -0.9884059708344181 0.13919280431383255
1424766 -0.9886426864195835 0.14036831988149787
1425060 -0.989098528285217 0.14092624532463785
1425354 -0.9891779167111655 0.13995661437339602
1425647 -0.9895706698900424 0.14016860428880687
1425941 -0.9901774738385805 0.1404994945419048
1426235 -0.9893070697082192 0.1399521259701365
1426529 -0.9888934048298537 0.13962255054328554
1426822 -0.9898358997127013 0.14043871722974977
1427116 -0.9894497032479562 0.14020111063823054
1427410 -0.9887038369959155 0.1396437817693624
1427704 -0.9895414518057003 0.14051840871123092
1427998 -0.9896619953987716 0.14015806664602704
1428291 -0.9891247015031155 0.13983478723385462
1428585 -0.9892488964773638 0.14041250545160533
1428879 -0.989960409894071 0.1407270760518488
1429173 -0.9887045502098435 0.13971157658494943
1429466 -0.9899521652991446 0.139975376909965
1429760 -0.9897667200045288 0.1404721990874337
1430054 -0.9891051782857989 0.1390766372226752
1430348 -0.9893093216530415 0.13949764323597721
1430641 -0.9899584142419648 0.14029923485591894
1430935 -0.9887915136867467 0.139221425517783
1431229 -0.9890702749233058 0.14007883809087324
1431523 -0.9895031982115613 0.1406088298854712
1431817 -0.9893632608838511 0.13999639052380397
1432110 -0.9884470108158274 0.14037144819753067
1432404 -0.9894519400266256 0.14031764234073996
1432698 -0.9885512584416476 0.14020619129414788
1432992 -0.9882098210994822 0.14018111883939036
1433285 -0.9891067971645516 0.14085099235642787
1433579 -0.9895689564043816 0.14052962628610727
1433873 -0.9886220112524868 0.13986334144719526
1434167 -0.9894360816661824 0.1407742175690843
1434460 -0.9898421080571941 0.1409656842558077
1434754 -0.9884379815343055 0.14005497640792647
1435048 -0.9889176950240586 0.14045735441304674
1435342 -0.9892786306998155 0.14074205101170414
1435636 -0.9892906888438417 0.1406262754768941
1435929 -0.9879826639082474 0.14024716629879047
1436223 -0.9896263285191701 0.1411762042243426
1436517 -0.9897172940819746 0.14072477295643374
1436811 -0.9888080189249638 0.14032191880528128
1437104 -0.9896708733064726 0.14105033259801988
1437398 -0.9903483079516047 0.14172242787344136
1437692 -0.9893633840831633 0.14031016248557404
1437986 -0.9902348440609883 0.1413886444378378
1438279 -0.990103084450264 0.14201006376090441
1438573 -0.9891301040156405 0.1409545412737291
1438867 -0.9899605155329625 0.1412780047644793
1439161 -0.9900908479416379 0.14160397513745776
1439455 -0.990051511022358 0.14110369327483857
1439748 -0.9901222024816135 0.14100905820611712
1440042 -0.9907705673137237 0.14160533779422282
1440336 -0.9902807814649666 0.14165524752230482
1440630 -0.9895322291935355 0.1416759469305097
1440923 -0.990153834319817 0.14240645299658763
1441217 -0.9900085512956956 0.14165999742051472
1441511 -0.9884495195324295 0.1407860785949568
1441805 -0.9897747874047526 0.14230792055160643
1442098 -0.9900676715418092 0.14185610210587488
1442392 -0.9889529127919855 0.14109479099308148
1442686 -0.9891127380329702 0.14206574859961557
1442980 -0.9898165660355719 0.1415570076894733
1443274 -0.9890854906401603 0.14105004299258905
1443567 -0.9890217181390204 0.14180125266744015
1443861 -0.9895517041911474 0.14220541366132067
1444155 -0.9889762173341222 0.14120188641182999
1444449 -0.989227251518559 0.14102634725973476
1444742 -0.9897748015811514 0.14149489092808268
1445036 -0.9890231819310491 0.14164163916824293
1445330 -0.9883245127334037 0.14153629248674415
1445624 -0.9891339447656753 0.14233577221010385
1445917 -0.989510699677243 0.14143254669467042
1446211 -0.9884049498171029 0.1409406717661031
1446505 -0.9895222097066511 0.14283904234468675
1446799 -0.9899504078567118 0.14230835250555346
1447093 -0.9887938118792527 0.141441029708822
1447386 -0.989270963453782 0.14218928075181836
1447680 -0.9893641365084492 0.14258840467061992
1447974 -0.9884957562881704 0.14158633667257126
1448268 -0.9890893051511536 0.14216781615999596
1448561 -0.9898126144286546 0.14253837607047604
1448855 -0.9892178058526496 0.14182154263858912
1449149 -0.9891614532228931 0.14205446934424876
1449443 -0.9893332120070398 0.14245668547787957
1449737 -0.9885851244084599 0.14178827032320937
1449737 -0.9888749774280519 0.14201915805666804
1450036 -0.9892184669746379 0.14294457069238328
1450336 -0.9887073317007116 0.14165768496565576
1450636 -0.9884470477444556 0.14207654902300473
1450936 -0.9889148923147824 0.1426660737955368
1451236 -0.9885059588219876 0.14211147263005222
1451536 -0.9885654972265899 0.14236407807526114
1451835 -0.9889843077392056 0.14275972191513295
1452135 -0.989210997536124 0.14209050771600298
1452435 -0.9885335968801879 0.14231450763870626
1452735 -0.989420424251277 0.14246080355347077
1453035 -0.9892511728172725 0.1421168437257804
1453335 -0.9883608876738661 0.14164302801178127
1453635 -0.9891663453194399 0.14227433736408593
1453934 -0.9893217800935513 0.14215003619741462
1454234 -0.9883159274773331 0.14179913217449078
1454534 -0.9887442688590962 0.14293458672273268
1454834 -0.9893090088010692 0.1425297475762019
1455134 -0.9878461807351238 0.14225389229437854
1455434 -0.9891377049611301 0.1433073943919511
1455734 -0.9891970952578971 0.14315021430241157
1456033 -0.9883122141990103 0.14288000311393667
1456333 -0.9892141877877085 0.14369345026178948
1456633 -0.9894786786218709 0.14381955840514998
1456933 -0.9887226806810541 0.14255541836168278
1457233 -0.9889743938540176 0.143096286140786
1457533 -0.9892357411834769 0.143339962585526
1457832 -0.9888402283112853 0.14246878221399553
1458132 -0.9891239526400935 0.1431290345297286
1458432 -0.9892675028160296 0.14360916061404114
1458732 -0.9891923013504668 0.14295884635325123
1459032 -0.9889324351369645 0.14318774096974948
1459332 -0.9900389198976973 0.14323884049729896
1459632 -0.989888219243663 0.14356935509709162
1459931 -0.9894641253331378 0.14307527200191306
1460231 -0.989933467114499 0.1437617702523852
1460531 -0.9905683304983578 0.1434572631792319
1460831 -0.9896747141552578 0.14323000745803138
1461131 -0.9899482983131008 0.14419894606655645
1461431 -0.9899962286055906 0.1434069061021056
1461731 -0.9887080174535451 0.14260910705988258
1462030 -0.9898325469216127 0.14366609225317378
1462330 -0.9902078211165298 0.1437854612504684
1462630 -0.9887958091795009 0.14328305500932959
1462930 -0.9893488274571384 0.14404614525126408
1463230 -0.9899127551424292 0.1444218060088304
1463530 -0.9890727477963814 0.14325376529433193
1463829 -0.9897756079070821 0.14418804369242014
1464129 -0.9897573810972294 0.1435177899854757
1464429 -0.9886716187881588 0.14264212997569434
1464729 -0.9894528418807794 0.14372127315746067
1465029 -0.9896267512659213 0.14345747287798258
1465329 -0.9883201040893264 0.14287344465371585
1465629 -0.9893874291298103 0.14361845506794121
1465928 -0.9892175292987809 0.1439751604464392
1466228 -0.988484542938397 0.14291695740490137
1466528 -0.9889046050446284 0.14364288697339553
1466828 -0.9891042293217023 0.14405039968466338
1467128 -0.9881849723475836 0.14345094259286986
1467428 -0.9894201827012489 0.1441968286712003
1467728 -0.9894063157982096 0.14445878436527995
1468027 -0.9888082221344211 0.14400058900988363
1468327 -0.9888165625683759 0.14392120762879268
1468627 -0.9895624888251553 0.1441172971377104
1468927 -0.988835884584969 0.14358038285336183
1469227 -0.9880756360630794 0.14335627676436305
1469527 -0.9886237247539031 0.14377378986079892
1469826 -0.988565339538252 0.14351765052839588
1470126 -0.9877884856862099 0.14294930499894176
1470426 -0.9888325275231009 0.14395005822502688
1470726 -0.9889114004149501 0.14327574202429988
1471026 -0.987358624257734 0.14320136223640131
1471326 -0.9888791019898795 0.1448724404116385
1471626 -0.989236767554008 0.14416197108508258
1471925 -0.9874197337187794 0.1436040560629889
1472225 -0.9884918932961628 0.1447663802282631
1472525 -0.9887322859279007 0.14507914457217252
1472825 -0.9873302559034355 0.1436519032276981
1473125 -0.988233057477124 0.14516790165813567
1473425 -0.98903958040623 0.14536859836614424
1473725 -0.9878882822019979 0.14393701870821873
1474024 -0.9887180957407086 0.14499252216243602
1474324 -0.9888428406459053 0.1454243139569915
1474624 -0.9884009600994369 0.1446344869702897
1474924 -0.9889345808922507 0.14495178055690755
1475224 -0.9896304463061543 0.1456653117446791
1475524 -0.9889068798496135 0.14506566438373653
1475823 -0.9890101329267894 0.14503598075258514
1476123 -0.9894105578354705 0.14541567071555864
1476423 -0.9889112366332767 0.14490241279830288
1476723 -0.9885114873073593 0.1449506278615841
1477023 -0.9891538137773759 0.1451811060487646
1477323 -0.9890687662051221 0.14508589579347733
1477623 -0.9881482264859515 0.14463771881754822
1477922 -0.9893553642768197 0.1461593418218427
1478222 -0.9905212159691933 0.14555189415798298
1478522 -0.9888238392806296 0.14484508433785426
1478822 -0.9898674510324579 0.14596824955692872
1479122 -0.9897062916891133 0.14618867300179467
1479422 -0.9883916571832886 0.14539048461962345
1479722 -0.9889960654088127 0.1458672517620868
1479722 -0.9888188940319896 0.1457396434277979
1480028 -0.9888908279030876 0.14488205157577863
1480334 -0.9878849644904384 0.14444803214860014
1480640 -0.9884661192460759 0.14555153114794825
1480946 -0.9889481357039315 0.14505080425484418
1481252 -0.9875275100745503 0.1444473202603916
1481558 -0.9889266726371037 0.14547190115513883
1481864 -0.9891851982156139 0.1458113658918183
1482170 -0.988399427493266 0.14439108260854353
1482476 -0.9892449907825843 0.1458221014405085
1482782 -0.9893996697335592 0.1455993215010607
1483088 -0.9883782943642113 0.14452404251071793
1483394 -0.9891031125663436 0.14517034060228268
1483700 -0.9891747874930117 0.14554262870341236
1484006 -0.9884359875204719 0.14467511693527668
1484312 -0.9890567015419981 0.14540176082310588
1484618 -0.9889657612331705 0.14547151628309818
1484924 -0.9877419284668919 0.1446466808220662
1485230 -0.9879709143009077 0.14565703957602863
1485536 -0.9883356715879857 0.14560545319123638
1485842 -0.9883437110667088 0.14497294383607365
1486148 -0.9882904633919805 0.14538604891704954
1486454 -0.9890313153510913 0.14540866874946104
1486760 -0.9886035070230427 0.14443286324058052
1487066 -0.9880302203131164 0.14509124331302345
1487373 -0.9885928233783823 0.145563447599264
1487679 -0.9878902026748638 0.1451281541908183
1487985 -0.9880812031399197 0.14562790108587745
1488291 -0.9883486409309031 0.14594152072657834
1488597 -0.9881702085986417 0.14540658543820856
1488903 -0.987530727368155 0.14538803725674515
1489209 -0.9890604782992586 0.14596396757327948
1489515 -0.9878761733562366 0.14545872312513222
1489821 -0.9875627909028559 0.14602220478055405
1490127 -0.9892507587737787 0.1461744080299861
1490433 -0.9889532095699348 0.14621120645459518
1490739 -0.9888327317643579 0.14642727722078838
1491045 -0.9887132452519778 0.1464650346022155
1491351 -0.9885579979842465 0.14670935039995162
1491657 -0.9884394679684376 0.14617689318413193
1491963 -0.9887533153601674 0.14678391048775197
1492269 -0.9887482046806655 0.14712168967551312
1492575 -0.9891154849267451 0.1469873311671909
1492881 -0.9892153614563526 0.14754180094575545
1493187 -0.9890002173672926 0.1471898794241699
1493493 -0.988521696190876 0.14697544282075536
1493799 -0.9911200790332731 0.1473916121660952
1494105 -0.9891400211536052 0.14699400705531623
1494411 -0.989273779102341 0.1469308650876417
1494717 -0.9895725277125392 0.14724090358687103
1495024 -0.9889960246500862 0.14651601343830292
1495330 -0.9890034436877517 0.14634873581817504
1495636 -0.9893220272621992 0.1475381703056956
1495942 -0.9886494380177704 0.14681747555762503
1496248 -0.9887498299316765 0.14684668163689532
1496554 -0.9892076449969311 0.147916157357604
1496860 -0.9878146677171661 0.14636457164706104
1497166 -0.9881835495204874 0.14667573873043577
1497472 -0.9885879117048187 0.14767698706076485
1497778 -0.9876395520316342 0.1460918799849336
1498084 -0.9888715531180128 0.14675422835907567
1498390 -0.990403082764363 0.14795248022826094
1498696 -0.991646414262777 0.1476412607287809
1499002 -0.9999635404125656 0.15005678390809052
1499308 -0.9936277941944047 0.148863001103164
1499614 -0.9890195386815201 0.14712557329520629
1499920 -0.9941849064709706 0.14803437757677992
1500226 -0.9829697282540717 0.14640825827127663
1500532 -0.9892564372537169 0.1475252728073847
1500838 -0.9909843139470466 0.14805769205930894
1501144 -0.992268533312652 0.14838854382544983
1501450 -0.9902884046637299 0.148100801974197
1501756 -0.9911878737378385 0.1488347912004629
1502062 -0.9960962774830032 0.14999985805308005
1502368 -0.9913596013915194 0.1483296653421049
1502675 -0.9886265526898084 0.1475134618285245
1502981 -0.9903269233378357 0.14790929259310753
1503287 -0.9878613611708009 0.14723368197104628
1503593 -0.9868055362722717 0.14728966736642735
1503899 -0.9883747446313756 0.14753347216004056
1504205 -0.9882592666284442 0.14726635453443576
1504511 -0.9879842991672013 0.14742437283594867
1504817 -0.9893732779523824 0.1478682398373906
1505123 -0.9886561818307708 0.1468988120199265
1505429 -0.9885749063316838 0.14728855724952916
1505735 -0.987977790006613 0.14718878909507585
1506041 -0.986685688558957 0.14670391208944103
1506347 -0.9861561992143716 0.14696813043766804
1506653 -0.988144108986481 0.14771500297485257
1506959 -0.9878034623063348 0.14742181127947918
1507265 -0.9882353398652166 0.14778459173980937
1507571 -0.9889014932651534 0.14812527420787272
1507877 -0.9882890697206599 0.14794210761971338
1508183 -0.9878644525332562 0.14808779275930073
1508489 -0.9889469984829722 0.14918318128221272
1508795 -0.988766445039389 0.1485780257908731
1509101 -0.9882110415444837 0.14832987403033424
1509407 -0.9889653724112227 0.14861859069736386
1509713 -0.9885411567324052 0.14835963803593993
1510019 -0.9872418226285186 0.1480485441549813
1510326 -0.9890967050678133 0.1482948347837731
1510326 -0.987906966211301 0.1473453747519311
1510638 -0.9880450193510725 0.1482014499965932
1510950 -0.9884703044347395 0.14835605411958247
1511263 -0.9874542223317794 0.14760904396700758
1511575 -0.988298964014694 0.14874355133305542
1511887 -0.9884928499185162 0.14816521669816982
1512200 -0.9875372968790547 0.1473471985528433
1512512 -0.9884850541816836 0.1486939801698658
1512825 -0.9886681357864815 0.1478682185434009
1513137 -0.987591233548871 0.14758154384652336
1513449 -0.9886078514648832 0.149048712450173
1513762 -0.988621054727896 0.14845948052505373
1514074 -0.9871864645150943 0.1477797839701356
1514386 -0.9878403153601393 0.1485719070090983
1514699 -0.9877506473929306 0.14848943408338375
1515011 -0.9869363129332119 0.14781442013777257
1515324 -0.9880310913010546 0.14935798705469266
1515636 -0.9882196437173868 0.14945894826226944
1515948 -0.9873802236753572 0.14863344894095024
1516261 -0.9884326315962253 0.1497784409528139
1516573 -0.9890540708612319 0.14967035532829828
1516885 -0.9880325757468063 0.14874521935741575
1517198 -0.9888443700729597 0.14979922269277945
1517510 -0.9888002100831916 0.14951446802407278
1517823 -0.9877315727175576 0.14867014203694304
1518135 -0.9884921355777365 0.14975504496403108
1518447 -0.9890646533340828 0.14928002115333133
1518760 -0.9873644389609603 0.14787696679129173
1519072 -0.9884184274080572 0.14909764150804247
1519385 -0.9883819885535405 0.14926418163836483
1519697 -0.9880965578611494 0.14822476534537551
1520009 -0.9883947393959162 0.14965335704846075
1520322 -0.9882775551480261 0.14920004994573918
1520634 -0.9876791986913854 0.14798328132423091
1520946 -0.9880595385607996 0.14902763453849577
1521259 -0.9881075362928134 0.14881334992803355
1521571 -0.9873753720252981 0.14828950193754073
1521884 -0.9880559351452411 0.14943289607968355
1522196 -0.9877863572610325 0.1492010784211048
1522508 -0.9872463443956558 0.1481782498004174
1522821 -0.9882721657524581 0.1498725049370691
1523133 -0.9882138453765796 0.14997078122440138
1523445 -0.9874509128674271 0.14907266223272894
1523758 -0.9885753344746736 0.15048454937411299
1524070 -0.9890304051266567 0.1506302958438079
1524383 -0.9882440295261002 0.14947288983758655
1524695 -0.989007742899423 0.15069110721752368
1525007 -0.9894274851886992 0.15045490779536547
1525320 -0.9882269066182324 0.14946417106872203
1525632 -0.9887466222668446 0.1500619413588026
1525945 -0.9883849357020789 0.14941474113526093
1526257 -0.9873688763515197 0.14838400289180678
1526569 -0.9880260123001404 0.14959141295390888
1526882 -0.9882567409298297 0.14968841439862665
1527194 -0.9881173745834338 0.1490732437021494
1527506 -0.9883635531260256 0.14992021060001806
1527819 -0.9880993606456359 0.1499427903352044
1528131 -0.9877091465077202 0.1489846427469298
1528444 -0.9877771620762134 0.14978933568037506
1528756 -0.9880261472759002 0.14933107063547454
1529068 -0.9874214469714084 0.14929764674877802
1529381 -0.9879604324891299 0.14944915063091202
1529693 -0.9878689717169166 0.1497058789078655
1530005 -0.9874375407868591 0.14926378473548
1530318 -0.9876387469049851 0.15028005411554507
1530630 -0.987693126205508 0.15020141225474656
1530943 -0.9875390613342949 0.15006014954389896
1531255 -0.9878674228142099 0.15065431203023852
1531567 -0.9883190024132397 0.15093816314640623
1531880 -0.9879232436076745 0.15032037814602825
1532192 -0.9879947559520793 0.1508114530890463
1532504 -0.9881512852367152 0.15098123601719196
1532817 -0.9872238305638509 0.15013024887437781
1533129 -0.9880098081216759 0.15091266075201737
1533442 -0.9882367529608943 0.15090443057871314
1533754 -0.9877253994200719 0.14998276516116416
1534066 -0.9877698147308438 0.1507176365128525
1534379 -0.9878383468150401 0.15074516150585482
1534691 -0.9872863874751161 0.14978434880335387
1535004 -0.9877817592684836 0.1509752150219366
1535316 -0.9876280044227869 0.1506465746414048
1535628 -0.9871931914396583 0.1500585737856488
1535941 -0.9878198975222496 0.15049782028492212
1536253 -0.9876395332510741 0.15063872486739235
1536565 -0.9875467422695283 0.14987702634492805
1536878 -0.9880878646842045 0.15032855173549348
1537190 -0.9878959627031191 0.15022031360936167
1537503 -0.9873727070912496 0.14967951818821537
1537815 -0.9877129976438229 0.15057976330761083
1538127 -0.9879559997065241 0.15088470748584237
1538440 -0.9872421808549275 0.1507520831944765
1538752 -0.9877920859080433 0.15103835624470333
1539064 -0.9878332114601682 0.15116363043811273
1539377 -0.9878092189695176 0.15063405481666742
1539689 -0.988208046621765 0.15171409520039977
1540002 -0.9886978965470781 0.15186464623568746
1540314 -0.9882763689292356 0.15130395066105312
1540626 -0.9887187000850328 0.15162110807732077
1540939 -0.9883934011517421 0.15172604076036372
1541251 -0.9880171326607122 0.15088786674088314
1541564 -0.9882183309832197 0.15160730085380528
1541564 -0.9874590050860198 0.15175441963720498
1541882 -0.9883853267398324 0.151566800481278
1542201 -0.9873689740332459 0.1509359883769105
1542520 -0.9880467164266802 0.15153595307909537
1542839 -0.9879603730803688 0.15163007418013602
1543158 -0.9875583800481119 0.15096745849179175
1543477 -0.9882477038486286 0.15103190557999477
1543795 -0.9879316421410577 0.15148172540844862
1544114 -0.987586420323252 0.15089959399993477
1544433 -0.9878640967742569 0.1516160604653868
1544752 -0.9878948485566045 0.15097378986383156
1545071 -0.9873689394169775 0.1504176379382626
1545390 -0.9875285716409476 0.15201210230820567
1545708 -0.987366377730712 0.15139337325659932
1546027 -0.9867891179890077 0.1507746612443471
1546346 -0.9872053448701908 0.15208459821831688
1546665 -0.987429653013115 0.15156597210068026
1546984 -0.9866651652012673 0.1505319755536567
1547303 -0.9875771242745983 0.15159608908770367
1547621 -0.987677785050982 0.1518214927657882
1547940 -0.9869042808226342 0.15061565200701266
1548259 -0.9878014890216197 0.1524129535913763
1548578 -0.9875284459801651 0.1522527652271217
1548897 -0.9869224868642599 0.15113103817216292
1549216 -0.9873635313461462 0.15236907379889175
1549535 -0.9878206638228438 0.15223471171735706
1549853 -0.9869383329432329 0.1513465106704582
1550172 -0.9875419510925462 0.1522649143370615
1550491 -0.9876340507975918 0.15171036121397102
1550810 -0.9868864287028983 0.15124772974544828
1551129 -0.9873886297641365 0.15222147331793437
1551448 -0.9876253353059135 0.15204153593126543
1551766 -0.9872387641183187 0.1516270320234025
1552085 -0.9880807777946264 0.1526050844508554
1552404 -0.9880554321017495 0.15298793220847023
1552723 -0.9873094736362992 0.1525644050077402
1553042 -0.9884457853149466 0.1535689781051979
1553361 -0.9882633797958338 0.15315356155471915
1553679 -0.9875505380921636 0.1527188019810239
1553998 -0.9887156284966729 0.15342992464935196
1554317 -0.9879654557172748 0.1528947215135231
1554636 -0.9869713166576012 0.15274616836173377
1554955 -0.988073108092633 0.15299354276407773
1555274 -0.9875583691772063 0.15204716963412887
1555592 -0.9870460757888894 0.1525403082129003
1555911 -0.9872970070991854 0.15287492579913464
1556230 -0.9867499634030615 0.15210396360664483
1556549 -0.9874851666061655 0.1529833628975286
1556868 -0.9877267577727483 0.15263294682187717
1557187 -0.9863607675251439 0.1515503644804452
1557506 -0.9877901923459734 0.1526157054279859
1557824 -0.9873863550192158 0.1521650556045535
1558143 -0.9863259004343266 0.15203088022173794
1558462 -0.9873707420956638 0.15271231645714667
1558781 -0.9869253122731998 0.15238788746178747
1559100 -0.9858569892433595 0.15243342227583526
1559419 -0.9875565443578517 0.15345341619254316
1559737 -0.987087716940888 0.1527554615520093
1560056 -0.9863777093248174 0.15292133317118853
1560375 -0.9884101212290562 0.15377020066396524
1560694 -0.9879219407024236 0.1529910045326846
1561013 -0.9874418508895307 0.15311137752857767
1561332 -0.9888242170264951 0.15352473611359832
1561650 -0.9881697544020098 0.1537979866203441
1561969 -0.9875882814453769 0.15361173589518934
1562288 -0.9884761158602802 0.15403282703336796
1562607 -0.9875007865676267 0.15309331447880534
1562926 -0.9872101522136297 0.15316739194431694
1563245 -0.9881460104241339 0.15368784574457253
1563563 -0.9874461049483759 0.15284383698072274
1563882 -0.9871236768273639 0.15274209321320062
1564201 -0.987704568823487 0.15330600676792502
1564520 -0.9870556383409463 0.15264655713922148
1564839 -0.9874524395746834 0.1529322328058373
1565158 -0.9874704136995064 0.15352432241190586
1565477 -0.9871465347601998 0.15270829836375077
1565795 -0.9874945646192256 0.1533300339362862
1566114 -0.9873084060782973 0.15334814135501248
1566433 -0.9868543144790983 0.15273806198569848
1566752 -0.9873105385407666 0.15350553684997517
1567071 -0.9870436130734777 0.1534789715074569
1567390 -0.9869209929356015 0.15347947266877351
1567708 -0.9872192815282853 0.15421125508154973
1568027 -0.9876753948459488 0.15373664297869322
1568346 -0.9872738608275156 0.15384201912904388
1568665 -0.9880768785725104 0.1545010237369891
1568984 -0.9882568637367674 0.1543120186361706
1569303 -0.9878197609563372 0.15363441727624885
1569621 -0.9882756685295365 0.15428408616912612
1569940 -0.9883725451575378 0.15411217351429043
1570259 -0.9875973428261933 0.15340573787468198
1570578 -0.9881040738098854 0.15432872210868587
1570897 -0.9878070531950471 0.15396082760609678
1571216 -0.986599844448246 0.15307983629344693
1571534 -0.9873801129134349 0.1543364365292924
1571853 -0.987204135042193 0.15428805151099492
1572172 -0.9866356617069364 0.15294013824321318
1572491 -0.9874319214963893 0.15420688382175599
1572810 -0.987474491182416 0.15356016495678357
1573129 -0.9869894946938118 0.15294481059615855
1573448 -0.987044416273376 0.15392904939217195
1573448 -0.9873927753034314 0.15384644397344913
1573773 -0.9873488707807295 0.1533229106839823
1574098 -0.986829089428273 0.15399869643890804
1574424 -0.9879120406054567 0.15397645648823235
1574749 -0.9872046720105033 0.15336636782838242
1575075 -0.9872762945119161 0.15399304788347182
1575400 -0.9867384162876154 0.1544960453944527
1575726 -0.9860308464697604 0.1534707610618842
1576051 -0.9873352569640695 0.15463740392241737
1576376 -0.9872486092775291 0.15507116792909006
1576702 -0.9867699843706549 0.15454895914098532
1577027 -0.9880289005948342 0.15550147224508284
1577353 -0.9882083270278206 0.15587916865173237
1577678 -0.9867502507824862 0.15481770056838584
1578004 -0.9882270754900753 0.15623787470352657
1578329 -0.9874530464465647 0.1555370378869187
1578654 -0.9872041804444044 0.1551762729071762
1578980 -0.9878686544240803 0.15572663556009766
1579305 -0.9870356855720471 0.15467312580496323
1579631 -0.9875670642462425 0.1547857553508105
1579956 -0.9875960709044953 0.1549934424928156
1580282 -0.9872188568580185 0.1544645811296271
1580607 -0.9875719922457394 0.15452825129393785
1580932 -0.9871708113814768 0.1543122185956435
1581258 -0.9866068124895372 0.15389759508924103
1581583 -0.9868650583406571 0.15490847497455273
1581909 -0.9870786045234343 0.15494536994848238
1582234 -0.9864278955998433 0.1540160129144985
1582560 -0.9871487056138722 0.15506531097984994
1582885 -0.9869334570910341 0.1551201437632321
1583210 -0.9865095536604461 0.15409517995835934
1583536 -0.9876062305441345 0.15559040272164879
1583861 -0.9870059748117418 0.15486737826912023
1584187 -0.9864766890933668 0.15490167140002084
1584512 -0.9873607924777913 0.15569120584047444
1584838 -0.9871538893576486 0.15545483203216778
1585163 -0.9870250811647618 0.155599382729736
1585488 -0.987718716367674 0.15603163657805547
1585814 -0.987263139665907 0.1552204104320037
1586139 -0.987510816830929 0.1560287521977755
1586465 -0.9878386975468245 0.15604456052626026
1586790 -0.9872065357101406 0.15533415467220416
1587116 -0.9872442791251507 0.1561748925535155
1587441 -0.9871280852307256 0.15595818521324947
1587766 -0.986357698518086 0.15512249523884122
1588092 -0.987337139678255 0.15583191835177926
1588417 -0.9869585530768868 0.15561380287849427
1588743 -0.9873219918091953 0.1561615636348329
1589068 -0.9869331131217913 0.1557878552437742
1589394 -0.9859465945621478 0.1548841043926226
1589719 -0.9870178666976368 0.15582127134273213
1590044 -0.9865950095464101 0.1553054243543717
1590370 -0.9861634778023946 0.15542239748373393
1590695 -0.9871674025062557 0.15551968918906084
1591021 -0.9861272240988409 0.15519656960643333
1591346 -0.9863561744001319 0.15570619406684458
1591672 -0.9873847191704941 0.15639127179814657
1591997 -0.9868886096259877 0.15601576737744557
1592322 -0.9864190854027871 0.15644091598714155
1592648 -0.9874012350715347 0.1562715270391042
1592973 -0.9871950263919901 0.15633460075026828
1593299 -0.9872478543790856 0.15700605581279578
1593624 -0.987458209074142 0.15654487006511722
1593950 -0.9870327594741178 0.15591875120818124
1594275 -0.9874428535401504 0.15707744939438176
1594600 -0.9872964707486567 0.15704329439774947
1594926 -0.9865780673784654 0.1565076355338525
1595251 -0.987307523312157 0.1571973863047109
1595577 -0.9872211857343904 0.15662802417777955
1595902 -0.9859192171527079 0.1556600187041585
1596228 -0.9869687335869749 0.15617628498379585
1596553 -0.9870102696125077 0.15641526236834474
1596878 -0.9864283372721904 0.15623252229729664
1597204 -0.9869826619953682 0.15681077193952161
1597529 -0.9863038993033875 0.15633865252858137
1597855 -0.9861572937997783 0.15617978460967438
1598180 -0.9869921109694823 0.1569123016052092
1598506 -0.986095162229773 0.15603025401795323
1598831 -0.9863142937327216 0.15650472466998652
1599156 -0.9868632998116146 0.15672144202841998
1599482 -0.9862682072049421 0.15665096873700943
1599807 -0.9871321267071104 0.1570511484084691
1600133 -0.9872298835879947 0.15746738609707714
1600458 -0.9872308972026704 0.15700551154317513
1600784 -0.9878069830199959 0.1575533307130697
1601109 -0.9874791832568915 0.15703228262609994
1601434 -0.9873501775471232 0.15711829361155355
1601760 -0.9876233547823124 0.15832807839152568
1602085 -0.9877064506842447 0.15776623568968623
1602411 -0.9872246626229155 0.15694576342170033
1602736 -0.987489097130469 0.15829173702285224
1603062 -0.987253646655913 0.15748288172423575
1603387 -0.9864778251814057 0.1565474262953571
1603712 -0.987080885111074 0.1574453620294987
1604038 -0.987084687134053 0.15735771165774984
1604363 -0.9861620451570884 0.15686754194600672
1604689 -0.9871004913390259 0.1575343804612056
1605014 -0.9865248670926571 0.15719961129156368
1605340 -0.9858057356190578 0.15671632015884168
1605665 -0.986618775409119 0.1579023900489965
1605991 -0.9864792564419995 0.15781100895261005
1605991 -0.9868858020059662 0.157473030670988
1606323 -0.9861894176278354 0.15682628796733417
1606655 -0.9869770351384085 0.1578028191143312
1606987 -0.986417063851042 0.15715284879065505
1607319 -0.9852506795742897 0.15679419815190812
1607651 -0.9866728898384979 0.15764724009611178
1607983 -0.9862253983705207 0.15743038919105565
1608316 -0.9862060725507688 0.15766221803482802
1608648 -0.986658952129587 0.1583966868735096
1608980 -0.986481829286588 0.1579403326685917
1609312 -0.9867882876410574 0.1579050436809664
1609644 -0.9864195301117921 0.1574379476132245
1609976 -0.9860399623300005 0.1571021803855914
1610309 -0.9866712992555065 0.15800882687191312
1610641 -0.9869196604522597 0.15798617817025026
1610973 -0.9862319965564841 0.1573438914537281
1611305 -0.9868375926052242 0.15798669388142036
1611637 -0.9867368160306824 0.15825782687062953
1611969 -0.9868446238018813 0.1575333563020855
1612302 -0.9875832089275274 0.15865649346201724
1612634 -0.9869925198903846 0.15805778730531878
1612966 -0.9865959901322625 0.15776535868213787
1613298 -0.9871663044173818 0.15789409561093612
1613630 -0.9862050648398367 0.15730772133641358
1613962 -0.9858558550327435 0.1577120462617962
1614295 -0.9866983666303691 0.15733780899350094
1614627 -0.9862546715910947 0.15733793589994677
1614959 -0.9866368617157688 0.1577619167643825
1615291 -0.9863687950069905 0.15809246464269755
1615623 -0.9860510671267199 0.15739781347842136
1615955 -0.9869647645807212 0.15865984428085417
1616287 -0.9871040929763076 0.15893151201781483
1616620 -0.986347457407004 0.15832482849249938
1616952 -0.9871928313517151 0.15957491120310746
1617284 -0.9869301362330904 0.15899477773728962
1617616 -0.9860916736776909 0.15846436419470153
1617948 -0.9873058557427913 0.15924941474014878
1618280 -0.9864706606410913 0.1584829284662891
1618613 -0.9860245463540047 0.15806541972346644
1618945 -0.9866282830367221 0.1582924230299333
1619277 -0.9859584202387418 0.15800469283984037
1619609 -0.9855881832100106 0.15849665084444592
1619941 -0.9863998990564874 0.1583724233661359
1620273 -0.9861986168296024 0.15812160845095757
1620606 -0.9863092792536289 0.1591041343045879
1620938 -0.986616386648331 0.15920759435596
1621270 -0.9860952113271723 0.1586178114010348
1621602 -0.9868562734681219 0.15969741286842531
1621934 -0.987022922648103 0.15971094661694926
1622266 -0.9864967712342425 0.1590759735295211
1622599 -0.9874055321140444 0.15953708979013873
1622931 -0.9870021757944671 0.15905506353166035
1623263 -0.9864456842209635 0.15946608457097688
1623595 -0.9865756885141359 0.15897838694713587
1623927 -0.9858261658641512 0.15838820715548088
1624259 -0.9863791087703392 0.15922761797473828
1624591 -0.9860208879661188 0.15925401993428853
1624924 -0.9854382180099289 0.15860320620296806
1625256 -0.9863463249497233 0.15910800447713175
1625588 -0.9858529258126506 0.1586862464699309
1625920 -0.9847769232715743 0.15826332050170783
1626252 -0.9861370278444854 0.1594687703822581
1626584 -0.9858799632839395 0.15914513556194884
1626917 -0.9859701688730668 0.15986666881261613
1627249 -0.9869032219222791 0.1599936987069996
1627581 -0.9864624474901363 0.15954555231851117
1627913 -0.9871346898563813 0.1598540870922114
1628245 -0.9871382241880381 0.15975718157524707
1628577 -0.9867666021250595 0.1593280659969161
1628910 -0.9870001617651017 0.16032004063719224
1629242 -0.9868819479493871 0.1598273624534518
1629574 -0.9857015742345908 0.15908211390868823
1629906 -0.9868210236687186 0.15992870944913015
1630238 -0.9864301145363904 0.15986403706073604
1630570 -0.9852460893849235 0.15909514028279811
1630903 -0.9861188491614225 0.15989676421557522
1631235 -0.9853830746927903 0.15934293965488733
1631567 -0.986121877695385 0.15927995116303048
1631899 -0.9864859407551859 0.16045686095351572
1632231 -0.9861433991795945 0.1598099844786336
1632563 -0.986492579270373 0.16041087067783308
1632895 -0.9870989726075925 0.16013621903870065
1633228 -0.9866298454270037 0.16009729903503225
1633560 -0.9870134457685931 0.16065070257278707
1633892 -0.9863554224077039 0.1603872309746615
1634224 -0.9857565929553135 0.15970463928521328
1634556 -0.9862608760308754 0.16013237498219843
1634888 -0.9860770438666124 0.16020909322483168
1635221 -0.9854775280525381 0.15962088416664533
1635553 -0.9861995128994431 0.1602357184997092
1635885 -0.9853618039077483 0.15969297388146286
1636217 -0.9851690632236975 0.15991134672285473
1636549 -0.986338350396189 0.16082076042716673
1636881 -0.985454426500065 0.15994451564953974
1637214 -0.985279845136605 0.1601697476014549
1637546 -0.986570493809936 0.1603273510466367
1637878 -0.9861705722757876 0.16045202302070768
1638210 -0.9865915741245468 0.16084718994524277
1638542 -0.9867076491044384 0.16062954594368561
1638874 -0.9866755628724468 0.1602728658798739
1639207 -0.9871077054803825 0.1613105211466592
1639207 -0.9867545773792794 0.16096759795608268
1639546 -0.9869009310446227 0.16099275212287645
1639885 -0.9857792153003772 0.16027095174200895
1640224 -0.9864445029982088 0.16086788653644105
1640563 -0.9863729228160699 0.16053173369307863
1640902 -0.9855865111900425 0.160214413344605
1641241 -0.9865369803770832 0.16074925957750014
1641580 -0.9856369803768101 0.15993317373632612
1641919 -0.9856394977303179 0.16058312766619676
1642258 -0.9861446973017033 0.16068325349573126
1642597 -0.9859973397183854 0.16070467643472752
1642936 -0.9863661275318363 0.16149386098484828
1643275 -0.9860685075820687 0.1613753952423402
1643614 -0.9860142277866618 0.16044006418891166
1643953 -0.987885548882007 0.16205690956627256
1644292 -0.9865993632606652 0.1614639308494164
1644631 -0.9857798639121174 0.1609852838995387
1644970 -0.9864601675333855 0.16151348257090054
1645309 -0.9862355037978658 0.16102645726584128
1645648 -0.9856944468420827 0.16069458900364794
1645987 -0.9860626330221006 0.16064654149038413
1646326 -0.9853696371579832 0.1601852263571348
1646665 -0.9860636282708868 0.16170535483915505
1647004 -0.9871971010233979 0.16146422441734498
1647343 -0.9858671096859186 0.1608205675873138
1647682 -0.9858429585193491 0.16154059907751744
1648021 -0.9860553262211222 0.16234151590897222
1648360 -0.9855261809946094 0.1616524719304235
1648699 -0.9865911069945547 0.16212553719933148
1649038 -0.9900542761406557 0.16339552078269187
1649377 -0.9851326303500226 0.1618133200413943
1649716 -0.9880539912543403 0.16217039621879714
1650055 -0.9800381516694242 0.16025806498021078
1650394 -0.9861025856001395 0.16187859232555676
1650734 -0.9854972325999577 0.16162566592363944
1651073 -0.9845942898799916 0.159932573756454
1651412 -0.9855420782995155 0.1620460915609438
1651751 -0.9849253946586335 0.16147381044552184
1652090 -0.98502460617119 0.1607863429126936
1652429 -0.9856823605203486 0.16184166759693505
1652768 -0.9852148780189163 0.16116676175075267
1653107 -0.9849556702672507 0.16108368282079674
1653446 -0.9856851381649043 0.16129485677657943
1653785 -0.9859603130861992 0.16160169626181695
1654124 -0.9863756089947571 0.16271724035272628
1654463 -0.986663218890564 0.1625279360912323
1654802 -0.9865446626446336 0.16233006868927596
1655141 -0.9873966213218779 0.16345961049893298
1655480 -0.9863670167695928 0.1628390242990437
1655819 -0.986082401537443 0.1619345530523779
1656158 -0.9856517865892033 0.1629472181971329
1656497 -0.9858556211934228 0.16258692448543824
1656836 -0.985264004551593 0.1626593245406314
1657175 -0.9858938709198947 0.1622406720061759
1657514 -0.9855529058925814 0.16192376677650916
1657853 -0.9861166030098044 0.16291829360427
1658192 -0.9855435512533066 0.16266954467994357
1658531 -0.9851504144207858 0.16209024170432834
1658870 -0.9863004765970014 0.16278624796525257
1659209 -0.9860626695340515 0.16283050969168736
1659548 -0.9858604010754649 0.16287120207379785
1659887 -0.9861960167092818 0.1629554283732558
1660226 -0.9858397927092774 0.1623183487161779
1660565 -0.9855588003191139 0.1625368078381779
1660904 -0.9853053746201748 0.16233957572704633
1661243 -0.9855925369134353 0.16230790714929028
1661582 -0.9860925012729711 0.16300851575495634
1661922 -0.9856143318108379 0.1625901625411607
1662261 -0.9848511531250866 0.16210231626363697
1662600 -0.9858211301758041 0.16301850852280667
1662939 -0.9852673413729334 0.1626488782883296
1663278 -0.9855431308569664 0.16302184359749936
1663617 -0.9860187248201017 0.1628263049286541
1663956 -0.9860819535760915 0.16260149124946252
1664295 -0.9866384669814201 0.16425138152604848
1664634 -0.9861425913520763 0.16385304030711179
1664973 -0.9855415808728485 0.16286048218604826
1665312 -0.9865756767114655 0.16404816869593364
1665651 -0.986206625195259 0.163646430255113
1665990 -0.9861831733862623 0.1636111869351033
1666329 -0.9866830094344193 0.16302276697169663
1666668 -0.9862308358444815 0.16253440595795898
1667007 -0.9862447038721947 0.16311961913867862
1667346 -0.9851763368280102 0.16274078103105338
1667685 -0.9839786222654241 0.16271264993117804
1668024 -0.9851295198974881 0.16370957455635982
1668363 -0.9848932811084936 0.16309714925567065
1668702 -0.9841927767120976 0.16318982858347353
1669041 -0.9852103592911601 0.1635808415843972
1669380 -0.985222497868114 0.16321489247469168
1669719 -0.9854178600701112 0.16424794639995124
1670058 -0.985603173966694 0.16374059899646096
1670397 -0.9856711388822877 0.16338275258999402
1670736 -0.9861618744653066 0.16402002984540243
1671075 -0.9858250421558042 0.16419079682128215
1671414 -0.985417106614072 0.16368493028283929
1671753 -0.9854754567592224 0.16428746142476325
1672092 -0.9853167187119409 0.16320247516978933
1672431 -0.9850091568253448 0.1637016395880459
1672770 -0.9855998360414503 0.16342884130302834
1673110 -0.9853044952631327 0.16292083160228316
1673110 -0.9852494064888282 0.1638811108285139
1673456 -0.9853837990469902 0.1635133155495445
1673802 -0.9846350445062781 0.16281441839903824
1674148 -0.985554506245498 0.16411073194010506
1674494 -0.9851262889482207 0.16353197061861915
1674840 -0.9855466533792975 0.16403333392967526
1675186 -0.9859721569972876 0.16441283722500297
1675532 -0.9861250395726858 0.16425788627334387
1675878 -0.9861827781849228 0.1648056250500224
1676224 -0.9856652316227195 0.1646997964671236
1676570 -0.9853851269009858 0.16396075327917664
1676916 -0.9859942081402346 0.16484033697105935
1677262 -0.9854759533539158 0.16419141554145178
1677608 -0.985930328470702 0.16432110666490185
1677954 -0.9858249610379655 0.16381954642664087
1678300 -0.985661344840533 0.1636334180801933
1678646 -0.9861682850383412 0.16422127963697733
1678992 -0.985482179492427 0.1638489732699683
1679338 -0.9853103615538847 0.16344354266999955
1679684 -0.985607407713272 0.16473141046726525
1680031 -0.9857344491798116 0.16461377063915708
1680377 -0.9852488185765694 0.16477446307484994
1680723 -0.9856409187769068 0.16455981491244134
1681069 -0.985572229921131 0.16481395205562954
1681415 -0.9853775634913879 0.16528156050211407
1681761 -0.9859317402043875 0.16518745305981045
1682107 -0.9854131056213935 0.1644885576197333
1682453 -0.9854540344038679 0.16554845822999903
1682799 -0.9848157805918932 0.165261106942594
1683145 -0.9846467257381566 0.16461440455035029
1683491 -0.984976634655635 0.16486087068366143
1683837 -0.9846989580703974 0.16489403894910404
1684183 -0.9848699764765965 0.16459731515731055
1684529 -0.9852359481144468 0.16497689659747405
1684875 -0.9852404320851029 0.16457882944885344
1685221 -0.9859652414458426 0.16503538874370224
1685567 -0.985712603877575 0.16522699911080937
1685913 -0.9852534309500274 0.16471936875724502
1686259 -0.9861504262195622 0.16565104053604593
1686605 -0.9858033875283263 0.16526651240746829
1686952 -0.9859450350977433 0.1656605240930377
1687298 -0.9857884853903423 0.16552177192494005
1687644 -0.9853213477519818 0.16478026701219048
1687990 -0.9852692493454281 0.16523577327031064
1688336 -0.9852405940383467 0.16515015184103693
1688682 -0.9853248968278733 0.16568825747496013
1689028 -0.985072444154174 0.16506917404006355
1689374 -0.9848639058835897 0.1651872538055948
1689720 -0.9855337782733413 0.1657629822344203
1690066 -0.9852178061862747 0.16524559752850754
1690412 -0.9851245752617585 0.16440995362696523
1690758 -0.9856480655700551 0.16585470088498608
1691104 -0.98527316219508 0.1658720223714616
1691450 -0.9854798392063255 0.1666841642721806
1691796 -0.9860186496103287 0.16611980801212348
1692142 -0.985720308025545 0.16584465660830897
1692488 -0.9858034257268317 0.16638361615458638
1692834 -0.9859349984987112 0.1661000209769713
1693180 -0.9852542438979004 0.16571147811361014
1693526 -0.9856136857363811 0.166208536312957
1693873 -0.9849373291610032 0.165351305764141
1694219 -0.9844671715889587 0.16543931792146374
1694565 -0.9851693057800607 0.16619754796705932
1694911 -0.9845490159462388 0.16564598072817482
1695257 -0.9850877689910197 0.16642585024886455
1695603 -0.9849578456051531 0.16603196231314862
1695949 -0.9845327352074126 0.16632878949950794
1696295 -0.9849068262870159 0.16694999736086885
1696641 -0.9850054664192754 0.16692296896935396
1696987 -0.9850148062232805 0.16666591220962884
1697333 -0.9859848093194814 0.16666009951787483
1697679 -0.9852629801409198 0.16639741235475494
1698025 -0.9856646164466407 0.16709643570438001
1698371 -0.985758831416732 0.16634869015039158
1698717 -0.9852810028401998 0.1662746335220215
1699063 -0.9854096533499676 0.1667034038118311
1699409 -0.9845458720269804 0.16646584575159945
1699755 -0.98483897511319 0.16566925533641738
1700101 -0.9850478345665349 0.1664698890384105
1700447 -0.9853027196830648 0.16593893378753163
1700794 -0.985205094482869 0.16639908443327373
1701140 -0.9854589938805338 0.16593353231250366
1701486 -0.9850512103841326 0.1658570243355553
1701832 -0.985172572840962 0.16688202777091476
1702178 -0.9849648674891212 0.16708582256180796
1702524 -0.9849445088785407 0.16714722760062786
1702870 -0.9859349560263166 0.16778347287539813
1703216 -0.9854241200146779 0.16737200328781154
1703562 -0.98460910355362 0.16707730229056594
1703908 -0.9853492893767791 0.1670124951328002
1704254 -0.9846176946411123 0.1664058888540303
1704600 -0.9847275111562218 0.1670823966317734
1704946 -0.984593722692342 0.1669333708090229
1705292 -0.9845498079501195 0.16697789842743954
1705638 -0.9848379252434497 0.16739728207878024
1705984 -0.9844762921583118 0.16668102517059974
1706330 -0.9844888938818289 0.16689395322524872
1706676 -0.9850246845122569 0.16696897025879806
1707022 -0.985062763402239 0.1672839477778443
1707368 -0.9851367342727525 0.1671824125270946
1707715 -0.9856900412848849 0.16743720231559425
1707715 -0.9857222061484104 0.16776061152590918
1708068 -0.9853100852341519 0.16744042096824044
1708421 -0.9857169202617759 0.16757530996880632
1708774 -0.9853023084054481 0.1673527132590864
1709127 -0.9850973473575221 0.16707049518839293
1709481 -0.9851080072803121 0.16732418820482264
1709834 -0.985200545356698 0.16690251438766035
1710187 -0.9845373362741587 0.16692643840853633
1710540 -0.984639772458033 0.16792994893643734
1710893 -0.9843776525273956 0.16796218457499562
1711247 -0.9846021598613456 0.16765213457189226
1711600 -0.98488151772074 0.16792647507278427
1711953 -0.9843783071506481 0.16720379916115555
1712306 -0.9846860236908274 0.16760238080754877
1712659 -0.9851282528962632 0.16789871150194854
1713013 -0.9849246033274226 0.1674554398330388
1713366 -0.9850033060295739 0.1685487989841766
1713719 -0.9845215795357178 0.1680412698675667
1714072 -0.9847834804601023 0.1680393879944195
1714425 -0.9849015251574863 0.16822860274352006
1714779 -0.9845559133343971 0.16809646450595228
1715132 -0.9845956899330703 0.16817888879615228
1715485 -0.9850627814553159 0.1681156709052013
1715838 -0.9845383000042619 0.16764952401301636
1716191 -0.984581683329943 0.16816530903058408
1716545 -0.9840596722643278 0.16813260751878092
1716898 -0.9841603654799442 0.16766774242912375
1717251 -0.9847200587828902 0.1681703011422899
1717604 -0.9845590661036623 0.16836328611391346
1717957 -0.9851267109525544 0.1688679468179706
1718311 -0.9850421923008877 0.16904675413683842
1718664 -0.9849701186751892 0.16909443147747416
1719017 -0.9856994173336818 0.16953423909071308
1719370 -0.9850366820041485 0.1687999382417721
1719723 -0.9849361739660677 0.16876389206415018
1720077 -0.9849438640625628 0.16830424719522094
1720430 -0.9843008409260975 0.16803933509205313
1720783 -0.9846075348894601 0.16802555858024776
1721136 -0.9840688329203655 0.16830572934881957
1721489 -0.9839929801837647 0.16774471776015348
1721843 -0.9841443793270634 0.16838922970480338
1722196 -0.9841090055796178 0.1684132663446054
1722549 -0.9846862534054148 0.1686971715664919
1722902 -0.98459358129938 0.16856660701712933
1723255 -0.9846914141761546 0.16895608652585614
1723609 -0.9852126045487639 0.16937302623383338
1723962 -0.9845371345405978 0.16894691321049357
1724315 -0.9848404486945099 0.16902452445803834
1724668 -0.9847824414688529 0.16967587205823986
1725021 -0.9852904670698318 0.1692299424674937
1725375 -0.9839577741114104 0.16882027030739893
1725728 -0.9845959213473089 0.1690388274579346
1726081 -0.9838045893215688 0.1682567007011763
1726434 -0.9843022928056396 0.16882883006064425
1726787 -0.9846537349305166 0.1688403429215785
1727141 -0.9845430436758346 0.1690047145799232
1727494 -0.9850629894121814 0.16942592003141496
1727847 -0.984821179722559 0.16990951866391305
1728200 -0.9848322752771355 0.16979272117765504
1728553 -0.9845049661423584 0.1695220327720563
1728907 -0.9847115395017463 0.16964516995988954
1729260 -0.9841234063360309 0.16952653723861
1729613 -0.9845991804842363 0.16925470192792555
1729966 -0.9844589985056638 0.1686913763723541
1730319 -0.9846726081318562 0.16901488172408377
1730673 -0.9845286511989199 0.16909541796271238
1731026 -0.9848481010391124 0.16922545987607712
1731379 -0.984411464230277 0.16972567950794037
1731732 -0.9843869458310495 0.16974002957757883
1732085 -0.9848668492846666 0.1704693401323309
1732439 -0.9847924135329542 0.16991763302744595
1732792 -0.9847645555759795 0.17013918430564356
1733145 -0.9852705586086958 0.17032918765506697
1733498 -0.9847954890066314 0.17021255585649897
1733851 -0.9840420391615383 0.16927620351581213
1734205 -0.9847891140349743 0.1699213746540103
1734558 -0.9844683309113444 0.16917220942774983
1734911 -0.9849090645733733 0.16917056093607888
1735264 -0.9846669633472881 0.16900159614826432
1735617 -0.9841998223121899 0.16942605561826732
1735971 -0.9845655055156736 0.17015674581288162
1736324 -0.9840109089653268 0.17009575130309193
1736677 -0.9841681443723002 0.16972732781970906
1737030 -0.9847956096785904 0.16997251363283905
1737383 -0.9845073867970324 0.1694449827009545
1737737 -0.985002656712762 0.16963831110772923
1738090 -0.9845987923331524 0.169694856829568
1738443 -0.984165062866139 0.16927502732256217
1738796 -0.9842420464787398 0.16970381058372644
1739149 -0.9841590696577331 0.16979059117230533
1739503 -0.9836353495483675 0.16993751269334031
1739856 -0.9844843549976311 0.17033023904800423
1740209 -0.9841703860185428 0.17071036055570174
1740562 -0.9843632878725961 0.17056483233886605
1740915 -0.9842426666418689 0.17064943858215517
1741269 -0.9843725805931794 0.17021303820481617
1741622 -0.9841861106131988 0.17055061281869296
1741975 -0.9836816117120092 0.17012418440048235
1742328 -0.9834583010712912 0.1699346124391874
1742681 -0.9841538300696456 0.16983151034601196
1743035 -0.9843032757840922 0.16988387731360813
1743035 -0.9839932759748842 0.1700548178786467
1743395 -0.9844186940895373 0.17077110383927135
1743756 -0.984597975452085 0.17115660704606914
1744116 -0.984674857282804 0.17153654244083852
1744477 -0.9843778368371874 0.17139735128728908
1744837 -0.9842407541865987 0.1711082614057508
1745198 -0.9847282236745383 0.17083057502091142
1745558 -0.9840222170255586 0.17089887901869152
1745919 -0.9840895423412848 0.17109716762279994
1746279 -0.9839209870068895 0.17047634854118202
1746640 -0.9837167451904556 0.17014529112629212
1747000 -0.984005967459266 0.17070907257047502
1747361 -0.9840194350284053 0.17047748307402408
1747721 -0.9842998429795952 0.17119260275294648
1748082 -0.9843678349518449 0.17177463080648298
1748442 -0.9843571618655041 0.17194591882654967
1748803 -0.9847114659850618 0.1720943933684497
1749163 -0.9846732203383627 0.17158346867201427
1749524 -0.9841649013316016 0.1716596972215753
1749884 -0.9847725835608727 0.17097162190686352
1750245 -0.9841648153180713 0.1711571820148302
1750605 -0.9841797807177775 0.17107082226200446
1750966 -0.9832721448778915 0.17091456868382354
1751326 -0.9839490954432594 0.17151964764872207
1751687 -0.9838901530272351 0.1717181515351271
1752047 -0.98377391930008 0.1712512603591288
1752408 -0.984233592456749 0.17191502197918507
1752768 -0.9837253573474378 0.1720557471784018
1753129 -0.984158720764381 0.1716025652539008
1753489 -0.9838504898699504 0.1716147713933065
1753850 -0.9835890281321296 0.1713245515415499
1754210 -0.9841021054945936 0.17126336108390666
1754571 -0.9836231963069952 0.17137113103393778
1754931 -0.9831888075132734 0.17102137214470126
1755292 -0.9836741928977197 0.17156570485535336
1755652 -0.9838390938668777 0.1712829522835462
1756013 -0.984132717608194 0.1721097426379822
1756373 -0.9842609705005482 0.17172400097255963
1756734 -0.9840245861115945 0.1715094132974119
1757094 -0.9841766225773979 0.17170689599833647
1757455 -0.984110138513352 0.1719484759111549
1757815 -0.9836484422683527 0.1719863339529355
1758176 -0.9836591522566924 0.17156656222567904
1758536 -0.9834905876070041 0.17135051360880083
1758897 -0.9837573107374591 0.17219707188368993
1759257 -0.9837734276435739 0.1723813640395692
1759618 -0.9838636456417859 0.17238265363194977
1759978 -0.9837804392964377 0.17247693870807937
1760339 -0.9838220805510643 0.17351268979862244
1760699 -0.9839553743385583 0.17312383146550264
1761060 -0.9839776239983911 0.17282456409857352
1761421 -0.9843938974040757 0.173030995031247
1761781 -0.984137239653054 0.17255315852756933
1762142 -0.9846714447636837 0.17242921804999922
1762502 -0.9835019130400907 0.17255563790725906
1762863 -0.9835149350519231 0.17240506803451308
1763223 -0.9834669144112749 0.17267908525967943
1763584 -0.9836689647779149 0.17250269487178602
1763944 -0.9834614937572076 0.17315693838131516
1764305 -0.9847030069971237 0.17297867094481334
1764665 -0.9841082253264644 0.17264834432183102
1765026 -0.9838432034576523 0.17325014008623166
1765386 -0.9838415219269505 0.17290392975120794
1765747 -0.9835754141833902 0.1722252731776535
1766107 -0.9837130533509358 0.17287238241832795
1766468 -0.9833140364719443 0.17245650910752675
1766828 -0.9833735338046495 0.1729924983511327
1767189 -0.9834262720822957 0.17256939807027272
1767549 -0.983688659229048 0.17240644116796536
1767910 -0.9836908365125898 0.17235210239211396
1768270 -0.9842222638984371 0.17318040107872007
1768631 -0.9838095310846577 0.173357441612834
1768991 -0.9844392394484298 0.17322694529473978
1769352 -0.9845201649239381 0.1732607593258696
1769712 -0.9841587135269194 0.17352108704588662
1770073 -0.9838024186394174 0.173402777915294
1770433 -0.9833032659352885 0.17320559005313882
1770794 -0.9837134893024 0.17328672711958315
1771154 -0.9838162830393579 0.17305565858364172
1771515 -0.9843501649125012 0.1728409521790833
1771875 -0.9837360919236826 0.17311629432378037
1772236 -0.9835902252946366 0.1731528131677005
1772596 -0.9838471797473525 0.17342238268331345
1772957 -0.9840084468414569 0.1735652021356364
1773317 -0.9833354181802069 0.17382035337462093
1773678 -0.9834673346310226 0.17383527182376868
1774038 -0.9835567671475709 0.17451320094737782
1774399 -0.9837990433626442 0.17461648170668775
1774759 -0.9836698961181304 0.1743797372323547
1775120 -0.984262337554131 0.17465930496353996
1775480 -0.9843082777427167 0.17427990067816665
1775841 -0.98405367248316 0.17403734360786374
1776201 -0.9835607380449811 0.17390706953243767
1776562 -0.9836579470167064 0.17366111984491936
1776922 -0.9834124147710285 0.17359034920119643
1777283 -0.9830677372009993 0.17379007937214377
1777643 -0.9833832824354302 0.17412950520234477
1778004 -0.9830793485420973 0.173990292253845
1778364 -0.984143779606596 0.17456449142873987
1778725 -0.9839791642705783 0.17443059435495184
1779086 -0.9841919794979863 0.1746411200463
1779086 -0.9839433651291166 0.17476951095047877
1779453 -0.9834862592748417 0.1743257845580679
1779821 -0.9839092213504702 0.17419972409405918
1780189 -0.9831775565500943 0.1739737004031667
1780557 -0.9831081146119266 0.17373954973184524
1780925 -0.9832720647322896 0.17436881323746925
1781293 -0.983418147097308 0.17408686887929395
1781661 -0.983071177569157 0.17436826843084374
1782029 -0.9835620759318059 0.17452462343820369
1782397 -0.9835423520473493 0.17406651214743682
1782765 -0.9836845200338692 0.17470211693801663
1783133 -0.983778373895263 0.1749189334990685
1783501 -0.9837179139424707 0.17460625719433107
1783869 -0.9842150473883587 0.1745503469596226
1784237 -0.9840894132809688 0.17450474501925797
1784605 -0.98380764571421 0.17476372767225576
1784973 -0.9834895209834799 0.17462197328334628
1785341 -0.9830166769297487 0.17401541419740144
1785709 -0.9841391055368567 0.17457369284478622
1786077 -0.9838838647809345 0.1743495460291021
1786445 -0.9840928136932757 0.17523876179573025
1786813 -0.9839341567474963 0.17510352098628984
1787181 -0.9836433481762897 0.17486663684675044
1787549 -0.9837674826841799 0.17515255591113643
1787917 -0.9834456010388095 0.17467229832641953
1788285 -0.9839739346014481 0.17493903800843957
1788652 -0.9835551369060413 0.17481453937233224
1789020 -0.9835637264515176 0.17446003939710553
1789388 -0.9837198633427411 0.17495175909962998
1789756 -0.9840889134734793 0.17472296480702784
1790124 -0.9835971666995434 0.17487254481951592
1790492 -0.9831729593597492 0.175019349219463
1790860 -0.9835164682597853 0.1747789211855593
1791228 -0.983654986837215 0.17552064474011814
1791596 -0.9834842431593961 0.17555741424388394
1791964 -0.9832978901528086 0.1755522391112563
1792332 -0.9831326097925877 0.17540703548576236
1792700 -0.9838166868382281 0.1751428184608262
1793068 -0.9832973844804611 0.17522069241999813
1793436 -0.9832058379188036 0.17521154833378194
1793804 -0.9827273500901552 0.17536209988424648
1794172 -0.9832326873575618 0.17509467822149352
1794540 -0.9828409856924377 0.1752940492632049
1794908 -0.9833120785256421 0.17570539945012686
1795276 -0.9829295257960311 0.17592527820959405
1795644 -0.9834997630308177 0.17631120074640064
1796012 -0.9835154488172936 0.17641155925765406
1796380 -0.9838622869739884 0.17636932863670524
1796748 -0.9842080084169358 0.17617459150082815
1797116 -0.9833330628122212 0.17582385539316628
1797484 -0.9838471946179967 0.17549873507326952
1797851 -0.9838661951750731 0.17583120051062906
1798219 -0.982726429445842 0.1757806773471502
1798587 -0.9842774121524037 0.17632134516375977
1798955 -0.9855130432864831 0.1772185975439221
1799323 -0.9835534283258521 0.17651549201572078
1799691 -0.9831330572458402 0.17619218472439604
1800059 -0.9879099088877266 0.17716455830882952
1800427 -0.9837768016890714 0.1758253440217857
1800795 -0.984018439778974 0.1759118967054974
1801163 -0.9848099294557193 0.1763486923339285
1801531 -0.9826222105631465 0.17574279948703475
1801899 -0.9836728975383722 0.175770322529511
1802267 -0.980740510778439 0.17516176600288144
1802635 -0.9825265191674346 0.1763705122144086
1803003 -0.9849462472132572 0.1777470531896541
1803371 -0.9844030993697008 0.1773904365798029
1803739 -0.984211445972645 0.17700183329034663
1804107 -0.983484424037641 0.17687231549644702
1804475 -0.9832873961703049 0.17695151483515895
1804843 -0.9833580745634387 0.17681639809941344
1805211 -0.983325016284111 0.17626676893919002
1805579 -0.9831446687715533 0.17615922686434987
1805947 -0.9828113229300691 0.17617672435208107
1806315 -0.9822865456462208 0.17652176520185625
1806683 -0.9825912028277553 0.17742336630326935
1807050 -0.9827803764228392 0.17702114603521588
1807418 -0.982994818304876 0.17692264267588126
1807786 -0.9833209723216143 0.1768779987882215
1808154 -0.9837778640825 0.17684422133232344
1808522 -0.9828295002933889 0.17666374689266887
1808890 -0.9829803455669965 0.1770811546590892
1809258 -0.9821559307736337 0.17606679486843088
1809626 -0.9821886331891214 0.17622538003174312
1809994 -0.9829546542454934 0.1772819443700853
1810362 -0.9833513767947623 0.1775343202035407
1810730 -0.9837984418698738 0.17741049437575504
1811098 -0.9834047149038995 0.1771877694321259
1811466 -0.9829353637192029 0.1775182450054223
1811834 -0.9831952085638761 0.1772492518418529
1812202 -0.9836067320984903 0.1769619156436819
1812570 -0.9834983904287676 0.17695640352739891
1812938 -0.9835543895987745 0.17662484924031469
1813306 -0.9830362310942065 0.17699466697229707
1813674 -0.9823068551229107 0.1765203228398195
1814042 -0.9830645563070978 0.17706706743040562
1814410 -0.9830077208859664 0.1774608990941277
1814778 -0.9830418752795703 0.1777410438856477
1815146 -0.9833995836245585 0.1780539546138659
1815514 -0.9827473314658828 0.17813903739462536
1815882 -0.9831785694710835 0.1780821475204954
1815882 -0.9827132906119689 0.17804162774536117
1816257 -0.982934360505569 0.17775991879543437
1816633 -0.9826342859669965 0.17761323174400528
1817008 -0.9826241917311533 0.1776204429780305
1817384 -0.9825617985886106 0.17762509509071214
1817759 -0.9826482651834942 0.17798327187533428
1818135 -0.9826941651262912 0.17783376984599025
1818510 -0.9830101426485748 0.17809812461080926
1818886 -0.98259853220272 0.178011328339969
1819262 -0.9827548869430334 0.17834327760712346
1819637 -0.982880146304218 0.17835532387278452
1820013 -0.9830154823572087 0.17815236515080432
1820388 -0.9829432650548968 0.17851528959102522
1820764 -0.982462371196537 0.17814815351996938
1821139 -0.9823662732513172 0.17835740775063708
1821515 -0.9825160927212758 0.17830241246361622
1821891 -0.9828310255412593 0.1783214478005346
1822266 -0.9829865740283452 0.17855872275310178
1822642 -0.9831485699607726 0.17851487279551667
1823017 -0.9826787301846914 0.17859218614793396
1823393 -0.9825541901754911 0.17875792269411728
1823768 -0.9826288130062449 0.17878528942136304
1824144 -0.9829540528130067 0.17901993520984352
1824520 -0.9825458062960633 0.17890365038429362
1824895 -0.9823257569397404 0.1786485414147569
1825271 -0.9822306980142891 0.17874121908316898
1825646 -0.9826853712597862 0.17830483584131623
1826022 -0.9828046457347115 0.17900803534333665
1826397 -0.9829309974136983 0.17868762818750766
1826773 -0.9826381633579537 0.17907643542603538
1827149 -0.9829103562711344 0.17917798740276286
1827524 -0.9829172447141457 0.17926420210793964
1827900 -0.9829205047693298 0.1795071774563699
1828275 -0.9825119952947946 0.1794189543822255
1828651 -0.9825461330593802 0.1794107670868685
1829026 -0.9823586675240815 0.17947447164315086
1829402 -0.9826269665244349 0.17872557347256524
1829778 -0.9827740090843041 0.17873878864949458
1830153 -0.9827072355059089 0.17898871973400074
1830529 -0.9830653982020378 0.17908119878510223
1830904 -0.9825012750137875 0.17917723566766414
1831280 -0.982989837497254 0.17943447667977627
1831655 -0.9829616989810621 0.17947098966077488
1832031 -0.9830102932146816 0.17923117798746024
1832407 -0.9828651516329823 0.178973503102269
1832782 -0.982462006783697 0.17921615536244204
1833158 -0.9826414982423497 0.17889324695621658
1833533 -0.9829465225190177 0.17941827290370108
1833909 -0.9826449679873273 0.17895920328154938
1834284 -0.982831947418825 0.17947238703591223
1834660 -0.9832851172439155 0.1796417860061886
1835036 -0.9826303063939339 0.17955600424321802
1835411 -0.9827135079417197 0.17983840102550727
1835787 -0.9825393174626597 0.17974690402944055
1836162 -0.9826658854631861 0.179947003354979
1836538 -0.9828030604339623 0.17988985945598687
1836913 -0.9824702735134596 0.17951166863906362
1837289 -0.9824854905995719 0.1794038961538226
1837665 -0.9824507556094799 0.1796934303983187
1838040 -0.9827271345497415 0.1797146363970357
1838416 -0.982627964591724 0.17941978689519783
1838791 -0.9829145063575344 0.17994990729040786
1839167 -0.9823067967026187 0.1800074673401518
1839542 -0.9827385550888275 0.18001703389074086
1839918 -0.9828757870954717 0.18002174556037132
1840294 -0.9822163813607698 0.17980779874747257
1840669 -0.9825334543465049 0.17973024559134265
1841045 -0.9826834572954365 0.1796823384049033
1841420 -0.9820557457060831 0.1797436702259545
1841796 -0.9826095512023715 0.17974614353901353
1842171 -0.9824989906324286 0.1801299696553428
1842547 -0.9825428199467302 0.1806630214382318
1842923 -0.9826606587077662 0.18094936984610208
1843298 -0.9825794524497156 0.18120471108233985
1843674 -0.9824899673001386 0.18057549664667513
1844049 -0.9827837652281461 0.18127366394096997
1844425 -0.9834055175364337 0.18076416547761648
1844800 -0.9827019979372682 0.18056238092290705
1845176 -0.982539760031394 0.18017943306463757
1845552 -0.9827406267692097 0.1802068421845613
1845927 -0.9819441545568679 0.18015267476182847
1846303 -0.9821215934734527 0.18054486568819444
1846678 -0.9825946056867667 0.18095595266542483
1847054 -0.9824398872251651 0.1811698701390492
1847429 -0.9823836199419675 0.18087186193708893
1847805 -0.982300218769658 0.1810333440145171
1848181 -0.9821117592555668 0.18029417493888714
1848556 -0.982169595448868 0.18041684851526865
1848932 -0.9821574598730648 0.18055577112573454
1849307 -0.9822540363934165 0.18060002502840392
1849683 -0.9823051217891859 0.18108961482185226
1850058 -0.9823000912456175 0.18075668756028154
1850434 -0.9822940439229899 0.18119177060836072
1850810 -0.9825705897615982 0.18145896626987948
1851185 -0.982413197874044 0.18141895750843226
1851561 -0.9823874064938432 0.18100187977641077
1851936 -0.9820096248091242 0.1806294946333419
1852312 -0.9818206263749216 0.18072197581478397
1852687 -0.9820754230121437 0.18123244754193282
1853063 -0.9819408338215688 0.18134916800904835
1853439 -0.9818211906126307 0.18154082350992654
1853439 -0.9820662009017214 0.18194615011579124
1853822 -0.981575490924694 0.18195447212519267
1854205 -0.9822349652837546 0.18174238958247743
1854589 -0.9827684027292299 0.18146314612425313
1854972 -0.9823760239969856 0.1814574883373941
1855355 -0.9826023462328702 0.1814749310879703
1855739 -0.9825226331775355 0.18141208268602252
1856122 -0.9823080246861476 0.18124573554798212
1856505 -0.9823110837879164 0.18129855897459024
1856889 -0.9823907396254102 0.1817751178497721
1857272 -0.9821920723271441 0.1821343169864361
1857655 -0.9820565797649305 0.1825374182080173
1858039 -0.9820833594223717 0.18200397917818523
1858422 -0.9820015620912783 0.18189683750474472
1858805 -0.9820273353509142 0.18187204676105165
1859189 -0.9824707587096579 0.1819339151269863
1859572 -0.9824377032826679 0.1820897833059629
1859955 -0.9823091790893992 0.18199632276961508
1860339 -0.9815552754603051 0.18217626416085278
1860722 -0.982264299303812 0.18224839313588925
1861106 -0.9824559394176744 0.18210875217748035
1861489 -0.9821207819189904 0.18247772997141873
1861872 -0.9822186049810744 0.1822499185468997
1862256 -0.9825809264705424 0.18217313733284576
1862639 -0.9828216675600785 0.1821423668735293
1863022 -0.9833034270156643 0.1824744938721618
1863406 -0.9826508135668045 0.1826356696650961
1863789 -0.9827253888357322 0.1826371219466794
1864172 -0.982790167018678 0.18263773179569684
1864556 -0.982146406706058 0.18228734466411908
1864939 -0.9815884254059455 0.1817388236242845
1865322 -0.9816701814255083 0.18239170885747977
1865706 -0.981780192091604 0.18254708346188683
1866089 -0.9817461572689606 0.18240275587096186
1866472 -0.9820720736269051 0.1821331655368429
1866856 -0.9823916380688814 0.18243680733443232
1867239 -0.9819614572283477 0.18274565224487452
1867622 -0.9822819282465851 0.18312144751173126
1868006 -0.9819702750011025 0.18282855189363678
1868389 -0.9821234239012029 0.18326177182438827
1868773 -0.9814345080209909 0.18330817014215034
1869156 -0.9819075619059168 0.183169788787244
1869539 -0.9821474799724406 0.18311870378005693
1869923 -0.9818539142782866 0.18327710384001641
1870306 -0.9824534282127647 0.1833009203550336
1870689 -0.9822490383357856 0.18271633019230582
1871073 -0.9822196609395906 0.18279066986926484
1871456 -0.982239139442105 0.18267580773348055
1871839 -0.9813135573695217 0.18244182605381526
1872223 -0.9815846112850187 0.18329742224682286
1872606 -0.980928258717992 0.18334338737274608
1872989 -0.9813260586389779 0.18360060568792097
1873373 -0.9817900968337 0.18382687223175556
1873756 -0.981863885565774 0.18330764551127016
1874139 -0.9821573489779558 0.18338736630725383
1874523 -0.9828603574556249 0.18407021902733114
1874906 -0.9817350564756415 0.183337252946729
1875289 -0.981255517520212 0.18322407325920095
1875673 -0.9812734997770429 0.18300633366798025
1876056 -0.9808638414939792 0.1829649919877353
1876440 -0.9813194208749444 0.18365208984541695
1876823 -0.9816752729539657 0.18414900738965356
1877206 -0.981835172362842 0.18358236240686432
1877590 -0.981890688688883 0.1835454681739562
1877973 -0.9823958500657095 0.18366042096688984
1878356 -0.9813661609999338 0.18347951878673188
1878740 -0.9817247753871652 0.18356296111074125
1879123 -0.9815223900120772 0.18403749159272104
1879506 -0.9814137536314249 0.18356294773732088
1879890 -0.98155961162348 0.18382908929553562
1880273 -0.9815517135892409 0.18444546520589067
1880656 -0.9822234242908066 0.1847631015108169
1881040 -0.9822040063301881 0.18461996727536736
1881423 -0.982161868867643 0.18405487950309748
1881806 -0.9818864912055274 0.18369685387895496
1882190 -0.9818449418768074 0.18377501191680115
1882573 -0.981437022760377 0.183882564927062
1882956 -0.9817240405558414 0.18370185005397177
1883340 -0.9815591936911051 0.18449513998069927
1883723 -0.9814880467516471 0.18426883823341156
1884107 -0.9817358865688246 0.18487482128949406
1884490 -0.9821344387695442 0.18450389953665156
1884873 -0.9817494108096687 0.18471743389076242
1885257 -0.9818276734058714 0.18483912290642845
1885640 -0.9814128564750386 0.18435770661826548
1886023 -0.9817942572554537 0.18465461586518886
1886407 -0.9820905827390314 0.18453860358823498
1886790 -0.9814784516289297 0.18506674679004098
1887173 -0.9820185907704823 0.18555243146671227
1887557 -0.9810980223673409 0.18489210861713287
1887940 -0.9818822699263542 0.18483046123679642
1888323 -0.9815876639614628 0.18452804341288193
1888707 -0.981221390479963 0.18482914881277304
1889090 -0.9819302902663943 0.18485121709811775
1889473 -0.9813280377514226 0.18394570139879882
1889857 -0.9817495391720381 0.184308599343785
1890240 -0.9816093062568341 0.18454580430196987
1890623 -0.981145946267053 0.1847337687747673
1891007 -0.981555759902967 0.18458284463005817
1891390 -0.9813447948488793 0.184784995329014
1891774 -0.9816377065523383 0.18517722232082223
1891774 -0.9814269533325982 0.18520587309102282
1892165 -0.9816793220996517 0.1853270235733179
1892556 -0.9816192511510036 0.18533327233986058
1892947 -0.981550557237719 0.18533059345623384
1893339 -0.9817124337819065 0.1855186191039691
1893730 -0.9815854543908884 0.18559411643693866
1894121 -0.981699050806501 0.18541321814075012
1894512 -0.9813936587744643 0.1853372933678508
1894904 -0.9813943820299702 0.18547791167674418
1895295 -0.9808102716457863 0.184630166727999
1895686 -0.9814394261249899 0.1852315511748029
1896077 -0.9817390518133301 0.1854109535562678
1896469 -0.9813409472984259 0.18523198494041643
1896860 -0.9816515552459196 0.18561430706404528
1897251 -0.981193948401777 0.185348243218553
1897643 -0.9815216021281044 0.18561298245229504
1898034 -0.9813241476355467 0.1854331640352562
1898425 -0.9811519101875195 0.1857313386443943
1898816 -0.9816811551192068 0.1859245162851745
1899208 -0.9812213347804688 0.1859268010827495
1899599 -0.9815649904791367 0.1860610878191621
1899990 -0.981748809496894 0.18618981839521906
1900381 -0.9813306708694745 0.18571444464502793
1900773 -0.981536763549425 0.18527287741723986
1901164 -0.9810394593332065 0.1859327971966353
1901555 -0.9811532243872659 0.185834551368323
1901947 -0.9803620274686172 0.1853077700473747
1902338 -0.9808341640368916 0.1861631883761419
1902729 -0.9809029705228303 0.18644595103560826
1903120 -0.9810443808661846 0.18675248329856514
1903512 -0.981686940799911 0.18611086846259783
1903903 -0.9809554676772673 0.186461526375599
1904294 -0.9815726929187992 0.18625971335936944
1904685 -0.9807271239505099 0.1856677015366506
1905077 -0.9815747068625439 0.1856364670625978
1905468 -0.9818714384755102 0.18589747646160476
1905859 -0.9814585487676982 0.18649694046963317
1906250 -0.9813301690029503 0.1869704881609572
1906642 -0.9813277483701165 0.18649840912503515
1907033 -0.981551357905861 0.18701187522407764
1907424 -0.9814311861853392 0.186474838037577
1907816 -0.9809922456391281 0.1868265310875703
1908207 -0.9815327651412393 0.18676352284279024
1908598 -0.9810277222137729 0.18691215460327576
1908989 -0.9812374024715144 0.18693257527648657
1909381 -0.981043580991507 0.18666495783334444
1909772 -0.9811583083970159 0.18676792477689888
1910163 -0.9814581449147218 0.18672069194571206
1910554 -0.9812645276870255 0.18747703181860653
1910946 -0.9809995746670729 0.18697636445251894
1911337 -0.9814972803865052 0.1869663375807561
1911728 -0.9813566134914842 0.1869061885736275
1912120 -0.9808539298599648 0.1866016597463741
1912511 -0.9812353484398122 0.18722736706111373
1912902 -0.9807803375067325 0.18687639898177066
1913293 -0.9805354302362448 0.18749477479636392
1913685 -0.9802656039933536 0.18699160475577142
1914076 -0.9806061096746934 0.18725889346586277
1914467 -0.9813637621307065 0.18747733999211727
1914858 -0.9807898507080817 0.187508363979518
1915250 -0.9812422536781615 0.18742227321108954
1915641 -0.981164829012958 0.18737288445211323
1916032 -0.9815653721811307 0.18723952104668176
1916424 -0.9811752124195604 0.18704083019880316
1916815 -0.9811886751571492 0.1875605019387137
1917206 -0.9814202054398338 0.1877387017889325
1917597 -0.9810126168888715 0.18766761370613522
1917989 -0.9809478987138458 0.18799866681724559
1918380 -0.9804340881927619 0.18767606839944131
1918771 -0.980917363762591 0.187696258861243
1919162 -0.9813137813100218 0.18798038492672745
1919554 -0.9809780909544397 0.18785154573564447
1919945 -0.981421712202837 0.1880676340695073
1920336 -0.980398691779458 0.18758465772645752
1920727 -0.981092119387403 0.18796651568316072
1921119 -0.9803388863833886 0.18789940062903582
1921510 -0.9808050798089055 0.18814280407690914
1921901 -0.9812123455630295 0.18843152493200938
1922293 -0.9810602405390827 0.18823380830846215
1922684 -0.9810248406898252 0.18857002850826923
1923075 -0.9811444789734175 0.18846284527251958
1923466 -0.9809694855125268 0.18853865964146416
1923858 -0.9812782404574593 0.18827617983790357
1924249 -0.9805590481964098 0.1880803171466922
1924640 -0.9807076312289542 0.18837199264742943
1925031 -0.9804309313937153 0.1876555371275115
1925423 -0.9810478536877228 0.1881871066074729
1925814 -0.9809167888291928 0.18842840032364497
1926205 -0.9805905351161183 0.18873591625086109
1926597 -0.9810677961166108 0.18869636413097507
1926988 -0.9809680086644081 0.188727666615879
1927379 -0.9811600463933966 0.18913840610934235
1927770 -0.9802465435777855 0.1884840736537336
1928162 -0.9805240470280139 0.1884735886898736
1928553 -0.9813114534188545 0.18906602056977598
1928944 -0.980334482975124 0.18869462046042398
1929335 -0.980464368676871 0.188953494682091
1929727 -0.9802800445897188 0.18867603348114814
1930118 -0.9807221733025022 0.18893336352075132
1930509 -0.9810512599732893 0.188460096923626
1930901 -0.9807940884547598 0.18909372651288192
1930901 -0.9805641582217793 0.1884233606878719
1931300 -0.9803158170257628 0.188676038116298
1931699 -0.9805939739837402 0.18842670931335656
1932099 -0.9805130811915949 0.18893181546266224
1932498 -0.9807937472161935 0.188709762540131
1932897 -0.9804988654873782 0.18872128580596367
1933297 -0.9805056261535942 0.18910323493279205
1933696 -0.9803523375873994 0.18871032517870392
1934095 -0.9802441936461919 0.18905098083498287
1934495 -0.9806791937885723 0.18898134314680032
1934894 -0.9804967525541786 0.18935386353393638
1935293 -0.9803602790952397 0.18911715586708736
1935693 -0.9800802360321047 0.18937612265686007
1936092 -0.9805983375741015 0.18972043339166467
1936492 -0.9803887689746946 0.1895453274400274
1936891 -0.9806546023167504 0.18983545703080096
1937290 -0.9805889169375334 0.1892345277052127
1937690 -0.9805379071243718 0.18940328584862326
1938089 -0.9811319040639113 0.1892815361346377
1938488 -0.9803980651708655 0.1895747703239454
1938888 -0.9809923849944407 0.18991485747062775
1939287 -0.9800551170300031 0.18966506814111705
1939686 -0.9805760317342226 0.18973721651117884
1940086 -0.9809168823114051 0.18987596290367556
1940485 -0.980818665975224 0.1900567626603098
1940885 -0.9810325549836036 0.19026455548183138
1941284 -0.9805828255806517 0.19053301391948893
1941683 -0.9810737554859608 0.1898838539284783
1942083 -0.9804582547562457 0.19000197218027265
1942482 -0.9805374349693835 0.1908399815365472
1942881 -0.9801864126514345 0.18998177554210338
1943281 -0.980287545996872 0.19038056937699616
1943680 -0.979989853771991 0.1902006603361668
1944079 -0.9806690154940558 0.1907442283730717
1944479 -0.9810601508954248 0.1904677973746101
1944878 -0.9808127063254408 0.1902787743954414
1945277 -0.9809523742305422 0.19033942491088837
1945677 -0.9802412776536458 0.1898475123741389
1946076 -0.9801208183459926 0.19027584325301533
1946476 -0.980121945698366 0.1900302215768191
1946875 -0.979453031423875 0.19003801886443464
1947274 -0.9798327184450187 0.190577221160305
1947674 -0.9794477691671936 0.19016613325897933
1948073 -0.9793447967440874 0.19026985483473993
1948472 -0.9787279875804415 0.18979519851013416
1948872 -0.9830221627925095 0.19203147213983798
1949271 -0.9808685167601059 0.19098548073165866
1949670 -0.9809212840328211 0.19134963135291974
1950070 -0.9836930109579892 0.19143233922193872
1950469 -0.9804559418931664 0.1909490400199446
1950869 -0.9808161754289151 0.19105853096395783
1951268 -0.9819011532488147 0.19116543093716745
1951667 -0.9813697239909375 0.1912275234814898
1952067 -0.9812654833692012 0.1917986385755897
1952466 -0.9806736992650561 0.19116849436999125
1952865 -0.9799969170450504 0.191256487401433
1953265 -0.9812465129297366 0.1914170612486507
1953664 -0.9799298717281425 0.19098151094191462
1954063 -0.980278799509381 0.19109978385690773
1954463 -0.9798204119560613 0.19072175561801089
1954862 -0.9799594806230428 0.1911787580805187
1955261 -0.9799588534598327 0.19081109706702748
1955661 -0.9795961762008092 0.1910797701796089
1956060 -0.9802913843353274 0.1912767736892534
1956460 -0.9798445200879038 0.19122363085387148
1956859 -0.9805655904285271 0.19173715522601367
1957258 -0.9804978567272852 0.19207495034467234
1957658 -0.980364560897844 0.1916329341621559
1958057 -0.979990314580143 0.19125724512225792
1958456 -0.9799988332364455 0.19145417141452495
1958856 -0.980417879447274 0.19178028955982818
1959255 -0.9794676468651711 0.191646073889394
1959654 -0.9801090003658897 0.1918659239555924
1960054 -0.9793435270245551 0.1914768795530205
1960453 -0.9805422654754612 0.19151493183354515
1960853 -0.9806463279513046 0.1914032446638472
1961252 -0.9801251947025408 0.19141705412700405
1961651 -0.9804482362734346 0.1915905686894906
1962051 -0.9799947078272346 0.19172016835401695
1962450 -0.9797474480157593 0.19237569347388128
1962849 -0.9793241149148533 0.19151657858619267
1963249 -0.9800347150207196 0.19216834013537132
1963648 -0.9801798215789563 0.19237671199394948
1964047 -0.9798728586909866 0.1921721066715544
1964447 -0.9800099274534748 0.19207499386696594
1964846 -0.9798556593182808 0.19154770443400304
1965245 -0.9801385298837593 0.1924570878696525
1965645 -0.9794866487990996 0.19123515501505067
1966044 -0.9803342996390823 0.19219926973969037
1966444 -0.9803321107821433 0.19197539505783473
1966843 -0.9799922189412381 0.19234506137948432
1967242 -0.9801365238404387 0.19277108602305515
1967642 -0.9795702508624269 0.19206474977120946
1968041 -0.9797304851714741 0.19231177702119126
1968440 -0.979570543408074 0.1919637786610193
1968840 -0.9800006287263088 0.19246141984745696
1969239 -0.9800368291147459 0.1922215872025319
1969638 -0.979738537251653 0.19273458425613038
1970038 -0.9800762794459417 0.19343737594519514
1970437 -0.9795778445959945 0.19297398677824204
1970837 -0.9797588795406845 0.19315550531138498
1970837 -0.9796408460078876 0.19307009968240743
1971244 -0.9799938675996607 0.19302520446239055
1971652 -0.9798521717605376 0.1926165026213858
1972059 -0.9800356026174007 0.1930327122913241
1972467 -0.9797327982513229 0.19213174095770655
1972875 -0.9798132685891752 0.1925284535058296
1973282 -0.9800515234987951 0.19256474267555265
1973690 -0.9794642271709426 0.19303618780029222
1974097 -0.9803468145717685 0.19328528805248987
1974505 -0.979510233854947 0.19357337227846616
1974913 -0.979890315003594 0.19341218748155223
1975320 -0.9797681385477928 0.19323320384870585
1975728 -0.9801022754001982 0.1930289718790198
1976136 -0.9797662099306209 0.1926012575412466
1976543 -0.97981501516615 0.1934909570234337
1976951 -0.9799032954504234 0.19327686910087208
1977358 -0.9796808298947849 0.19349728146695624
1977766 -0.9798297651533014 0.19365778760417496
1978174 -0.9789885799711424 0.19344441786041458
1978581 -0.9799757392633562 0.19364952160823257
1978989 -0.979620627133761 0.19325074468517875
1979397 -0.9798219667471325 0.19332893834109102
1979804 -0.9794447203720872 0.19307368104514783
1980212 -0.9789268916607425 0.19332156851531015
1980619 -0.9798136805829615 0.19387176404150505
1981027 -0.979443333614195 0.19402068234807177
1981435 -0.9797651267584038 0.19455488195287746
1981842 -0.9796112680343785 0.1933939884465724
1982250 -0.9795983603015819 0.1934398204541077
1982657 -0.9797489405271158 0.19331169407823362
1983065 -0.9796184952656064 0.19382014021322583
1983473 -0.9798824564702864 0.1943190736591156
1983880 -0.9795200174265474 0.19398523221737715
1984288 -0.9801318437516154 0.19423402494679926
1984696 -0.9793777278286402 0.19413955612788486
1985103 -0.9800324333992803 0.1942963268838344
1985511 -0.980043411852961 0.19432771365332194
1985918 -0.9797569893452702 0.19437437372901148
1986326 -0.9798391368839866 0.19402734180770012
1986734 -0.979389114053141 0.193705781145897
1987141 -0.9798607291151064 0.1938091097913315
1987549 -0.9793798646003762 0.1936108273966151
1987957 -0.9795281394390805 0.19468944796318335
1988364 -0.9795223912344723 0.1943371701002004
1988772 -0.9793905175618591 0.19449524661661324
1989179 -0.9802458090411862 0.19486613225403246
1989587 -0.9804543112770082 0.1944223979782153
1989995 -0.9803036690712167 0.19470528544579757
1990402 -0.9796015616244058 0.1947223796385231
1990810 -0.9795903376231003 0.1948257209059081
1991218 -0.9790475798164476 0.19463283563525138
1991625 -0.9795216859654321 0.1952671492456957
1992033 -0.978196049120426 0.19433780405962214
1992440 -0.9793563004224133 0.19478616741970672
1992848 -0.9791541456016389 0.19492462968029484
1993256 -0.9793976576325866 0.19518603186476657
1993663 -0.9797631946417503 0.19471395739991681
1994071 -0.9794589561746995 0.19495300333900872
1994478 -0.9797398463372933 0.19547295441685936
1994886 -0.979283939568566 0.1949299181186058
1995294 -0.9792470949157308 0.19485112068129967
1995701 -0.979278740344184 0.1948459312464599
1996109 -0.9791716342570501 0.19527416737940578
1996517 -0.9796969197671098 0.19527760524241014
1996924 -0.9794073608736484 0.19527602020808282
1997332 -0.9798649493670927 0.19565538061171994
1997739 -0.9790831747630269 0.1951888206172987
1998147 -0.9799700200637541 0.19545777305446638
1998555 -0.9798079289514113 0.19539134890055185
1998962 -0.9791813197523684 0.19578382719517287
1999370 -0.9793109538037575 0.19593023748884728
1999778 -0.9790531161900666 0.1959855748129763
2000185 -0.9797717540148034 0.19624696491635263
2000593 -0.9790923586194055 0.19584139877673987
2001000 -0.9793919471816754 0.19631228391910785
2001408 -0.9797486485682246 0.19602686975385572
2001816 -0.9790783871051154 0.19542116212019434
2002223 -0.9793251111316644 0.19566498222873702
2002631 -0.9789702384452872 0.19587634991561242
2003038 -0.9791286403992623 0.19572696528717842
2003446 -0.9786915935968367 0.19584459824836825
2003854 -0.9791447177356579 0.19659117617159708
2004261 -0.979143629512111 0.19595034255394866
2004669 -0.9794493618660496 0.19610550050464146
2005077 -0.9794819078726907 0.19553700247008496
2005484 -0.9793899670773077 0.1962732195688122
2005892 -0.9796443817280298 0.19589130420152057
2006299 -0.9792923137345156 0.19629137056322638
2006707 -0.9796300397837611 0.19656078786739686
2007115 -0.9782665762282865 0.1960268923406433
2007522 -0.9790696322090421 0.19691506879823226
2007930 -0.978806848802254 0.19619446239941063
2008338 -0.9792554242928923 0.1961787369111487
2008745 -0.9795914186709648 0.196108153809551
2009153 -0.9785491488151752 0.19617257948276917
2009560 -0.9792280013694518 0.1962500689039137
2009968 -0.9787475809594877 0.19649490895051186
2010376 -0.979099129441624 0.19729405452481308
2010783 -0.9785702977761664 0.1966797485706855
2011191 -0.9794987532336868 0.1966066712923169
2011599 -0.9794903588654998 0.19712656424778904
2011599 -0.9793621006118777 0.19700570372198248
2012015 -0.9788628899239895 0.19693974340417147
2012431 -0.9795432237106599 0.19730041583554575
2012847 -0.9788413450870895 0.19634496541353033
2013263 -0.9789417916720912 0.1969560844288257
2013679 -0.97880133521546 0.1960903411660576
2014095 -0.9791121002779751 0.19667630528196325
2014511 -0.9793770218330307 0.19713193264149403
2014927 -0.9788800084943594 0.19736048217220623
2015343 -0.979228391912236 0.19704587757299008
2015759 -0.9788535099337606 0.19711595579766686
2016175 -0.9795020499574593 0.1974715555087339
2016591 -0.9791275459150675 0.1967987627110869
2017007 -0.9790092597707046 0.1973101977751502
2017423 -0.9791712102628112 0.19674020368489936
2017839 -0.9791044494645684 0.1971942705525503
2018255 -0.9790946769129921 0.19720173937403424
2018671 -0.9789037107933073 0.19781584069422653
2019087 -0.9789621598594089 0.19774374092858718
2019503 -0.978387727771129 0.19763049240603528
2019920 -0.9791186560153843 0.19750266379120376
2020336 -0.977753672154271 0.19708974278553765
2020752 -0.9786911851964009 0.19747209546142197
2021168 -0.9783105988862156 0.19721859207713233
2021584 -0.9785954435215136 0.19722753410834756
2022000 -0.9786111521049098 0.19749371000289617
2022416 -0.9787644184436318 0.19756710643370842
2022832 -0.9793331855557671 0.19827424603729138
2023248 -0.9787430108900227 0.19814963226358998
2023664 -0.9795816894929108 0.19807279058803903
2024080 -0.9783796361779508 0.1974539111547977
2024496 -0.9783461364577012 0.19749226521816196
2024912 -0.9792050151244516 0.19751067539458264
2025328 -0.9794825348841879 0.19790351923705998
2025744 -0.9792572816570285 0.19802952183983924
2026160 -0.9790317625295144 0.19806756700623615
2026576 -0.979668424040954 0.19847683585832437
2026992 -0.9785068183986785 0.19774026975827314
2027408 -0.9791276718884435 0.1982201710068314
2027824 -0.9784246557221454 0.19777599987690167
2028241 -0.9790373553458019 0.19848045623295846
2028657 -0.9784222306052571 0.1972462911007008
2029073 -0.9787837168979369 0.19800590850687533
2029489 -0.9786202996343822 0.1984258049908826
2029905 -0.9784997450259444 0.19854928830252092
2030321 -0.9789178608392147 0.19906838564834017
2030737 -0.9786103651384809 0.19875715183079498
2031153 -0.9791363925907924 0.1992280935093803
2031569 -0.9785938011044895 0.19828784188631726
2031985 -0.9787027819417866 0.19900292451118556
2032401 -0.9781183414660136 0.198568075894424
2032817 -0.9782231369696979 0.1985504400793424
2033233 -0.9783059764328981 0.19892404101871602
2033649 -0.979027501178752 0.19909788365801806
2034065 -0.9789297913698686 0.1994735416841708
2034481 -0.9793501700447739 0.1992998080926571
2034897 -0.9787325848666373 0.19945475599683585
2035313 -0.9789053841298512 0.19971214200211834
2035729 -0.9781415056357458 0.19873908178353486
2036145 -0.978788412654365 0.19970089142981873
2036562 -0.9786540739614066 0.19905153164177952
2036978 -0.9789145060388137 0.19928697836565837
2037394 -0.9787482210869407 0.1987940019439705
2037810 -0.978683462181143 0.1992863322392032
2038226 -0.9791237136649716 0.19937363329367325
2038642 -0.9786709037364894 0.19919468465980866
2039058 -0.9789150707566131 0.1992005432529623
2039474 -0.9784271391466837 0.19928300144703762
2039890 -0.9786897694358876 0.19963728678684978
2040306 -0.9777166131312464 0.19947985287259948
2040722 -0.9783132301606015 0.19974845185875278
2041138 -0.9775077758855023 0.198955964708619
2041554 -0.9784074470049359 0.19987157507023165
2041970 -0.9791892115031251 0.19978838060873452
2042386 -0.978363749205717 0.20004165451467565
2042802 -0.9784572140725581 0.19950345326744295
2043218 -0.9784489562192626 0.19975654896292705
2043634 -0.9783578918312025 0.2001885111092065
2044050 -0.9775643531056663 0.19974573588175884
2044466 -0.9783988490933185 0.2006072568978916
2044883 -0.9774045737157573 0.19972044178498563
2045299 -0.9785737591638789 0.2004294427348736
2045715 -0.9783005511529901 0.19940858285432522
2046131 -0.978792360753838 0.1995866381330814
2046547 -0.9786862770547211 0.1998051944717931
2046963 -0.9783401769238668 0.1998007989740387
2047379 -0.9781970651693532 0.2002872205603031
2047795 -0.9779512485073388 0.20096555754556406
2048211 -0.9784955553736917 0.2009296127363723
2048627 -0.978303558946739 0.20088607136443137
2049043 -0.9783483681302769 0.20120180382253683
2049459 -0.9776283711566742 0.19968536838450401
2049875 -0.9783961802365373 0.20078848846352537
2050291 -0.9781969061815255 0.20016687190971647
2050707 -0.9779614228251882 0.2008911716687978
2051123 -0.9787174016056426 0.20076918278461406
2051539 -0.9779676157650551 0.20105236090253795
2051955 -0.9787783273569614 0.2012985878038583
2052371 -0.9781810533019101 0.2011085061229228
2052787 -0.9785584760265815 0.20133173851120845
2053204 -0.9776621645984561 0.20017857848014128
2053204 -0.9779735330002085 0.20111412612596435
2053628 -0.9785181801159817 0.20090063177165085
2054053 -0.9780862415757182 0.2008717538419638
2054477 -0.9781872952109382 0.20054133539220934
2054902 -0.9779725798285509 0.20065954143708511
2055327 -0.978441113857794 0.20109861310539634
2055751 -0.9776088029118316 0.20073275715042146
2056176 -0.9784493725459555 0.20127438163845657
2056601 -0.9778371464749064 0.20070841497527914
2057025 -0.9783731154920011 0.20154429933967472
2057450 -0.9784191725175522 0.20040109308997456
2057875 -0.9782999350375111 0.20108220626421228
2058299 -0.9790645443973912 0.20125088138828756
2058724 -0.9781873223548777 0.20145200071744293
2059149 -0.9790481942552417 0.20143497653750622
2059573 -0.9781445986061312 0.20138010852475854
2059998 -0.9788115321249385 0.201749365383172
2060423 -0.9776977432489969 0.20122495419024275
2060847 -0.9785203532962262 0.20218128857878984
2061272 -0.977769929533043 0.20115000749065878
2061697 -0.9781457551414716 0.20198729040693178
2062121 -0.9780221902367465 0.20122348564882045
2062546 -0.9775691023097003 0.20177651717814754
2062971 -0.9782826045918919 0.20191214398991347
2063395 -0.9775458674118588 0.20181182994020733
2063820 -0.9784910256627347 0.20202544680446927
2064245 -0.9781067769732242 0.2019047705419507
2064669 -0.9786814192302274 0.2021653291233972
2065094 -0.9780335147352108 0.20177007152221405
2065519 -0.978339150627903 0.20196030226430256
2065943 -0.9777727284004626 0.20162209657405777
2066368 -0.9782986238542495 0.2019440437869679
2066793 -0.978033085766897 0.20127339540289685
2067217 -0.977630049275945 0.2023655687666939
2067642 -0.9784449130996223 0.20260205885982208
2068067 -0.9777581344083753 0.20224750632753788
2068491 -0.9781074039663487 0.2025920339763136
2068916 -0.977736499229738 0.20192570095316134
2069341 -0.9781658074313873 0.20246090370335032
2069765 -0.9764908751481196 0.20192349585103112
2070190 -0.9772951535831979 0.20253517767548856
2070615 -0.9769904554628216 0.20220762974313167
2071039 -0.9773748020235308 0.20259566301507642
2071464 -0.978706340874396 0.20267790273471525
2071889 -0.978126928758143 0.20242599201351508
2072313 -0.9782049542375129 0.2029627834621397
2072738 -0.9771186073488708 0.20212583444601664
2073163 -0.978224888316149 0.20320181902058929
2073587 -0.9777985524760405 0.20224918385549248
2074012 -0.9782161152835246 0.20305761953539275
2074437 -0.9784413437876512 0.20287699361500264
2074861 -0.9773512517298673 0.20317837103709427
2075286 -0.9776690184785407 0.2030890924881975
2075710 -0.9778207378048301 0.20287536049331936
2076135 -0.9783672032144182 0.20344099029122142
2076560 -0.9769814964379151 0.20270992608339986
2076984 -0.9780920024260412 0.2034902707270853
2077409 -0.9770646075003648 0.20240507120904866
2077834 -0.9780801423249582 0.20328169304146487
2078258 -0.9780382175644493 0.2024461729775342
2078683 -0.9777474178273232 0.2029986659282619
2079108 -0.9783487061999722 0.2032352812154434
2079532 -0.9777964227884222 0.20325918544112917
2079957 -0.9783308236988485 0.2036759446087208
2080382 -0.9776783994756749 0.20296533675344178
2080806 -0.9777618238849927 0.20324977526927973
2081231 -0.9768620019000115 0.20279018236977525
2081656 -0.9773093541718477 0.20363110531670991
2082080 -0.9769482318190681 0.20287450637596663
2082505 -0.9775822481712207 0.2031725474183752
2082930 -0.9776815719253272 0.20295455505786908
2083354 -0.9770159425567938 0.203803364002885
2083779 -0.9779411186972454 0.2042746833128407
2084204 -0.9775031028482389 0.20402547438483598
2084628 -0.9775325390901608 0.20409963898648775
2085053 -0.9770769004644988 0.20382122821243928
2085478 -0.9774527520114621 0.20445606756184004
2085902 -0.9765732419842389 0.2035053729378562
2086327 -0.9774264659357066 0.2043245378031125
2086752 -0.9771433694225162 0.20342016752883002
2087176 -0.9780270098587666 0.2040713852083168
2087601 -0.9780643899906293 0.2038404736143981
2088026 -0.977370143187097 0.20403040680164797
2088450 -0.9778077898308228 0.2043884067900367
2088875 -0.9768426815836082 0.20413084805922968
2089300 -0.9775961238732886 0.2045064195801516
2089724 -0.9769619739052506 0.20459007441686455
2090149 -0.9775466340396997 0.2047432067752636
2090574 -0.9768946772584872 0.20364993265740627
2090998 -0.9779021324697695 0.20439025934768681
2091423 -0.9775555890920633 0.20392775873148056
2091848 -0.977670938855648 0.2045296129430674
2092272 -0.9777344171933336 0.20457511134238965
2092697 -0.9776131533628586 0.20478783706001913
2093122 -0.9774090376194322 0.2048521508748305
2093546 -0.977294144943985 0.2045359029967939
2093971 -0.9777892216135832 0.20484318283680217
2094396 -0.9769746549698657 0.20442904092473851
2094820 -0.9778659046266054 0.20521621860548664
2095245 -0.9775114738483438 0.20462135483070187
2095670 -0.9773474791150802 0.204755510463172
2095670 -0.9778415613795748 0.20499135688237516
2096103 -0.976644508551228 0.20503808175181226
2096536 -0.9770810194771357 0.2055689858581054
2096970 -0.9772478335414454 0.20520282418602645
2097403 -0.9776722315845814 0.2058966087245907
2097837 -0.9774321090591926 0.20414997068931862
2098270 -0.9788077155836957 0.20516938293232279
2098704 -0.9771881143138192 0.20469438781974703
2099137 -0.979490440205206 0.20564716263053756
2099570 -0.9777648367367208 0.20533350528323485
2100004 -0.9744506774348565 0.20468406834281194
2100437 -0.9768365145398871 0.20576308485222633
2100871 -0.9764742602232095 0.2054457578195794
2101304 -0.977483758223647 0.2065520910635077
2101738 -0.9773414631961218 0.20561380188440156
2102171 -0.9762421353017241 0.20546801712772186
2102605 -0.9768050918007619 0.2055942803447158
2103038 -0.9778289348581118 0.20587152377185972
2103471 -0.9763310585021664 0.20543610409258342
2103905 -0.9770693320586914 0.20599570221325245
2104338 -0.9765697726195901 0.2054596080126695
2104772 -0.9770050671853271 0.20588817675457935
2105205 -0.9778470478087947 0.2057461211124374
2105639 -0.9767113932962235 0.20558645763479616
2106072 -0.9775904052331214 0.2057878542932251
2106506 -0.9762625221780902 0.20535172916620797
2106939 -0.9767345427659544 0.2061466954914991
2107372 -0.9762697737457403 0.20605565955695707
2107806 -0.9765097874460127 0.20637350239567118
2108239 -0.975813015307121 0.20597136179755365
2108673 -0.9772349372507338 0.20655639422742123
2109106 -0.9769122783488002 0.20600998143373886
2109540 -0.9773805530110018 0.2063342697684584
2109973 -0.9764789978281946 0.2055068562163834
2110406 -0.9764297862109035 0.2059999556160131
2110840 -0.976788781355446 0.2056249053026446
2111273 -0.9767082267837537 0.2062223193457829
2111707 -0.9773975403532021 0.20670168259004476
2112140 -0.9773088607971991 0.20649828146833438
2112574 -0.9773648698338347 0.20695668021601107
2113007 -0.9765700982781131 0.20653648708246453
2113441 -0.9772814624657654 0.20673254774160726
2113874 -0.9763894402946114 0.206465877891172
2114307 -0.9775729158506592 0.20690401999467503
2114741 -0.9762362361904292 0.20585571844798364
2115174 -0.9772329973609025 0.20713972850024964
2115608 -0.9765760962360867 0.2065936307158734
2116041 -0.977145171625386 0.20775308771566486
2116475 -0.9774221870588435 0.20747630446189302
2116908 -0.9768516481263525 0.2073594269018
2117342 -0.9764546283649264 0.20661323641310028
2117775 -0.9766464751624814 0.20693940130937394
2118208 -0.9769151034669534 0.20619121284815928
2118642 -0.977144224629686 0.2071170051582411
2119075 -0.9776128876130084 0.20696304026340206
2119509 -0.9764701963657368 0.20745253254733959
2119942 -0.9774863094329036 0.2074319787777083
2120376 -0.9768619360827095 0.2071709553137018
2120809 -0.9770797149108539 0.20776584763913086
2121242 -0.9765921027585331 0.20705143478887825
2121676 -0.9770675950791902 0.20761395090706997
2122109 -0.975975088814726 0.2074390902860557
2122543 -0.9766155880493892 0.20792238088096957
2122976 -0.9756781923757021 0.20701645457560874
2123410 -0.9765481980970416 0.20777902645878446
2123843 -0.9763858213219627 0.20762318835371577
2124277 -0.9765894938515389 0.20799037883198807
2124710 -0.9768598878579784 0.20719022373925036
2125143 -0.9766996524686018 0.2073178494474804
2125577 -0.9770235093649932 0.20767541945723209
2126010 -0.976242799511358 0.20788702279422477
2126444 -0.9767531097741801 0.2083659930272671
2126877 -0.97687311974803 0.20809680462966798
2127311 -0.9768856494967478 0.20850587526778994
2127744 -0.9757599143219874 0.20780444428807654
2128178 -0.9769651247972279 0.20793832775850077
2128611 -0.9757049921538443 0.2070632659945241
2129044 -0.9769872214216175 0.20782339064152752
2129478 -0.9766103696523997 0.2074407106644119
2129911 -0.976629039759241 0.207825810450908
2130345 -0.9766597973769365 0.20798586606099795
2130778 -0.9760131520234668 0.20807647625510844
2131212 -0.9767831293151868 0.2084288267217482
2131645 -0.9763490086544668 0.20834751890627223
2132078 -0.9764957468045952 0.20824648894296552
2132512 -0.9766668879470511 0.2080138864208944
2132945 -0.9770534528173287 0.20848286959495715
2133379 -0.9757992912363894 0.20822387235265818
2133812 -0.9767533071599726 0.20903566153807857
2134246 -0.975505860687771 0.20813278316025
2134679 -0.9765193454861526 0.20904284850567872
2135113 -0.9757386135213614 0.20773898791400155
2135546 -0.9763400725198522 0.20868170306914313
2135979 -0.9763358848653251 0.2078888291411789
2136413 -0.9762827816659712 0.20878625614322194
2136846 -0.9766982916098367 0.20844134402638198
2137280 -0.9761951516102989 0.20868510130353865
2137713 -0.9762679018670696 0.20889756895269287
2138147 -0.9761238249685357 0.2085436504490946
2138580 -0.9765310572569489 0.2090569922983814
2139014 -0.9760759592378613 0.20859253888605708
2139014 -0.975733818306938 0.2081426528014851
2139456 -0.9768472960686496 0.20893064861829524
2139898 -0.975929038563472 0.20823099436928577
2140341 -0.9765120574321107 0.2088915422017734
2140783 -0.9761922333775961 0.20856786606589733
2141226 -0.9765108312272271 0.20932126915865
2141668 -0.9767765615355343 0.20896273418803893
2142110 -0.9762396277102414 0.20939610613917284
2142553 -0.9765179539602872 0.20886959292552038
2142995 -0.9762522953327273 0.20923381609473354
2143438 -0.9768381844396365 0.20934928063770405
2143880 -0.9758103029725691 0.20947754261872006
2144322 -0.9766290582463978 0.20920287912752353
2144765 -0.9760012150347562 0.20954814034102817
2145207 -0.9763844915695863 0.20988549923583943
2145650 -0.9754971462347074 0.2092178068102096
2146092 -0.9761811324723757 0.20992284733097044
2146534 -0.9761699184666982 0.20949361962564028
2146977 -0.9764622268963685 0.21010505514692254
2147419 -0.9761788390035544 0.20917368502202405
2147862 -0.9764241441817452 0.20996302134726558
2148304 -0.9757649236276383 0.209820261085611
2148747 -0.976411465599809 0.21046189876229357
2149189 -0.9752452031504903 0.21067330855466015
2149631 -0.9762438183941967 0.2106848972329248
2150074 -0.9749216633824213 0.20959993548416675
2150516 -0.9765917369650903 0.2101177920451915
2150959 -0.9757212181124523 0.20935114904396454
2151401 -0.9763190671435187 0.21043464590963226
2151843 -0.9757253191351776 0.20985490081593208
2152286 -0.976069777693156 0.21065098817558986
2152728 -0.975400049529922 0.20976676606965888
2153171 -0.975564419099517 0.21083077979078343
2153613 -0.9758120190256669 0.21014894587444496
2154055 -0.9760294138885394 0.21106488280976196
2154498 -0.9763893911075705 0.21041432431871115
2154940 -0.976005030298896 0.210621189159217
2155383 -0.9764184168685979 0.21020162956137864
2155825 -0.9756537322112265 0.21082059698781971
2156267 -0.9761912503102034 0.2108117014121938
2156710 -0.9753802761323187 0.21061727800834198
2157152 -0.9763439493612239 0.21111533335730534
2157595 -0.9755539140268484 0.21009445298757073
2158037 -0.9760718726352517 0.21035628079865962
2158480 -0.975798050277078 0.2103302241615599
2158922 -0.9759590149648244 0.2108531951772257
2159364 -0.9757278219010198 0.21099031994402748
2159807 -0.975729934088633 0.2108572111010048
2160249 -0.9759278870117638 0.2115048060409104
2160692 -0.9757276044617058 0.21095319202188115
2161134 -0.9758360991186872 0.2115998878129519
2161576 -0.9752731662605223 0.2108953364146389
2162019 -0.9762357991497111 0.21151993226714227
2162461 -0.9754236116774384 0.21075594128012648
2162904 -0.9762136659298875 0.2115605528821934
2163346 -0.97519107271481 0.21105382721727747
2163788 -0.9759727505946382 0.21189043519761833
2164231 -0.9754905321037133 0.21109126723229585
2164673 -0.9758344923126956 0.2116568470624365
2165116 -0.9759120297856222 0.21123652384064595
2165558 -0.9755862006927297 0.21150433101479688
2166001 -0.9762822552925199 0.2113670795764807
2166443 -0.9753778155795332 0.21140805318005668
2166885 -0.9759226741672499 0.21149942353453813
2167328 -0.97527020327285 0.21158086532736406
2167770 -0.9756286470520319 0.21170762675834295
2168213 -0.9757556224138908 0.21144024059232736
2168655 -0.975734884140475 0.21248516770889764
2169097 -0.9752435956449264 0.21191500081274817
2169540 -0.9759268163016325 0.2122709705402128
2169982 -0.9754036659424107 0.21170331961754418
2170425 -0.9759113733764961 0.21236582595708386
2170867 -0.9749920003214145 0.2117576393416568
2171309 -0.9757851375518596 0.2123516539611099
2171752 -0.9749809440262404 0.2117730767936718
2172194 -0.9753324041046214 0.21223388596434264
2172637 -0.9756205419066847 0.21139498055222436
2173079 -0.9754581187302052 0.21195556597368484
2173521 -0.9756960838350761 0.21187134381100728
2173964 -0.9756456242979372 0.21242735327622816
2174406 -0.976015635484915 0.2124695214976007
2174849 -0.9750619031763188 0.21225019647062282
2175291 -0.9756997409065546 0.21276597802422875
2175734 -0.975104944069337 0.21201792346645745
2176176 -0.9755558056886895 0.2131458032673028
2176618 -0.9751395934606358 0.21235403248566848
2177061 -0.975798303683906 0.21278846305907684
2177503 -0.975265193439656 0.21241671137977197
2177946 -0.9756217510369681 0.21322374823676388
2178388 -0.9749803181022347 0.21271165607723752
2178830 -0.9753090004206075 0.21300627840175393
2179273 -0.9745780325801168 0.2119164551811815
2179715 -0.9749677644038639 0.21318160560880633
2180158 -0.9752734648796515 0.2127810546265279
2180600 -0.9757205443137867 0.21310223749708054
2181042 -0.9757081094519233 0.21266906588297438
2181485 -0.9748870181971223 0.2128967960994883
2181927 -0.9754671638490238 0.21319187097987133
2182370 -0.9747249787662229 0.21327047120371567
2182812 -0.9756283853259095 0.21379283750804462
2183255 -0.9749332351296616 0.2134776103592807
2183255 -0.9754053839203113 0.21364684908079037
2183706 -0.9757841861177751 0.21323387515926764
2184158 -0.9753514564197553 0.21322239361186815
2184609 -0.9760024402066892 0.21344619885208807
2185061 -0.9751312447548988 0.21312425311701777
2185512 -0.9754322080011184 0.2141373568021863
2185964 -0.9752304336495965 0.2130531926500679
2186415 -0.9755807746233913 0.21385095225273854
2186867 -0.9756161539404945 0.21336029298580045
2187319 -0.9759601599410447 0.21441340068128603
2187770 -0.9753583821481547 0.21352249688388664
2188222 -0.9756136626525683 0.21441765211175348
2188673 -0.9745610163744104 0.21339756575191302
2189125 -0.9750984685663505 0.2137813984442098
2189576 -0.9742171404850907 0.21344546612330964
2190028 -0.9752311296392894 0.21428032850743092
2190479 -0.974537804206879 0.21355165298297496
2190931 -0.9758415052416278 0.2145560004911923
2191383 -0.9747960717525548 0.21399649880085067
2191834 -0.9755701396673384 0.21436196787057044
2192286 -0.9746680483289841 0.21393993411485465
2192737 -0.9748590564054029 0.21451848053868652
2193189 -0.9745400674963636 0.21378055762301523
2193640 -0.9750026226552494 0.21455504676217146
2194092 -0.9752665325103009 0.21393689227812088
2194544 -0.9750293502424742 0.21458688356461508
2194995 -0.9759756294450493 0.21441223138621315
2195447 -0.9753282408805561 0.21473304902809093
2195898 -0.9755491217818955 0.21434130262905338
2196350 -0.974658687814888 0.214282872379765
2196801 -0.9751599539140252 0.21387044272273142
2197253 -0.974889173129192 0.21456508189701665
2197704 -0.9754637149110212 0.21500698404552254
2198156 -0.9752675889210565 0.21462816920895897
2198608 -0.9759417384631415 0.21506883654823136
2199059 -0.9750775694221596 0.21445752968995002
2199511 -0.9757846219875674 0.2154349707957366
2199962 -0.9747402463850009 0.21477836353577281
2200414 -0.9750630510021184 0.21546011601319828
2200865 -0.9742291880065963 0.21491147512863332
2201317 -0.9746866770278759 0.21597306974295255
2201768 -0.9743846154427394 0.21553648223795505
2202220 -0.9752530847389297 0.21581037502442454
2202672 -0.9749708117392345 0.21511262554740207
2203123 -0.975339244300802 0.2157665883625783
2203575 -0.9740250492627033 0.2145385226842711
2204026 -0.9747274459558385 0.2154412043323569
2204478 -0.9741977861817407 0.2150267873438913
2204929 -0.9752398748046788 0.21551302555648744
2205381 -0.974470996991224 0.21473033085312193
2205833 -0.9753172623033608 0.21569233183725625
2206284 -0.9753126960560932 0.2145203509790497
2206736 -0.97452062178229 0.2154461026962599
2207187 -0.9747121182553526 0.21577471464669493
2207639 -0.9745065239173011 0.2154941121457817
2208090 -0.9751850283257169 0.21619560704050209
2208542 -0.974773885435322 0.21585458234200716
2208993 -0.9749491677132187 0.21654799240781686
2209445 -0.9743925758209855 0.21584589918206254
2209897 -0.974648407222925 0.21638394984523965
2210348 -0.9742934582052308 0.2158096015864385
2210800 -0.9751588850917239 0.21623849029228098
2211251 -0.974356162971182 0.215310327863587
2211703 -0.9753361123244465 0.21632438716157676
2212154 -0.9743428251153332 0.21593332451449587
2212606 -0.9754655998743629 0.21640869894947803
2213057 -0.9747676909232847 0.21605934021874498
2213509 -0.9752414515462134 0.2164352172208399
2213961 -0.9742096770788844 0.21620951722645695
2214412 -0.9745002350413756 0.2163129987251809
2214864 -0.9742017564778994 0.2158783149900516
2215315 -0.9748270860591947 0.21704562597564847
2215767 -0.9745845069594841 0.21646235805237202
2216218 -0.9746574134028547 0.21773396444007587
2216670 -0.9750344928889142 0.21663961838615606
2217122 -0.9742985823457097 0.21687450895477534
2217573 -0.974955805164108 0.21647094181438664
2218025 -0.9743325018430871 0.2162985535569287
2218476 -0.9746836404681997 0.21596918120611994
2218928 -0.973751128020105 0.2163271774499247
2219379 -0.9745840169175722 0.2165453421192715
2219831 -0.9742223680672512 0.21656695160286837
2220282 -0.9752740238894433 0.21718834489858851
2220734 -0.9744097673464653 0.2167907394246796
2221186 -0.9748595545351036 0.21760301229827408
2221637 -0.9737547213173909 0.21648499689491774
2222089 -0.9748905722689881 0.2175831312368087
2222540 -0.973736952105745 0.21650437416085136
2222992 -0.9743135305570212 0.21733786647084147
2223443 -0.974083849142535 0.2162186776625991
2223895 -0.9746525961004747 0.21686715535756057
2224346 -0.9737428021620111 0.21687063748521337
2224798 -0.9748140508254137 0.21770382173759914
2225250 -0.9739370325664806 0.21691262271102155
2225701 -0.9744786105128573 0.21752554484085226
2226153 -0.9732960328656278 0.2167410330672409
2226604 -0.9744750442340897 0.21777192690163594
2227056 -0.9741274407606747 0.2168922825197274
2227507 -0.9742970824528893 0.21813846110197174
2227959 -0.9747430926926072 0.21772707596836263
2228411 -0.974550231734125 0.21818412999920642
2228411 -0.9750529916885746 0.2178526374225222
2228871 -0.9740199749718637 0.21723622286226998
2229332 -0.9742943944696689 0.21727023690645564
2229793 -0.9739646274703878 0.2169057244731174
2230254 -0.9749324535064324 0.21816573950310308
2230715 -0.9740803323212459 0.21734642050755165
2231176 -0.9749152422632278 0.21847777153241163
2231637 -0.9739727204451952 0.21764670595480057
2232098 -0.9748683597972176 0.2185477013786345
2232559 -0.9734422506543798 0.2176226563879299
2233019 -0.9744200957444982 0.21816617635514415
2233480 -0.9734527989401293 0.21736695063403308
2233941 -0.9737146490006199 0.21843812810745
2234402 -0.9739230215240564 0.21822947668529544
2234863 -0.9743706460250494 0.2191841673573916
2235324 -0.9742098756099583 0.21857529891393732
2235785 -0.9745021903421927 0.21888445410425614
2236246 -0.97395474752908 0.21791465907967436
2236707 -0.9746384643186786 0.2183860736051601
2237167 -0.9735248481007891 0.21798726270888724
2237628 -0.974211900966655 0.2187683478059726
2238089 -0.9737685473412168 0.21835193205298145
2238550 -0.9745528816998668 0.21879607811985316
2239011 -0.974051250487572 0.21846656748846718
2239472 -0.9750653100671561 0.2188497783621907
2239933 -0.9742786472250917 0.21810738127845142
2240394 -0.9744989844649518 0.2187043418438436
2240855 -0.9738724550071134 0.2180223656788113
2241315 -0.9747586217796304 0.2190145351940192
2241776 -0.9737871611246862 0.21854065856609123
2242237 -0.9748328060954099 0.21945894410041966
2242698 -0.9745309026870472 0.2190902336389318
2243159 -0.9747239507176285 0.21954721848891887
2243620 -0.9742983773070095 0.21834956470179087
2244081 -0.9741956446856239 0.21885953034981812
2244542 -0.9740233883089348 0.21850334614758066
2245003 -0.9738129996985331 0.21954618785627086
2245463 -0.9736954977339256 0.2192218174944998
2245924 -0.9733822504727176 0.22018052997108536
2246385 -0.9745254176017127 0.2192098514184871
2246846 -0.9744061191061211 0.21970987640938372
2247307 -0.9739871549570439 0.2188059557646083
2247768 -0.9730937528731243 0.21961602858482326
2248229 -0.9742263637209182 0.21917457344505004
2248690 -0.9741720183124335 0.21990327715459507
2249151 -0.9719214843726325 0.21902192678689494
2249611 -0.9744272767702689 0.22027258516569162
2250072 -0.9742540486032993 0.220148018985611
2250533 -0.9743079133125323 0.2207366545020539
2250994 -0.9750053183502353 0.21975907312609377
2251455 -0.9744797768631803 0.2207343459389563
2251916 -0.9736706087378321 0.21961943528699168
2252377 -0.9746378292325052 0.22035609144917356
2252838 -0.9740995081140996 0.22027812549929707
2253299 -0.974966132659242 0.22055104524911925
2253759 -0.9739551366392903 0.21970763558569245
2254220 -0.9743117484106412 0.22035400108523287
2254681 -0.9735753690837142 0.21976475242377483
2255142 -0.9739846745495516 0.2204948457992781
2255603 -0.9735138401322636 0.22022269380257867
2256064 -0.9737088988642459 0.22088189078919826
2256525 -0.9729876672640453 0.2202640354500876
2256986 -0.97361144399888 0.2208574344049422
2257447 -0.9727987931744732 0.220459154976205
2257907 -0.9735399929806293 0.22047452132753656
2258368 -0.9727343262604107 0.22009156231809032
2258829 -0.97426221895853 0.22101037051068995
2259290 -0.9734612143287831 0.22019439261380086
2259751 -0.9738574645001307 0.22128544021093116
2260212 -0.9730374215006569 0.22089049531695598
2260673 -0.9740988871587587 0.2215417954992092
2261134 -0.9735916055800093 0.2205117077183593
2261595 -0.974302376200736 0.2216357996078671
2262055 -0.974003013468939 0.2208717254058789
2262516 -0.9742820227357443 0.22125982949517792
2262977 -0.9732797990442896 0.22054801918380348
2263438 -0.9741271170468337 0.22127991110718068
2263899 -0.9729144143798633 0.22099055505245924
2264360 -0.9733343525238062 0.22107179635789384
2264821 -0.972500918609745 0.22072055882151503
2265282 -0.9731733313982359 0.22109729063330485
2265743 -0.9730926794197037 0.22059161033262678
2266203 -0.9737032586081779 0.22150936255131423
2266664 -0.9731884290742738 0.22078783423383203
2267125 -0.973511524516684 0.2213880699648979
2267586 -0.973006929889648 0.22073919522607555
2268047 -0.9732313461957701 0.22206768171228758
2268508 -0.9728778845767558 0.2216074895174733
2268969 -0.9736558601815792 0.22206649241319776
2269430 -0.9726554282603416 0.2217213606017414
2269891 -0.9730605330840278 0.2218239646381986
2270351 -0.9727507421354179 0.22114333595264182
2270812 -0.973110457200715 0.22155900112493843
2271273 -0.973075399469981 0.22126591541551446
2271734 -0.9737708089718347 0.22185487807473275
2272195 -0.973251864930759 0.22163621566637592
2272656 -0.974080043675109 0.22237639178913843
2273117 -0.9730267898638217 0.22166200095101368
2273578 -0.9733751162130974 0.22234730534820482
2274039 -0.9730575471954028 0.2215210027538005
2274500 -0.9734857168678895 0.22203640590993753
2274500 -0.9728502025603921 0.22166157809615078
2274970 -0.9732057248799899 0.22207850918035962
2275440 -0.9727734788539423 0.22201649693015088
2275911 -0.973138532969266 0.22206667487077905
2276381 -0.9730233721196162 0.2218046957232259
2276852 -0.9736541184656622 0.22223387743316936
2277322 -0.9731169506975498 0.22193443515450775
2277793 -0.9739952393569216 0.2219373003509468
2278263 -0.9735747359334747 0.2218898457110712
2278733 -0.9737307553385259 0.22248079353142275
2279204 -0.973006032158379 0.222380847971471
2279674 -0.9735954094435014 0.22281241155832554
2280145 -0.9733026579700116 0.22251498930586847
2280615 -0.9737130145796286 0.22265773907923328
2281086 -0.972708806661553 0.22248642345761938
2281556 -0.9735180355862699 0.2226968850567279
2282026 -0.9730762730974801 0.2225918434894881
2282497 -0.9737805848832791 0.22314196635349484
2282967 -0.9734177978284358 0.22269122778536418
2283438 -0.973708550574541 0.22369342717887422
2283908 -0.9729089458036452 0.22322239155386492
2284379 -0.9735787518100703 0.22367432694575304
2284849 -0.9727243062999095 0.22304522934152782
2285319 -0.9732888504857438 0.22336735508920597
2285790 -0.9728543602643237 0.22306223103279732
2286260 -0.9734519216480244 0.22303742405189458
2286731 -0.9725106961477287 0.22341354097941707
2287201 -0.9733282467126547 0.22375196959304094
2287672 -0.9726866355984128 0.22330447680385895
2288142 -0.9739957796540913 0.2237939380036614
2288612 -0.9728344567780296 0.22360311467620264
2289083 -0.9740000524646484 0.22395232627356226
2289553 -0.9731132856647463 0.2232580813527038
2290024 -0.9733101245098492 0.22382732968674163
2290494 -0.9725152661866457 0.2234872590300412
2290965 -0.9732416993361591 0.22410925249761268
2291435 -0.9727801707433181 0.22391730513897487
2291905 -0.9731985818111859 0.22408507108248646
2292376 -0.9725951369335035 0.2239823834840482
2292846 -0.9732199342027826 0.22415470338550464
2293317 -0.9728693869004416 0.22391048563832935
2293787 -0.9735583301899425 0.22383793169286545
2294258 -0.9728782425371205 0.2242849271526207
2294728 -0.9732170329792588 0.22445512885246016
2295198 -0.9726324558497129 0.22441610191241548
2295669 -0.973142921709319 0.22447208954825945
2296139 -0.9722969070034742 0.22438524369931984
2296610 -0.9731610031403866 0.22436937292409606
2297080 -0.9725348778877831 0.2244306213318287
2297551 -0.9727054727192445 0.2243139471919081
2298021 -0.9722191769341715 0.22449929795456283
2298491 -0.9733664885562442 0.22439723041236315
2298962 -0.9726903128920042 0.22466536396344353
2299432 -0.9727089310480823 0.22470123042555543
2299903 -0.9716973134742561 0.22431972910431622
2300373 -0.9723407222908633 0.22464524800597613
2300844 -0.9715948774820646 0.22413642563040706
2301314 -0.9723726369006955 0.22421829410635793
2301784 -0.9716631362942343 0.2243201518597687
2302255 -0.9725180969083856 0.22441261439101512
2302725 -0.9718770570874418 0.22461229271813093
2303196 -0.9725511717979645 0.22487348107545768
2303666 -0.9719893508661972 0.22412764725964848
2304137 -0.9734166737769366 0.22482007935030798
2304607 -0.9721931503700424 0.22458522550051063
2305077 -0.9730921604245268 0.22510029467608808
2305548 -0.9718284623140915 0.22492273391463574
2306018 -0.9721503067227036 0.22531962613920817
2306489 -0.9716595930749101 0.22508320073005403
2306959 -0.9723566057973336 0.22602288458630176
2307430 -0.9721109297517397 0.22524554534937283
2307900 -0.9728470283367675 0.22580306030527417
2308370 -0.9723366184731373 0.22555560355216855
2308841 -0.9730150478624465 0.22568889509780257
2309311 -0.9727482076483797 0.22543835312577074
2309782 -0.9736040978147743 0.2257561438866169
2310252 -0.9729156750411372 0.22566476562876892
2310723 -0.9734429842853902 0.22602623832689528
2311193 -0.9727141425338433 0.2261539695770877
2311663 -0.9731822949257165 0.2263633385102356
2312134 -0.9723610670573747 0.2256207101028034
2312604 -0.9728134218011087 0.22515348120940137
2313075 -0.9719493209543695 0.2249772170044433
2313545 -0.9726366797516772 0.22513183067284345
2314016 -0.9722875475321087 0.2258422510075604
2314486 -0.9726461168108868 0.22609138607370152
2314956 -0.9723949122284286 0.2262510471453426
2315427 -0.9727891735074612 0.22612583112268209
2315897 -0.9728840129541148 0.22643129131956813
2316368 -0.9730583945637039 0.2266031070210998
2316838 -0.9724709717575852 0.22648632463815732
2317309 -0.972515129924832 0.2262512096991931
2317779 -0.971880932912503 0.22628727673997148
2318249 -0.972628563553123 0.22646951231971482
2318720 -0.9720214815260384 0.22645458209641448
2319190 -0.9721838231379317 0.22616114887738753
2319661 -0.9719687801298134 0.22662489408911937
2320131 -0.972255378176821 0.22629901594127969
2320602 -0.971961429034316 0.22687238730258844
2321072 -0.9725233851009919 0.22613642586729826
2321543 -0.9721711978009493 0.22704872613874116
2321543 -0.9725122289363737 0.2269606155862193
2322023 -0.9714233838313612 0.22576983331296735
2322503 -0.9717963607615816 0.22718566748046382
2322983 -0.9708934887278068 0.2258893925851486
2323463 -0.9719292513612832 0.2272175843181626
2323943 -0.9715557806250829 0.22639436137397134
2324423 -0.9723185225781139 0.22721148742610983
2324904 -0.9717235552845496 0.2267957521319803
2325384 -0.972382835242175 0.22752510607777257
2325864 -0.9716425472637269 0.22684135007873457
2326344 -0.9724727636233343 0.22730783252196224
2326824 -0.9715884281779312 0.22697957528019067
2327304 -0.9720272496244353 0.22684653331666874
2327785 -0.971685826673203 0.22697713778132864
2328265 -0.9725262946669029 0.22727621971137416
2328745 -0.972142482808126 0.22735525425108732
2329225 -0.9729628078944642 0.22736845893910654
2329705 -0.9719199376404467 0.2274706602069206
2330185 -0.9720691968486572 0.22740544027387918
2330666 -0.9718388845664907 0.22806872181456225
2331146 -0.9719938361232222 0.22752215718927019
2331626 -0.9715188728009289 0.227417226735234
2332106 -0.9726127131502165 0.22705418823731052
2332586 -0.9721486626327182 0.2274847652223524
2333066 -0.9724480023187615 0.22732402486598982
2333547 -0.9722707246503973 0.22803935915535395
2334027 -0.9719643582940645 0.22775767724088122
2334507 -0.9721910620843702 0.2280215120606782
2334987 -0.9721580238816395 0.22795427941635402
2335467 -0.9724668821973018 0.228691391807085
2335947 -0.9720052890426258 0.22806762859571386
2336427 -0.9725520148597852 0.22832250273141613
2336908 -0.9713560572668887 0.22682252267324732
2337388 -0.9722072055245564 0.22788808354351425
2337868 -0.9714525390919395 0.2275107339580461
2338348 -0.9716569614239384 0.22895109403567493
2338828 -0.9711972554122544 0.22786477467753868
2339308 -0.9721177921772821 0.22917546185158882
2339789 -0.9715461136039537 0.22801339865022394
2340269 -0.9727872821163439 0.22932155919203165
2340749 -0.9719473321181885 0.22807723961935758
2341229 -0.9723382624349209 0.22879493625036004
2341709 -0.9704082341606066 0.22770729427779346
2342189 -0.9718874940374768 0.22904197639893906
2342670 -0.9712642892164302 0.228486529163571
2343150 -0.9717542384474053 0.22880570047812052
2343630 -0.9717267716039356 0.2287548786205602
2344110 -0.972312155804653 0.22930209423356865
2344590 -0.9722722797841685 0.22899496813726375
2345070 -0.9723575958432601 0.2295898231013386
2345551 -0.9719376103877263 0.22885518518393033
2346031 -0.9720353105073968 0.22964433381664812
2346511 -0.971334493747974 0.22858479230173828
2346991 -0.9718521609109321 0.2292548238929504
2347471 -0.9710054060305585 0.22814515022597862
2347951 -0.9719975491801609 0.22881662415885923
2348431 -0.9704197440959947 0.2278493350763272
2348912 -0.9722099354481767 0.22939821727592624
2349392 -0.97114422892399 0.22874555689210388
2349872 -0.971997301287127 0.2296830837817944
2350352 -0.9708534370523205 0.2295843745989369
2350832 -0.9721335171455551 0.2303268684817057
2351312 -0.9713463179698967 0.23010681660877844
2351793 -0.9724089698289953 0.23036000886864239
2352273 -0.9716921795385254 0.22991952572223634
2352753 -0.9717724440886862 0.22996128626299406
2353233 -0.9710965240064321 0.2295746786412888
2353713 -0.9720993429891732 0.22946313970670967
2354193 -0.9713148754047406 0.2298426442270057
2354674 -0.9717926694360137 0.22993379749725498
2355154 -0.9717191372258075 0.23010753296237457
2355634 -0.9720055577883827 0.230077515760015
2356114 -0.971770289279924 0.2301881565404221
2356594 -0.9716568998410284 0.22993226929731
2357074 -0.9713000677231155 0.23023207062428827
2357555 -0.9708805095821391 0.23062689985417406
2358035 -0.9709593804446158 0.2308057601885634
2358515 -0.9705479584671756 0.2302548925834783
2358995 -0.9708306427900736 0.23027800090535763
2359475 -0.9710257010520675 0.23012416469896368
2359955 -0.9710787735222741 0.2305888854759095
2360435 -0.970854057834816 0.23073973827914923
2360916 -0.9712826702104732 0.23104654202230687
2361396 -0.970764582518593 0.23062120245897322
2361876 -0.9712830870790516 0.2314420322885836
2362356 -0.9706114756665613 0.23093127102127103
2362836 -0.9709113248815802 0.23136141973271482
2363316 -0.970421875023035 0.23024007782506886
2363797 -0.9707948506182397 0.23072071925948376
2364277 -0.9701992289933176 0.2295447183370112
2364757 -0.9709941443483892 0.23068539378441533
2365237 -0.9709684900227329 0.2299875303708202
2365717 -0.9717798875539587 0.2310172418945415
2366197 -0.9707266231160372 0.2304997777582555
2366678 -0.9716637479938939 0.23091985856098504
2367158 -0.9707052692241529 0.23097361831407093
2367638 -0.9714131661783996 0.23106394953399398
2368118 -0.9701194725672152 0.23055999796035126
2368598 -0.9707218993325631 0.23137104831941568
2369078 -0.9699586538221179 0.23126224827381933
2369559 -0.9709808847678078 0.231486962819232
2369559 -0.9711380585596755 0.23153763352319498
2370049 -0.9705840339960958 0.2309837806215658
2370539 -0.97147987435054 0.2307341423131872
2371029 -0.9710992807401916 0.23164556878443804
2371519 -0.97131860430777 0.23139404455922047
2372009 -0.9713032891075716 0.2318740391809266
2372499 -0.9707605728074545 0.23153899154876256
2372989 -0.9711776239334052 0.2320518272730446
2373479 -0.9705041256813804 0.23103764693084491
2373969 -0.9710693720169324 0.23197428027312617
2374459 -0.9700198650144757 0.23086610534055996
2374949 -0.9708218060336379 0.23139256324334745
2375440 -0.9701250382738118 0.23065216729535298
2375930 -0.9711983088256886 0.23158019050961173
2376420 -0.9701582345428923 0.23120558525728566
2376910 -0.9717737589103668 0.23230292243890735
2377400 -0.9706158746009863 0.23208532995954986
2377890 -0.9717369779620612 0.23235163677017717
2378380 -0.971272932924076 0.23217787439108054
2378870 -0.9708730541542424 0.23204290889842377
2379360 -0.9706822417745361 0.23231920617042817
2379850 -0.9702557977901493 0.231589660142629
2380340 -0.970806105824739 0.23238733509119455
2380831 -0.9707236696348472 0.23195995913753661
2381321 -0.9709105758011519 0.23262614544304508
2381811 -0.9706118510103344 0.231806923855305
2382301 -0.9715320964146108 0.2329048667527643
2382791 -0.970798366576536 0.23196988664932203
2383281 -0.9714756389351731 0.233154134081786
2383771 -0.9703550717442214 0.23260533197565209
2384261 -0.9709423171469207 0.23300051738257005
2384751 -0.9698820749623724 0.23240868954959293
2385241 -0.9709922131492297 0.23309485789336118
2385731 -0.9705903878112778 0.23275026147416156
2386222 -0.9706671805806268 0.23287506576239098
2386712 -0.9704210264401353 0.2331366794766147
2387202 -0.970740122934634 0.23300313888668805
2387692 -0.9708322755669132 0.23362305081872922
2388182 -0.9711003272619431 0.2329675138039619
2388672 -0.9710971621560791 0.23396827949536472
2389162 -0.9702830691408029 0.23271217568656444
2389652 -0.9702964370129713 0.23340344144648026
2390142 -0.9697007176120612 0.23213231676133786
2390632 -0.9705484376584219 0.23286343871181467
2391122 -0.9697546999237228 0.23223345795470546
2391613 -0.9709475085753237 0.23283840774352252
2392103 -0.969996653325107 0.23245567343536247
2392593 -0.9708097838852288 0.23330336369117288
2393083 -0.970169219845188 0.2330571490373118
2393573 -0.9706298108042138 0.23357496816006576
2394063 -0.9707548928679856 0.2335720104093758
2394553 -0.9703987482896625 0.23370329122006991
2395043 -0.9698799783219233 0.23275807794935577
2395533 -0.9702937231192258 0.2334145105471321
2396023 -0.9699803935411035 0.2325678381151297
2396513 -0.9703596977301472 0.23361390876129107
2397004 -0.9703994043349552 0.23251165627675827
2397494 -0.9699529072065571 0.23328202289892438
2397984 -0.9706140920647893 0.23306591296922238
2398474 -0.9702422035692896 0.23392239789782027
2398964 -0.9697223553356317 0.23438851406448485
2399454 -0.9696674004833079 0.2339590843739883
2399944 -0.9682374063784209 0.23389031281687037
2400434 -0.9700184596216676 0.234305044373696
2400924 -0.9681132760289329 0.2344456613894645
2401414 -0.9701877545313672 0.234436546051179
2401904 -0.9707232357301571 0.23385037491012875
2402395 -0.9701449888718697 0.2345647526504593
2402885 -0.9705941132591638 0.2352174981454214
2403375 -0.9702961291324149 0.2346097130144111
2403865 -0.9703023937510606 0.23476459957723417
2404355 -0.970572698092733 0.2346082973901797
2404845 -0.9704966456896674 0.2349236126390665
2405335 -0.9705463862028894 0.23495329637435064
2405825 -0.9705039797016642 0.23574886355936378
2406315 -0.9697077501846976 0.23416268902247447
2406805 -0.9706450599787632 0.2349153703211668
2407295 -0.9697124055619045 0.23350070848299997
2407786 -0.9708026878870958 0.23478666593104713
2408276 -0.9697079365637272 0.23451464694121593
2408766 -0.9706725710694384 0.23471038113055145
2409256 -0.9693257078005756 0.23461539825715344
2409746 -0.9705246527191294 0.23560283854699568
2410236 -0.9697127364245547 0.23583039877480036
2410726 -0.9704676129054461 0.23547794327055158
2411216 -0.9696205249536569 0.23502028284205945
2411706 -0.9696034687360673 0.23503125214498655
2412196 -0.9695313486358845 0.2349377922230484
2412686 -0.9691877562732388 0.2348379715629068
2413177 -0.9696944127953516 0.235355273103506
2413667 -0.9697610261045737 0.23510587962862037
2414157 -0.9701081089953262 0.23546673718716674
2414647 -0.9702440939099207 0.23541578598610752
2415137 -0.9705222204555579 0.23635310639579468
2415627 -0.9703568851475838 0.23509140193120887
2416117 -0.9702425901374339 0.2359057445105092
2416607 -0.9692841528065832 0.23458491631451467
2417097 -0.9696973829814218 0.23574537057313977
2417587 -0.969109819647679 0.2349592069658005
2418077 -0.9701052216954327 0.23538046419205091
2418568 -0.9687171735932907 0.23538129802940552
2418568 -0.9698293331014982 0.2355477446615209
2419068 -0.9698575546117965 0.23661823785890054
2419568 -0.9697178682299755 0.2354689081816549
2420068 -0.9701047303197728 0.23686869052713436
2420568 -0.9691362371888719 0.2358294052786789
2421069 -0.9699612366665614 0.23693459431439273
2421569 -0.9696433233205611 0.23644352136718466
2422069 -0.970334205583328 0.23690335896663317
2422569 -0.9698124782412227 0.23660054064282277
2423069 -0.9706930933031619 0.2366978514246858
2423570 -0.9701460755926 0.23691498572867611
2424070 -0.9698141100271979 0.23702052498352683
2424570 -0.9695950486609178 0.23734998194174212
2425070 -0.9693395308895009 0.23648632279686682
2425571 -0.9696001821985314 0.23725325751699516
2426071 -0.9695401808086243 0.23600936685170473
2426571 -0.9694969474847158 0.23656371900694162
2427071 -0.9689288305083114 0.23572311765136048
2427571 -0.9695849561923396 0.2363666482640096
2428072 -0.9684674356470377 0.23602075772210449
2428572 -0.9694722761763231 0.2368156415642035
2429072 -0.9692474003439859 0.23670874173347412
2429572 -0.9701324972345756 0.23685803909812064
2430073 -0.9691275810468373 0.23683818630509582
2430573 -0.969882664174682 0.23666978649081644
2431073 -0.9698051127919587 0.23679221245613177
2431573 -0.9698859261229997 0.23739892576933228
2432073 -0.9699090010710656 0.2373627332825822
2432574 -0.9698966276659645 0.23736454623161166
2433074 -0.9700218723443877 0.2381296105680963
2433574 -0.970383329672175 0.23756617887065606
2434074 -0.969950451683619 0.23796006680254808
2434575 -0.9690907465144931 0.23707014571632173
2435075 -0.969600561488207 0.23757140966045423
2435575 -0.9684622308069166 0.23742021767570362
2436075 -0.9693421933462429 0.23774806063875792
2436575 -0.9688966947490895 0.23761533196042942
2437076 -0.9695811527135045 0.23754667353978787
2437576 -0.968537433123975 0.2369567406440675
2438076 -0.9691044418280874 0.23730910735508218
2438576 -0.9690459350306437 0.23735740033058214
2439077 -0.9691030581719804 0.23734383017030972
2439577 -0.9693563146619265 0.23788710729834175
2440077 -0.9694806418831576 0.23748737410502435
2440577 -0.9698843617798995 0.23872499676693412
2441077 -0.9697850818552577 0.23796639043612672
2441578 -0.9697486939136201 0.23892186178598526
2442078 -0.96971758633939 0.23753068713466619
2442578 -0.9698384398197798 0.23904982079491777
2443078 -0.9687660790830275 0.23778180017242748
2443579 -0.969596415741263 0.23826496304846773
2444079 -0.9683052369396163 0.23786468566107413
2444579 -0.9695708114109759 0.23853359476520603
2445079 -0.9685735853187448 0.23779577714434716
2445579 -0.969068551663899 0.23824460695735764
2446080 -0.9691630387047575 0.23787695752313828
2446580 -0.9690474437174326 0.23822485756895723
2447080 -0.9689541571763421 0.23826781364192975
2447580 -0.9686153716300024 0.2382888058547512
2448080 -0.9695157613984994 0.2384759245859842
2448581 -0.9693768558191528 0.23801988865231727
2449081 -0.96927545517861 0.23913748193509676
2449581 -0.9690170294477544 0.23851774644871687
2450081 -0.9696284682958685 0.23911818096437693
2450582 -0.9686329011123456 0.23869354357372116
2451082 -0.9699242717439625 0.23933108439694822
2451582 -0.9694916352360857 0.2391465747851878
2452082 -0.9698380354172946 0.23902916426846546
2452582 -0.9689522324664237 0.23908802724796066
2453083 -0.9692405696475278 0.23937035376145144
2453583 -0.9684781285056477 0.23919823705584534
2454083 -0.9689135061687374 0.23914792495993165
2454583 -0.9688125085326432 0.2395921125623974
2455084 -0.9684425680068048 0.23898079048903337
2455584 -0.9685081795070738 0.23961048209424365
2456084 -0.9687172267686086 0.23889199726269372
2456584 -0.9686118265772958 0.2397279674896197
2457084 -0.968209411477413 0.23919691881100416
2457585 -0.9688296212775539 0.23983348806934218
2458085 -0.9678592254104768 0.23934405904729691
2458585 -0.9692589690778137 0.24010398875160852
2459085 -0.9685110139567262 0.2400128190270475
2459586 -0.9693990987949846 0.23989252197336702
2460086 -0.9687832673676797 0.23975094301056574
2460586 -0.969345154653844 0.23985128761885746
2461086 -0.9687699204217173 0.239739864684291
2461586 -0.9690612081123277 0.2398217283061673
2462087 -0.9686997587844104 0.24041674526430076
2462587 -0.9687170050842996 0.2399951131231844
2463087 -0.9685028049253157 0.2402781717886169
2463587 -0.9685000939033089 0.23965485322099314
2464088 -0.9686726892555471 0.2399459528122207
2464588 -0.9683667779964055 0.23964876362462498
2465088 -0.9686262817560096 0.24012438913748482
2465588 -0.9680736283682421 0.2394338252208147
2466088 -0.969053870787945 0.24030634193008865
2466589 -0.9679170078153004 0.24046396282791904
2467089 -0.9690333305911774 0.2404803242736504
2467589 -0.968725361198845 0.24055300034260918
2468089 -0.9687713733302775 0.2405798618515593
2468590 -0.9688368663364849 0.24069444382822144
2468590 -0.9687103338173928 0.24091746037116962
2469100 -0.968771542726738 0.2411569622159332
2469611 -0.9690807910892103 0.2413610487742888
2470121 -0.9691609236835484 0.24087488947122568
2470632 -0.9693630631544269 0.24180574499111884
2471142 -0.9691948657308169 0.24066509899576333
2471653 -0.9691842618331772 0.24132808725692784
2472163 -0.9681221325535072 0.24074751394787774
2472674 -0.9685719343159219 0.24115141313503977
2473185 -0.9678512898196131 0.240483785989345
2473695 -0.9683888237993189 0.24098969785401234
2474206 -0.9682125918366233 0.24097199677474185
2474716 -0.968291825848593 0.24082802259299046
2475227 -0.968631790603824 0.2409694680980651
2475737 -0.9684148497053825 0.2401809695135695
2476248 -0.9689146194803234 0.24129935599730054
2476759 -0.9682273196333657 0.2407697236304051
2477269 -0.9689454995804087 0.2417635847385785
2477780 -0.9681128443236411 0.241096469380248
2478290 -0.9689636416746595 0.24177484559294782
2478801 -0.9684762794342453 0.24145037640396486
2479311 -0.968932680035151 0.2419653395946703
2479822 -0.9688480532498512 0.241917387377013
2480333 -0.9684300942955502 0.2419245374559965
2480843 -0.9686543621242323 0.24250170511931082
2481354 -0.9683340001305933 0.2415466197233675
2481864 -0.9686017523592433 0.24224186838606587
2482375 -0.968262704938528 0.24092500094712258
2482885 -0.968398967825623 0.24159726101111761
2483396 -0.9674699564896266 0.24136374401805968
2483907 -0.9682636915603512 0.24194251198189118
2484417 -0.9673908444935224 0.24195384957977265
2484928 -0.9681047748021842 0.24256116350511694
2485438 -0.9681821990513882 0.24262216323747032
2485949 -0.9681575102530948 0.24243538613841703
2486459 -0.9683553154063852 0.24252673940901395
2486970 -0.9684460400425704 0.24187159032146144
2487481 -0.9685479011412825 0.24303410889670438
2487991 -0.9679103162608441 0.2420757250999511
2488502 -0.9684072431853136 0.24238632482996927
2489012 -0.9675310408686651 0.24210544501537076
2489523 -0.9680868443329361 0.24217981239906208
2490033 -0.9675074881975004 0.2421678505907478
2490544 -0.9683877781525995 0.24252319631961033
2491055 -0.968428312792975 0.24254661807678493
2491565 -0.9684425133022818 0.2428218471933568
2492076 -0.9685230975644137 0.24306779727314196
2492586 -0.9687472316116406 0.2427418094816502
2493097 -0.9690832982872636 0.24325020668881195
2493607 -0.9682867819035356 0.24271343336670242
2494118 -0.9689716059428513 0.24301024809282507
2494629 -0.9680555950534221 0.24294258583077014
2495139 -0.9684010505103946 0.24306612598555832
2495650 -0.9673157601561977 0.24317198051798689
2496160 -0.9676805816251972 0.24384007403242572
2496671 -0.9676610641802424 0.24305394185646298
2497181 -0.9673860061918875 0.24310241678456732
2497692 -0.9674056688098791 0.24276716168765106
2498203 -0.9673698298814027 0.24269734162121773
2498713 -0.9668487914129354 0.24253550519771738
2499224 -0.96784849574092 0.24319997081010014
2499734 -0.9676406313107199 0.2434050771650712
2500245 -0.9682579656706463 0.24370040565552775
2500755 -0.9677630706759729 0.24384442848706453
2501266 -0.9679802764884303 0.2431390190496327
2501777 -0.968162665500067 0.244127416191263
2502287 -0.9679609613196263 0.24336380277025021
2502798 -0.9683820731771163 0.24445610826431854
2503308 -0.9672088703849668 0.24400238627328957
2503819 -0.968204703465556 0.2441241340358682
2504329 -0.9671389594872304 0.2443893437591442
2504840 -0.9678221995714612 0.24487942504437615
2505351 -0.967739318054293 0.24445803849248823
2505861 -0.967512381373688 0.24441363217671783
2506372 -0.9678277296881802 0.24554600244257782
2506882 -0.9677834750219751 0.24400687755481282
2507393 -0.9681582586300842 0.24440747386507605
2507903 -0.9670836785539146 0.2436956007483005
2508414 -0.9676483836016679 0.24363317002642468
2508925 -0.966368721195812 0.24364180341018304
2509435 -0.9671167709685076 0.24461290291802026
2509946 -0.9674350723952244 0.2441827943967632
2510456 -0.9677112875410359 0.24436930004162552
2510967 -0.9676363230426702 0.24449429090202504
2511477 -0.9679082857715677 0.2438133272054668
2511988 -0.9678108110127797 0.2446726072369396
2512499 -0.9674870105311295 0.24402803499379597
2513009 -0.9681490831356966 0.24522814503796686
2513520 -0.9670193948122447 0.24491649543421842
2514030 -0.9679602299274098 0.24573912649667778
2514541 -0.9683968825555845 0.2453861849542589
2515051 -0.9679060587839011 0.24543964934625512
2515562 -0.9680504781017386 0.2460196191349226
2516073 -0.9676178693770726 0.2444870178300745
2516583 -0.9672537813735808 0.24566196257608908
2517094 -0.9668187599009821 0.24525509231714296
2517604 -0.9676345344272309 0.2451199464651377
2518115 -0.9663833723713114 0.24462694077237482
2518625 -0.9672681622362044 0.24474900295402965
2519136 -0.9671734864377151 0.24489213819718278
2519647 -0.967059880872906 0.245157096164006
2519647 -0.9670459253250764 0.24527312828794604
2520168 -0.9667642133580047 0.24578311899280417
2520689 -0.9672403697756622 0.2449281071036954
2521210 -0.9674678801690821 0.2457183763897524
2521731 -0.9673196964615223 0.24531957627068293
2522252 -0.9680971365437876 0.2458702623733431
2522773 -0.96731677042451 0.24610462249577392
2523294 -0.9676816533237569 0.2463806410426987
2523816 -0.9672381036950636 0.24646247728368845
2524337 -0.9673731441776755 0.24650344352872386
2524858 -0.9673361060442309 0.24662521445112895
2525379 -0.9672755081574703 0.24576209644729313
2525900 -0.9673197638193618 0.2464875575251539
2526421 -0.9666480055494453 0.24579553002893778
2526942 -0.9673389105065977 0.24601123280247472
2527463 -0.9664031099921322 0.24595579991324043
2527985 -0.9669909715670054 0.24639525952597788
2528506 -0.9664049417517049 0.24623911283904276
2529027 -0.9669610596024245 0.24630273396781102
2529548 -0.9669749571787835 0.24606007319905274
2530069 -0.9676992148767823 0.246065778781932
2530590 -0.9673407776339189 0.24665287312046566
2531111 -0.9667815732357212 0.24587530736497473
2531632 -0.9676593387274866 0.2464925558239705
2532154 -0.9669718521167673 0.24675027844402822
2532675 -0.967178838873319 0.24714172054270223
2533196 -0.9670968552316714 0.24684957942515018
2533717 -0.9677120429266507 0.24689693694467826
2534238 -0.9674011742431489 0.24709622469021203
2534759 -0.9676499509955384 0.24690845985833224
2535280 -0.9676428052234689 0.24706170240767059
2535802 -0.9667990713781308 0.24717510021648384
2536323 -0.9675558681413846 0.24715904772601752
2536844 -0.9661063184986458 0.24696472248554202
2537365 -0.9668046817182064 0.2477699899452525
2537886 -0.9672459099238931 0.24743871365753473
2538407 -0.9668227302776139 0.24760546975969486
2538928 -0.9667075867337664 0.24789761106817318
2539449 -0.9663265104275793 0.24657338750100236
2539971 -0.9667660196611754 0.24751512847190937
2540492 -0.9661004225965079 0.24688844106681018
2541013 -0.9670030643366478 0.24669581182672973
2541534 -0.9659146369609188 0.24699400946591532
2542055 -0.9664663355974319 0.24753868472309482
2542576 -0.967131167122506 0.2475147952860576
2543097 -0.966996542586709 0.24702669586526335
2543618 -0.9669924951637177 0.2478042198482096
2544140 -0.9669943005608868 0.24749071997423158
2544661 -0.9671362223097296 0.2481305789589659
2545182 -0.9665927339211049 0.24817451859576167
2545703 -0.9666949276350836 0.248427169384694
2546224 -0.9667562719963027 0.2486401689320238
2546745 -0.967246654345588 0.24905141875910636
2547266 -0.9669342598114361 0.24954776150616226
2547788 -0.9659699008386087 0.2478641086537396
2548309 -0.9662630415282896 0.24858054963756507
2548830 -0.9667777708845796 0.24846944189917688
2549351 -0.9663966614570788 0.24844487642083013
2549872 -0.9660118533161696 0.24794253017670967
2550393 -0.9661505606557473 0.24757898654116142
2550914 -0.9652637423111484 0.24670986360827205
2551435 -0.9658504754925544 0.2473925044777962
2551957 -0.966360496545288 0.24887267852084322
2552478 -0.9660398351304292 0.24799586850835476
2552999 -0.9665492217028668 0.2482431741363886
2553520 -0.9664198939442938 0.24817476711358039
2554041 -0.9669969013275068 0.24797458481165144
2554562 -0.965927674964459 0.24764800776397777
2555083 -0.9665439019388157 0.24865993905930986
2555604 -0.9671857244105825 0.2482291047571948
2556126 -0.9669663013855755 0.248481041458748
2556647 -0.9672035928216031 0.2497648476868928
2557168 -0.9669702823763998 0.24901037189015787
2557689 -0.9669609149875503 0.2499214710967004
2558210 -0.9661651077945125 0.24914037126379582
2558731 -0.9667124461349703 0.24900903338053598
2559252 -0.9662299621951163 0.249013413529649
2559774 -0.9665213277160281 0.2495959206901136
2560295 -0.9665146504478777 0.2491859624533184
2560816 -0.9666327728850403 0.24925736089996062
2561337 -0.9665958236222753 0.25005203344300436
2561858 -0.9661847581084922 0.24863071611743856
2562379 -0.966354303391475 0.24905350433922824
2562900 -0.965621366565617 0.2485137912603434
2563421 -0.9667351886933029 0.24903970372810155
2563943 -0.9657949106624893 0.2495491844791084
2564464 -0.9659615917582792 0.2497342368986256
2564985 -0.9663186690638448 0.2496539875848646
2565506 -0.9664987993295762 0.24969552262514771
2566027 -0.9667582836285805 0.2501408266302928
2566548 -0.9663015416366102 0.24975939745708847
2567069 -0.9666636555252183 0.2505929305231524
2567590 -0.9660343563896445 0.25021357837627467
2568112 -0.9666746420989717 0.2506530642315304
2568633 -0.9656529425996767 0.250265635136221
2569154 -0.9662510960206546 0.250481687016584
2569675 -0.9662428498708364 0.25073057121562015
2570196 -0.9658542915830033 0.2501990073613035
2570717 -0.9659988488027047 0.2510720512540564
2571238 -0.9653927715334346 0.24999880878193673
2571760 -0.9660179277894697 0.25040714788329077
2571760 -0.9664027927463028 0.25005592405339844
2572291 -0.9657980893662945 0.25062209580231454
2572823 -0.9660689950736189 0.2507469968731177
2573355 -0.9660418344868612 0.2504754722331653
2573887 -0.9659713380711566 0.25037698865952407
2574419 -0.965903973686833 0.25093978695652774
2574951 -0.9659406069629671 0.2507059219682197
2575483 -0.9663618044468991 0.2503111984080832
2576015 -0.9655570619700775 0.25052671736403415
2576547 -0.9659448144801369 0.250794044913207
2577079 -0.9664054593599108 0.2510867985627353
2577611 -0.9662112191005485 0.25134145101889355
2578142 -0.9660996797288012 0.2511493163294694
2578674 -0.9659858888646249 0.25125782121129425
2579206 -0.9663621595136774 0.2515678704407085
2579738 -0.9655006145379537 0.25126176517323945
2580270 -0.9657328881170806 0.2509905324825302
2580802 -0.9653584172144001 0.2510541465212501
2581334 -0.9653507563901029 0.2510037306951941
2581866 -0.9655857991797361 0.25114246583427624
2582398 -0.965276672107875 0.2506081389278977
2582930 -0.9651805519465555 0.2511396696716129
2583462 -0.9646655012515271 0.2507024394836351
2583993 -0.9654489810179866 0.25110919983815333
2584525 -0.965037509065753 0.25121273989138315
2585057 -0.9653653784192332 0.2512462312961142
2585589 -0.9655227342218137 0.25200723121292556
2586121 -0.9652559147454507 0.25151402299836206
2586653 -0.9654917038371676 0.2518607455953969
2587185 -0.9653366509561278 0.2516860576582531
2587717 -0.9658401502771387 0.2523895255935905
2588249 -0.9656013380083709 0.25273711747077654
2588781 -0.965762912123969 0.25246472948827803
2589313 -0.966022209845845 0.2526724257096335
2589844 -0.9657485850417976 0.25244987555275045
2590376 -0.9657247314681876 0.25226919946648085
2590908 -0.9655614319044649 0.25230174979420517
2591440 -0.965848562391971 0.25207030469738323
2591972 -0.9651040367877803 0.2520753982059604
2592504 -0.9652888019290662 0.2523449655574394
2593036 -0.965134886190069 0.25256518667315736
2593568 -0.9651554702360722 0.2523553059640817
2594100 -0.9655887452699506 0.2525574941287301
2594632 -0.9652339218136076 0.25221139905831996
2595164 -0.9658636891316055 0.2523001756465387
2595695 -0.9647852800494358 0.2518983193388879
2596227 -0.965094563272766 0.2523401199417212
2596759 -0.9646682047129121 0.2523579643789371
2597291 -0.9652678930548898 0.252340279687248
2597823 -0.9653268591541752 0.25256107296484964
2598355 -0.9652402581020509 0.2523521003773502
2598887 -0.9650754998937064 0.25290660041681184
2599419 -0.964810869542541 0.25207025914230236
2599951 -0.9650368224161128 0.25212498544868545
2600483 -0.9649111075898994 0.25229641844629624
2601015 -0.9649704717229448 0.2523128254523469
2601546 -0.9651355567940655 0.2527137086908425
2602078 -0.9648550308423486 0.25263596629973656
2602610 -0.9653211366353095 0.25342302226300345
2603142 -0.9647371194449306 0.25282409791682026
2603674 -0.9650197575693382 0.25324390630032234
2604206 -0.9646768957770406 0.25323586780822405
2604738 -0.965189677303723 0.25317027441886303
2605270 -0.9648617487929579 0.2536021939370808
2605802 -0.9650246333713574 0.2538746328400713
2606334 -0.9648346593733692 0.2534237244497258
2606866 -0.9647423470320137 0.2534499002073905
2607397 -0.9648768781566056 0.25403335214397726
2607929 -0.9647087167391531 0.25347945773955743
2608461 -0.965106605019643 0.25331404514310607
2608993 -0.9644937042759775 0.2536742754697447
2609525 -0.9648389380715876 0.2539883129983239
2610057 -0.9655528433163143 0.2535525454949686
2610589 -0.9651387530607077 0.25359117637533046
2611121 -0.9650417201199282 0.2538560788020196
2611653 -0.965049077667068 0.2537651121062182
2612185 -0.9653314860337487 0.25392341193398327
2612717 -0.9648247688228175 0.25382396004699376
2613248 -0.9651610606622858 0.2540911201209648
2613780 -0.9658368757020023 0.254596358120314
2614312 -0.9656102462872803 0.2538796702340745
2614844 -0.9653466712067382 0.25412151804451966
2615376 -0.9654627694516186 0.2544130853856872
2615908 -0.9656637173138324 0.25439053910134307
2616440 -0.964902860057611 0.2544704125612472
2616972 -0.9652396309195179 0.25502462285361893
2617504 -0.9651379728497093 0.2547481645145948
2618036 -0.9654876854246309 0.2548242417002009
2618568 -0.9648568395235102 0.2552957896595975
2619099 -0.9646055552408689 0.25529788448433066
2619631 -0.9649235636021921 0.2552484392617791
2620163 -0.9647993384551904 0.2553445442837212
2620695 -0.9655672688849557 0.25521468410063275
2621227 -0.9650053737970793 0.25475870633750575
2621759 -0.9651086332402448 0.2552210411650305
2622291 -0.964349771548317 0.25550755915140094
2622823 -0.9643664062921873 0.25564010662961384
2623355 -0.9648487418606226 0.2558774798363662
2623887 -0.9642460162130247 0.25565332994251694
2624419 -0.9649647318792105 0.25616454401329336
2624951 -0.9647733235133229 0.2557526222277338
2624951 -0.9650386897436181 0.25624502247687214
2625493 -0.9649572813267712 0.2561172924162673
2626036 -0.9645232350331057 0.2561599241453693
2626579 -0.964356380271633 0.2561343265896262
2627122 -0.9649905520980391 0.25642040305985475
2627665 -0.9642621766709114 0.2561779373293337
2628208 -0.9648249437173808 0.25624402927321493
2628751 -0.9646031745973546 0.2561852492897253
2629294 -0.964548245963289 0.2560229283617831
2629837 -0.9647986162140662 0.2557015367886556
2630380 -0.9639709370590164 0.2561063805812595
2630923 -0.9645938994977364 0.25650192691551804
2631465 -0.9646649904444946 0.2566866393306724
2632008 -0.9644004073625932 0.25635834438598515
2632551 -0.9645352900096468 0.2563317866548967
2633094 -0.9638993735676712 0.25582156317766874
2633637 -0.964064262789526 0.25646005903737
2634180 -0.9636876876984088 0.2562493028841497
2634723 -0.9644635626233082 0.25659628635180365
2635266 -0.9644428099727644 0.25614559971523443
2635809 -0.9639094468487402 0.2562068916216662
2636352 -0.964775365017463 0.2563856860176111
2636895 -0.9638622950128936 0.2565290645116488
2637437 -0.9640219052684983 0.2561306713502863
2637980 -0.9639106726261275 0.25656940344694906
2638523 -0.9639210771581168 0.2564228296409074
2639066 -0.9640072859977868 0.2563668483702749
2639609 -0.9638735519038648 0.25668490482777884
2640152 -0.9641063624380697 0.25674910584286154
2640695 -0.9641108978258266 0.2567577999022649
2641238 -0.9639601125659413 0.25655111847037126
2641781 -0.9641289061983769 0.25687458645050565
2642324 -0.9637715305866723 0.25638636495583744
2642867 -0.9639192093299569 0.25698364488015873
2643409 -0.9641578692718095 0.2574126134834347
2643952 -0.9638654563525901 0.25662710066402566
2644495 -0.9638072925500984 0.2567768683103881
2645038 -0.9636385868023879 0.2567226372255772
2645581 -0.9636657586098236 0.25689005095794565
2646124 -0.9638181171452849 0.25724521826600033
2646667 -0.9641032977636128 0.25712581722095623
2647210 -0.963936741210748 0.2572999453070603
2647753 -0.9640090746917862 0.257172267712985
2648296 -0.9643415700523198 0.2572573146518394
2648839 -0.9640472523933785 0.25729718622377556
2649381 -0.9643626055147885 0.25724978044334235
2649924 -0.9645103744486986 0.2575952514840959
2650467 -0.9643906431646795 0.25766934967333244
2651010 -0.9644226382792823 0.2577852967044717
2651553 -0.9640502084052952 0.2574785778784426
2652096 -0.9640003213713435 0.2578724457848317
2652639 -0.9640246271364027 0.25792788571096786
2653182 -0.9645107786442971 0.25826890654144824
2653725 -0.963946419863807 0.25783489830660816
2654268 -0.9645110960468601 0.25834026798986937
2654811 -0.9643112123891215 0.2583181801787098
2655353 -0.9640057320532817 0.25855781120137006
2655896 -0.9642445891042372 0.25849594658075375
2656439 -0.9637694359311852 0.2589549314192924
2656982 -0.9640239767824836 0.2590917512057314
2657525 -0.964140445903478 0.2591813070751516
2658068 -0.9640237409880652 0.258890730672816
2658611 -0.9638879353255676 0.2591440757474145
2659154 -0.9637451846494932 0.25896488090249636
2659697 -0.964125622515998 0.2590207710214724
2660240 -0.963785452813433 0.2590697084294122
2660783 -0.9638097585236167 0.25918768007131016
2661325 -0.9639095467548817 0.25949039403187685
2661868 -0.9640162038536623 0.25943778643437954
2662411 -0.9634287197273727 0.25941576886776724
2662954 -0.963260436354306 0.25926694178342613
2663497 -0.9635813489825416 0.25948098542462766
2664040 -0.9633530059497681 0.25967468631497914
2664583 -0.9638406894261179 0.2596869867103422
2665126 -0.9637416203220717 0.2597989617442406
2665669 -0.9636341391502036 0.2591165524975873
2666212 -0.9635727786579751 0.25922451226881577
2666755 -0.9634380201868467 0.25934019810490055
2667297 -0.9635917540839601 0.2593216407110514
2667840 -0.9630865385819204 0.2595449234446418
2668383 -0.9636529593012346 0.2594214406529582
2668926 -0.9631283886335449 0.25958905097268953
2669469 -0.9630387327193136 0.25906213939221645
2670012 -0.9633189834602803 0.2593603246922389
2670555 -0.9626990507666094 0.2591254714936133
2671098 -0.962733730066724 0.2593493137303523
2671641 -0.9625828417244788 0.2597244968555763
2672184 -0.962949595674066 0.2597141333134376
2672727 -0.9632388087488235 0.26017530005414624
2673269 -0.9631069261562019 0.25991136857510055
2673812 -0.9632347261173703 0.25988529785432984
2674355 -0.9626166058094997 0.2596240297347776
2674898 -0.9627727869896591 0.25974657531248957
2675441 -0.9628283671821971 0.2599594579126738
2675984 -0.9625396049647816 0.2600618087830874
2676527 -0.9632860701632963 0.25986790410899374
2677070 -0.9632419175616008 0.2596023482923385
2677613 -0.9634127937363096 0.25970886847882285
2678156 -0.9635065373828756 0.2598679660233728
2678699 -0.9633784663246403 0.26007449287801543
2679242 -0.9632077496393074 0.2601571325897067
2679242 -0.9634205830408832 0.2604449997056029
2679796 -0.9633452748778483 0.26031240472222306
2680350 -0.9634985642583883 0.2611703012735209
2680904 -0.9630878688416481 0.26107365868551363
2681458 -0.9631466132300948 0.26097992917778307
2682012 -0.9630910969393507 0.2610861194223416
2682566 -0.9629824088849346 0.2607826300715894
2683120 -0.9631558281509822 0.26083869300961765
2683675 -0.96331823217112 0.26074565708552483
2684229 -0.9635730337909618 0.26081020944447636
2684783 -0.9632066127483061 0.26096293366855056
2685337 -0.9632410744604368 0.2610279777758417
2685891 -0.9632197514842589 0.2613498532261913
2686445 -0.9634281702325682 0.26067976638462015
2686999 -0.9631988401472684 0.2609203022420011
2687554 -0.9629759086830443 0.2612351884124653
2688108 -0.9631912973539807 0.2612140957594377
2688662 -0.9624405660617258 0.26137358120566
2689216 -0.962959349304783 0.2614078216244369
2689770 -0.9628412845432122 0.26148470545938424
2690324 -0.9634411322574569 0.26193931718779384
2690878 -0.9633281884961691 0.2619395281283564
2691433 -0.962917932606529 0.2614209966706267
2691987 -0.9631170290120743 0.26158933507453486
2692541 -0.9626311019513759 0.26155836947965266
2693095 -0.9627493897134141 0.26241265091898236
2693649 -0.9630360315914145 0.2620647986845402
2694203 -0.9630410359664958 0.2621141580459595
2694757 -0.9634670590717463 0.26264672163134695
2695312 -0.9625650401779698 0.2630043343741748
2695866 -0.9627248978956743 0.26329503786219055
2696420 -0.9626329048533916 0.2632036862087416
2696974 -0.962662745864851 0.263062908245294
2697528 -0.9635168745933637 0.26339791053151723
2698082 -0.9625625392485126 0.2633201499030065
2698636 -0.9628997889725666 0.26310870697771566
2699191 -0.9635946210708894 0.26352545169953745
2699745 -0.9632783012763293 0.2632954560203357
2700299 -0.9629063167599741 0.26331354668505275
2700853 -0.962572288738708 0.26322359799094125
2701407 -0.9631534404326205 0.2636253662236671
2701961 -0.9622911621688623 0.26288370123834987
2702515 -0.9626205245259795 0.2631489470950414
2703070 -0.9625023376992169 0.2631727588261318
2703624 -0.962182865227457 0.2628636223129131
2704178 -0.9623155967204191 0.26284475444547306
2704732 -0.9621244080424712 0.26278469276575156
2705286 -0.9621810967564562 0.26331500224910814
2705840 -0.9625764179393576 0.26375181973719436
2706394 -0.9621914365240274 0.26301439706284324
2706949 -0.9623030243040696 0.26312919853626393
2707503 -0.9618218145704429 0.26318327751873666
2708057 -0.9618874507660491 0.2632463628736165
2708611 -0.9618850291125525 0.2626708060411837
2709165 -0.9619114851791407 0.2633027817201697
2709719 -0.9624465271970107 0.2631398000852548
2710273 -0.961707679429158 0.263452484557237
2710827 -0.9620932463312026 0.26314829332207423
2711382 -0.9621404512290176 0.2632126691177906
2711936 -0.9616261221990547 0.26309666442721563
2712490 -0.9621416403348744 0.26393394089160693
2713044 -0.9620169066257503 0.263366879210957
2713598 -0.9622718935095188 0.2642640575761909
2714152 -0.9619383603405064 0.26391923060940664
2714706 -0.9614958222892622 0.263881819382118
2715261 -0.961751201609983 0.2640048909955795
2715815 -0.9619320069990044 0.2636235799197307
2716369 -0.9623743671429976 0.26395482760491984
2716923 -0.9625745569663288 0.2642063608115011
2717477 -0.9624910259576723 0.2640205350764482
2718031 -0.9627073451251145 0.26410285725050686
2718585 -0.9623438873702653 0.263979083630047
2719140 -0.9622633241772542 0.2641487802056333
2719694 -0.9624950788215476 0.2642864465513381
2720248 -0.9622952994136171 0.26416840843777967
2720802 -0.9623195706731102 0.2642808065338508
2721356 -0.9618324633547662 0.2641611031240351
2721910 -0.9622017095085103 0.2647152130493123
2722464 -0.9623917441590982 0.2648870716298623
2723019 -0.9619752182680535 0.26446006181264614
2723573 -0.9625603157908696 0.2650027604156341
2724127 -0.9617072935268615 0.2652903721118415
2724681 -0.9619665889399218 0.265102901725946
2725235 -0.9620373937430202 0.26479077242158694
2725789 -0.96226938526691 0.26503110916991574
2726343 -0.9625112117385413 0.2652054871741461
2726898 -0.9622503939620696 0.26561586015004024
2727452 -0.9622268279448887 0.26561864961071324
2728006 -0.962196294806874 0.2651676096264635
2728560 -0.9616792019604148 0.2652429646534453
2729114 -0.9617927198020485 0.2655794374788796
2729668 -0.9620032043910433 0.2653786159307719
2730222 -0.9623550279655351 0.2656436088974012
2730777 -0.9620697344627203 0.26520257119488366
2731331 -0.9617977122054235 0.2658298061889078
2731885 -0.9619264831943245 0.2660307343094712
2732439 -0.96228757689128 0.265940867703013
2732993 -0.9617270182397843 0.2657195774398927
2733547 -0.9617463758926723 0.26554640954770187
2734101 -0.9616800652554203 0.26587713924091905
2734656 -0.9613434862137272 0.2661275559572115
2734656 -0.9616501728456759 0.26609159319659836
2735221 -0.9618813605607931 0.26624457978431104
2735787 -0.9620850764591496 0.26609968041485843
2736352 -0.9614016518965991 0.26605271709892137
2736918 -0.9617202102254554 0.266311372401958
2737484 -0.961605057676075 0.26593919849745495
2738049 -0.9616683940849983 0.2665959030363162
2738615 -0.9621810054278666 0.2662650103665589
2739180 -0.9614594014638733 0.26579270129505617
2739746 -0.9618245765004002 0.26620467861920727
2740312 -0.961999274897938 0.2661690308388107
2740877 -0.9619050279172064 0.2662956531601262
2741443 -0.9620744956935613 0.26639816940268185
2742008 -0.9612591995056403 0.26640477207251795
2742574 -0.9612537582732639 0.26668406692942087
2743140 -0.9615321785989853 0.266646574012877
2743705 -0.9615825196581032 0.26674342245551524
2744271 -0.9614884345955885 0.26668529982386835
2744836 -0.9607115444240439 0.2667211001047885
2745402 -0.9609771950920735 0.2670442320896831
2745968 -0.9609857627600711 0.26671817549226756
2746533 -0.9607997243394782 0.2663694765212857
2747099 -0.9614255655337185 0.26681664935814164
2747665 -0.9604021407072902 0.26624261005711736
2748230 -0.9609049160324077 0.26666416118275144
2748796 -0.9607970228453235 0.2666219777865062
2749361 -0.9606339548074301 0.26677147541977925
2749927 -0.9610986885405213 0.26725580673365545
2750493 -0.9607223003075785 0.2671688685607714
2751058 -0.9608843086632167 0.26747911019960063
2751624 -0.9616292279410049 0.26714413733601416
2752189 -0.9614323564803823 0.2666893665719174
2752755 -0.9615948325795295 0.26715780354026436
2753321 -0.9615046926221199 0.26753541484365545
2753886 -0.9610651555209552 0.2672598242350896
2754452 -0.96114170849098 0.2678343547884512
2755017 -0.9612696215949537 0.2673324266760421
2755583 -0.9614214708229001 0.26765363008478804
2756149 -0.9610882967746343 0.26749506607529694
2756714 -0.9611308618691463 0.26770295138704564
2757280 -0.9608335507500086 0.2679299979701937
2757846 -0.9610942001903606 0.2676110420269325
2758411 -0.9614367190961599 0.26810733297320094
2758977 -0.9611548100763896 0.2676630435534857
2759542 -0.9611089543733907 0.26842759397088
2760108 -0.9611632441887743 0.26875629484486646
2760674 -0.9608881206654722 0.26884595594943034
2761239 -0.960530829414477 0.26886095498922763
2761805 -0.9615318667661105 0.26876597089523513
2762370 -0.9606083812117023 0.268421254111763
2762936 -0.9608269910138434 0.2687829570985494
2763502 -0.9613112597442287 0.26894477086583063
2764067 -0.9608972085779948 0.2684714098889861
2764633 -0.961640808482542 0.26873516879483716
2765198 -0.9611382002288676 0.26858960727656433
2765764 -0.9611327666144865 0.26891636540334873
2766330 -0.9612145708015475 0.26941904878254846
2766895 -0.9610143363111896 0.26907177276613997
2767461 -0.960832885030723 0.26953128943154786
2768026 -0.9613740168434799 0.2694817610219357
2768592 -0.9614861218148117 0.26947666167838696
2769158 -0.9619071873016357 0.26934910156896436
2769723 -0.9608235867851852 0.26914415561554805
2770289 -0.9608018466947531 0.2695096369327646
2770855 -0.9607540503907174 0.2695677045830149
2771420 -0.9607512324628213 0.2694658537371201
2771986 -0.9607840267848962 0.26940569031208683
2772551 -0.9606141605834294 0.26948141997317315
2773117 -0.9607767093012558 0.2698861584309153
2773683 -0.9609015914452042 0.26960660241482615
2774248 -0.9605127417401428 0.2691027568802009
2774814 -0.9607116691093363 0.27009639060403945
2775379 -0.9608972892376166 0.26959809890070785
2775945 -0.9615858094500123 0.26995165248967246
2776511 -0.9616333801837865 0.26973237621917495
2777076 -0.9605973381910008 0.2700669817584352
2777642 -0.9609182445181564 0.26979141595744627
2778207 -0.9605453482661962 0.2699024320269957
2778773 -0.9610121171645777 0.27007837735214146
2779339 -0.9605440540962211 0.26970615165884454
2779904 -0.9607845967561125 0.2697338191866959
2780470 -0.9606405103058401 0.2699431151062225
2781036 -0.9608794737633073 0.27030196108774573
2781601 -0.9602673522463765 0.26993707263737216
2782167 -0.9601823044792528 0.2704870684560919
2782732 -0.9603022673772709 0.27000718191234774
2783298 -0.9605864004428021 0.270224074184433
2783864 -0.9608234333509689 0.27018959493843575
2784429 -0.9595287078473315 0.2696149260271357
2784995 -0.960171376480466 0.27012081199416044
2785560 -0.9600464749355864 0.27052722859232725
2786126 -0.960168156879391 0.27029549425817606
2786692 -0.959973743030385 0.27016788407086606
2787257 -0.9596537357088553 0.27024627899662523
2787823 -0.9594878963301793 0.270676297138908
2788388 -0.9597898626495163 0.2708359967032898
2788954 -0.9594029137342948 0.2705735853231925
2789520 -0.959763095042806 0.2710197155815168
2790085 -0.960219515204534 0.27077317581985755
2790651 -0.9604043394069529 0.2710988895344631
2791217 -0.9609905813034174 0.2712582551706219
2791217 -0.9607604336992782 0.2713027687135016
2791794 -0.9606724856195981 0.2711963091390885
2792371 -0.9605310693358712 0.271604691381643
2792948 -0.9609164518896093 0.2711982729571373
2793526 -0.9602277682059951 0.27051328738961294
2794103 -0.960281271484948 0.2719568846516109
2794680 -0.9604938357393603 0.27194863180733575
2795258 -0.9603181194646949 0.2723674434485506
2795835 -0.9604232000437383 0.2721006350343041
2796412 -0.9593176716344113 0.2715657402061679
2796989 -0.959972482342753 0.2723500621033791
2797567 -0.9600906663944914 0.2723577114189781
2798144 -0.959807181309648 0.2721356873915444
2798721 -0.9605092038385158 0.27274233679118837
2799299 -0.9609419491620336 0.2721155032273026
2799876 -0.9604399713925728 0.2727685921029599
2800453 -0.9607679200129334 0.27234214468173396
2801030 -0.9603460449814698 0.2720314812115371
2801608 -0.9602468563842022 0.2724371858499029
2802185 -0.96021813304835 0.27250478444007087
2802762 -0.9603545844330933 0.2723956507185359
2803340 -0.9600945538601722 0.2721200910536608
2803917 -0.9597184579429836 0.27224385004847235
2804494 -0.9598444713308081 0.2725126472964357
2805071 -0.9599628194342116 0.27277958917611317
2805649 -0.959268798290451 0.2723958350073897
2806226 -0.9600284505041752 0.27269059696981607
2806803 -0.9602112013965427 0.27275241802488465
2807381 -0.9598881379383637 0.2725202800687801
2807958 -0.9600737110966444 0.2723433373635567
2808535 -0.9592647196615455 0.2717961015752735
2809112 -0.9595494692804641 0.27247419972609843
2809690 -0.9594030116634829 0.2729183175080227
2810267 -0.9595486777384653 0.2727808130457997
2810844 -0.9598256728516075 0.2727869124076191
2811422 -0.9594126298682164 0.2730399130359582
2811999 -0.9595061507511861 0.27345644603963115
2812576 -0.9595659235196131 0.2730713257996269
2813154 -0.9589523101939711 0.2726118608817571
2813731 -0.9596326446099294 0.27382119114524583
2814308 -0.9597171860792226 0.27344212850800426
2814885 -0.960387528777796 0.27350956609162147
2815463 -0.9606934181783552 0.2731313183856308
2816040 -0.9593653205089686 0.27285921214052283
2816617 -0.959241266809266 0.2737719162428061
2817195 -0.9593667453302865 0.2736931349004853
2817772 -0.9596656536190397 0.2737169932781454
2818349 -0.9600378645843001 0.273927518516597
2818926 -0.9595261168924085 0.27372021645527544
2819504 -0.9596375503155052 0.27432416358945805
2820081 -0.9595582465179361 0.27413261015702456
2820658 -0.9596091478885628 0.273817899312186
2821236 -0.9589436423401905 0.2739338159152252
2821813 -0.9594642397713262 0.27478420120417113
2822390 -0.9597136962380929 0.2748258630157033
2822967 -0.959934645523778 0.2748817367868996
2823545 -0.9599585270339912 0.27441865710181457
2824122 -0.9590366133318156 0.2742007373747911
2824699 -0.9595453136183579 0.27452512426256737
2825277 -0.9595681770822498 0.27393997113517043
2825854 -0.9590930800533869 0.27343126072990825
2826431 -0.9596843894691677 0.2743372443889456
2827008 -0.9596755060856682 0.2744015910823095
2827586 -0.9592492427867401 0.27466474071234875
2828163 -0.9596842876728484 0.2744482548787741
2828740 -0.9588546029015057 0.27427876271462004
2829318 -0.9594156731656633 0.2750141475529175
2829895 -0.9592678903267392 0.2749824592112226
2830472 -0.9596580162831033 0.2747849701716831
2831050 -0.9591191755680532 0.2744162344682128
2831627 -0.958979775707495 0.2747645622017948
2832204 -0.9594355299151766 0.2750956841775228
2832781 -0.9592573368424434 0.275184733768909
2833359 -0.9591143939183235 0.27507627372135757
2833936 -0.9585461614430358 0.2753766145537129
2834513 -0.9587776465338556 0.2752009330060938
2835091 -0.9590640607552988 0.27559327389033533
2835668 -0.9592308578699308 0.275096627918832
2836245 -0.9589459430362774 0.27527878871643213
2836822 -0.9592230290557298 0.2754756676043617
2837400 -0.958469158347947 0.27562840240163905
2837977 -0.9589745917821259 0.2753697798500192
2838554 -0.9587708644008709 0.27501721550327923
2839132 -0.9588300045280781 0.27511515623103144
2839709 -0.9590498937136258 0.275702100883332
2840286 -0.9592347430621802 0.2753916868315038
2840863 -0.9586130859297023 0.27512271042288566
2841441 -0.9588212000722924 0.2760795938589828
2842018 -0.9589370063003104 0.27600437585610144
2842595 -0.9590743417992993 0.276326446425091
2843173 -0.959188326748422 0.27627674292013
2843750 -0.958149801771362 0.27609860682556275
2844327 -0.9584399316275952 0.2766006267749165
2844904 -0.9584388239515743 0.2767652077383995
2845482 -0.9587244116138177 0.2768270437181171
2846059 -0.9586676871486393 0.2766811964528591
2846636 -0.9590623996996557 0.276414310934793
2847214 -0.9590857743442862 0.27718513906478937
2847791 -0.9596203668843135 0.2769765152647576
2848368 -0.9592735537311078 0.2767637070615869
2848946 -0.9589870214985402 0.2776252415714368
2848946 -0.9586156733413874 0.27716729879140056
2849535 -0.9591395456834451 0.276903190557654
2850124 -0.9590762703891564 0.27706100056517907
2850713 -0.9583473742066063 0.2765655071935981
2851302 -0.9587043564088705 0.27684027557941837
2851892 -0.9581903365279165 0.2763362833276989
2852481 -0.9582563885582078 0.2760330799325703
2853070 -0.9587637753155985 0.2767931701056717
2853659 -0.9585252515312956 0.27674969502937125
2854249 -0.9582048320000094 0.27665106404028006
2854838 -0.9584896693675165 0.27716504496761535
2855427 -0.9585171673261587 0.27724212483175953
2856016 -0.9587255007170241 0.2778552589561716
2856606 -0.9589577668124447 0.27713785070921565
2857195 -0.9586548942393108 0.2772397013619639
2857784 -0.958627650387417 0.2773957966828659
2858373 -0.9582972851459768 0.2775241954839203
2858963 -0.9580670842077635 0.2769845704798991
2859552 -0.9586512546778778 0.27783686964448046
2860141 -0.9583410474365833 0.2774595170765449
2860730 -0.9582774298087907 0.2777741294511269
2861320 -0.9583496596002273 0.277443171207992
2861909 -0.9571972290330889 0.2777871156462689
2862498 -0.95782595772553 0.27824475070611676
2863087 -0.9582458731403983 0.2780519554147157
2863677 -0.9579629082222456 0.2776414109323636
2864266 -0.9580609030477953 0.27853978593038303
2864855 -0.9581970618245843 0.2779881938236492
2865444 -0.9586044264832474 0.27814122161865035
2866033 -0.9587315596013897 0.2779939099714797
2866623 -0.9581202653932744 0.2781970860957767
2867212 -0.9586403303027775 0.2786853519866586
2867801 -0.9587169392244308 0.2784784153301573
2868390 -0.9577712566009411 0.27832271277809145
2868980 -0.9579132947699768 0.2793437949859877
2869569 -0.9579136617693904 0.27900443487699755
2870158 -0.9577696924130426 0.27900344652815956
2870747 -0.9580132218905792 0.2793459658415959
2871337 -0.9580098571270045 0.2790187019634942
2871926 -0.9583912761357621 0.27909094783135224
2872515 -0.958575956316762 0.27891943420447984
2873104 -0.9583647258002975 0.2792490695815255
2873694 -0.9585220249885812 0.27972510045405946
2874283 -0.9584032892317067 0.27962285178238466
2874872 -0.9578987672107468 0.27931169413639645
2875461 -0.9580921664398196 0.2793689832264286
2876051 -0.9577303987314111 0.27902373002607417
2876640 -0.9571083033833289 0.2787431202880142
2877229 -0.9577150912371958 0.27962244162374666
2877818 -0.9577269388145745 0.27982962998772454
2878408 -0.9582125580321311 0.27961736873141796
2878997 -0.9578347200033335 0.27943881922734826
2879586 -0.9582049391880814 0.27854959973651805
2880175 -0.9582360004015871 0.2792641222935419
2880764 -0.9580641470137407 0.2792158426701765
2881354 -0.9566769499348452 0.2788825817670212
2881943 -0.9575378843128877 0.28028799308694163
2882532 -0.9574763888864574 0.2799099184562628
2883121 -0.9578876662385155 0.27957385978677673
2883711 -0.9571362477548301 0.2795848486145124
2884300 -0.9578675368294515 0.2795998357985183
2884889 -0.957583561438077 0.2800570280319974
2885478 -0.9576584704935766 0.2800391093561463
2886068 -0.9572950768825575 0.27978739874367514
2886657 -0.9577002791383735 0.280193307977267
2887246 -0.9573979278220884 0.28010779931295465
2887835 -0.9570480627030524 0.2796758826697609
2888425 -0.9572551781521595 0.2801171443532602
2889014 -0.9574403176607553 0.2803011762087226
2889603 -0.9577133773765725 0.2805474203949395
2890192 -0.9581330712667268 0.2803148514808637
2890782 -0.9573980581075824 0.27988016882974637
2891371 -0.9578075952730031 0.2807087875630878
2891960 -0.957615196200521 0.2805851485592762
2892549 -0.9572443673560435 0.2804265578620224
2893139 -0.9572324121161935 0.2813092722464367
2893728 -0.9574756411117867 0.28088292398026243
2894317 -0.957769612372468 0.281102508690159
2894906 -0.9580280157811275 0.28060068714514996
2895495 -0.9573334330296327 0.2806259455958907
2896085 -0.9579872440130764 0.28146275639561136
2896674 -0.958050794491039 0.28121734065243925
2897263 -0.9581827969506914 0.2811201702853493
2897852 -0.9575972864891955 0.28173159861957286
2898442 -0.9572310663925719 0.2813025340792352
2899031 -0.9571896272017182 0.281371052913541
2899620 -0.9571747382086693 0.28160058201176386
2900209 -0.9569590340716916 0.2813125560443892
2900799 -0.9573946284450403 0.2820456214578496
2901388 -0.9576709685305337 0.28160913515233643
2901977 -0.9570407543377271 0.281146610590288
2902566 -0.957247836726476 0.2816761029394119
2903156 -0.9569996588651565 0.28187221868982065
2903745 -0.9571071271937633 0.2812618112610605
2904334 -0.9575221049678919 0.2816311637535091
2904923 -0.9569892498202879 0.2815896846632842
2905513 -0.957172088410719 0.28205759130834107
2906102 -0.9568148825462726 0.2816798594361708
2906691 -0.9560851381928583 0.28182837432310154
2907280 -0.9565591238381904 0.2824431199224577
2907870 -0.9570559496234274 0.28196062019466167
2907870 -0.9571102397487439 0.2820927274043287
2908471 -0.9565840760848323 0.2812576929053741
2909072 -0.9570564259545025 0.2825547832562536
2909674 -0.9571391981338437 0.28224402417732763
2910275 -0.9561965985086366 0.2820046101477546
2910877 -0.9570644180036887 0.2829993185339681
2911478 -0.9567930218260902 0.28216741520276006
2912080 -0.9565842289786246 0.2821512486900991
2912681 -0.9566247098572809 0.28320226665337195
2913282 -0.9564165684400276 0.28293863331934554
2913884 -0.9564865819150166 0.2823998582835263
2914485 -0.9564998214124321 0.28333435289455833
2915087 -0.956576612979741 0.28320993033635256
2915688 -0.9570702532030594 0.28263395779697303
2916290 -0.9569170832164943 0.28335653062115357
2916891 -0.9569212349599459 0.28312015074933466
2917492 -0.9572761155831044 0.28339342053759037
2918094 -0.957115293985124 0.28325177220441505
2918695 -0.9562247752354985 0.28289912895362623
2919297 -0.9570897179321761 0.28336040080793995
2919898 -0.9569038648947279 0.28330004735919373
2920500 -0.9564958368529 0.2833554323235171
2921101 -0.9566111006457725 0.2835079531459481
2921702 -0.956600972131122 0.2835674920838924
2922304 -0.9563710039384573 0.2833868258741785
2922905 -0.9567029104663541 0.28377385565413044
2923507 -0.9565434445281625 0.2833210460880829
2924108 -0.9566012757246714 0.2835174848786876
2924710 -0.9565182076312794 0.283910667863045
2925311 -0.9566843491911322 0.28348009248446854
2925912 -0.9563129111808624 0.2835634198817014
2926514 -0.9566622154069869 0.2839630286687735
2927115 -0.956750668456242 0.2839104775351831
2927717 -0.9564320837237406 0.28351918793994624
2928318 -0.9562538028390446 0.2842740363332821
2928920 -0.9564802608074197 0.2839090264570832
2929521 -0.9562959220431477 0.2846237550307654
2930122 -0.9564166316245433 0.2848844118907074
2930724 -0.9559317693535115 0.2844464285488934
2931325 -0.9563495498179392 0.28411044729735996
2931927 -0.9565648877218661 0.2845315726823342
2932528 -0.9567658512046532 0.284259126549621
2933130 -0.9567912165898516 0.2844108506156287
2933731 -0.956507246165332 0.2846559349710622
2934332 -0.9560420739380978 0.28496926588902527
2934934 -0.9560160687852883 0.28438040174773427
2935535 -0.9562805965153713 0.28555148370976574
2936137 -0.95638878541978 0.285141300337646
2936738 -0.9565523956163965 0.2848961430403619
2937340 -0.9563396499682547 0.2855380507902477
2937941 -0.956267476757592 0.2851238000728878
2938542 -0.9563172212724924 0.2849889134200322
2939144 -0.9563279414703492 0.2852280234336579
2939745 -0.9561762204462082 0.285157063132982
2940347 -0.9561872621435437 0.2853395804446233
2940948 -0.9560769076964634 0.2856535270838078
2941550 -0.9559710699147916 0.28580562758559613
2942151 -0.9562098052549656 0.28634241983314834
2942752 -0.9559589715141553 0.2853662391104115
2943354 -0.9558375296587945 0.28506304413532507
2943955 -0.9559082366572065 0.2858650840763763
2944557 -0.9560835878928505 0.28567945912036125
2945158 -0.956596807199324 0.28555481863200366
2945760 -0.9561975812655114 0.28583941035307825
2946361 -0.956443584836884 0.2854164261056764
2946962 -0.9560207317003148 0.28507660787774947
2947564 -0.9557877846021856 0.28540212792186237
2948165 -0.9553759602560029 0.2858696939892843
2948767 -0.9562457028690284 0.2863052892270598
2949368 -0.955450080425605 0.2863893419655034
2949970 -0.9556244287152249 0.28554547373305145
2950571 -0.9564664016591998 0.2868365378154553
2951172 -0.9560810521438006 0.2862424580764566
2951774 -0.9553487233757675 0.28577706190973223
2952375 -0.9557893788594247 0.2869619957191003
2952977 -0.9561351035849693 0.28665155565500156
2953578 -0.9558654109922177 0.2863410724943249
2954180 -0.9555000215372399 0.2867589931856205
2954781 -0.9557767889467633 0.2865451802204658
2955382 -0.9559809443213982 0.2865055564241873
2955984 -0.9554583277848752 0.28678747715234143
2956585 -0.9552471859621284 0.2868085386598328
2957187 -0.9558081315554183 0.2870916946437063
2957788 -0.9558080830868545 0.2873190389032767
2958390 -0.955243595589781 0.28602724439181637
2958991 -0.9561305081866704 0.2873923588918034
2959592 -0.9557819890694066 0.286893481619072
2960194 -0.9562217331593393 0.2865439778842052
2960795 -0.9558935864024867 0.2873284769923647
2961397 -0.9560379470831565 0.28720872845783363
2961998 -0.9560582533141361 0.28706303441148767
2962600 -0.9559830849268033 0.28753644573730747
2963201 -0.9550824258259876 0.2872954814092398
2963802 -0.9555913142301681 0.2873824410655047
2964404 -0.955743893267198 0.28798619553507016
2965005 -0.9552630077060281 0.2873143438611636
2965607 -0.9557819588434088 0.2879756136668411
2966208 -0.9555656873345464 0.28763124101194876
2966810 -0.9552005479287593 0.287292978035817
2967411 -0.9557463398555114 0.28843502315654523
2968013 -0.95561513948574 0.2876990258538355
2968013 -0.9556676045041386 0.2881189039148534
2968626 -0.9554973855930186 0.28739656527529295
2969240 -0.9552972091367636 0.28734951245939083
2969854 -0.9556077641704169 0.2879337914991672
2970468 -0.955504241964669 0.28784271155803653
2971082 -0.9551424888800385 0.28822891855916805
2971696 -0.9554211498292817 0.28875503840173067
2972310 -0.9554142055522094 0.2883600585955252
2972923 -0.955473599394989 0.28816484685744825
2973537 -0.9552183260476923 0.28856378403522265
2974151 -0.9555088462464777 0.2880405273452779
2974765 -0.9557687243495369 0.2881068184787914
2975379 -0.9554437971468434 0.2884289669507184
2975993 -0.95503603914737 0.2882531667966593
2976607 -0.9551528904859555 0.28838287375833815
2977221 -0.955249783506523 0.288963584377329
2977834 -0.9543582346420271 0.28875013533432964
2978448 -0.9551295448355286 0.2887885280180844
2979062 -0.9551906597760083 0.2889719896037706
2979676 -0.9544724695311915 0.2886818665717305
2980290 -0.9554254396819244 0.2892447469880968
2980904 -0.9548702357758334 0.28923136248018
2981518 -0.9549950780749531 0.2885997744907317
2982132 -0.9550930993162879 0.2890675197648641
2982745 -0.9550548559260861 0.2891486802892285
2983359 -0.954881618359054 0.28875453613372865
2983973 -0.9550027366691068 0.28946220352728036
2984587 -0.9547476121746225 0.2892946883136183
2985201 -0.9544748328024971 0.28893094027395005
2985815 -0.9549614482280998 0.29029351575616247
2986429 -0.954779950464337 0.289711033086055
2987042 -0.9543934122912195 0.2888775628854144
2987656 -0.954718380930107 0.28984184456441037
2988270 -0.9549208592982427 0.2894742994339941
2988884 -0.9549534643571342 0.2893499898598852
2989498 -0.9545387382013785 0.28983178850640134
2990112 -0.954838964566506 0.28955520337875595
2990726 -0.9549020122370413 0.289658708770887
2991340 -0.954214592171146 0.2898156956259748
2991953 -0.9544311429331912 0.28961503504850167
2992567 -0.9548095288787298 0.2900155801417006
2993181 -0.9546410459630641 0.2899098923052702
2993795 -0.9546412654653255 0.2898842430563781
2994409 -0.9552147519490722 0.2905510277869321
2995023 -0.9548616611152387 0.29062868805375774
2995637 -0.9549130778272595 0.2904405572333909
2996251 -0.9547152230150429 0.2908527429764446
2996864 -0.9544415150756621 0.29105595859150407
2997478 -0.9547306002537772 0.2909443127774507
2998092 -0.9542670829959308 0.2905109890570304
2998706 -0.9541627883572357 0.29079191829212914
2999320 -0.954500310069644 0.29040753028303784
2999934 -0.9545317868514097 0.2903962047923426
3000548 -0.9553181325418171 0.2915919937654665
3001161 -0.9555434658731587 0.29102540620863193
3001775 -0.9552785382193428 0.290877158590851
3002389 -0.9550009808002774 0.29116963600514895
3003003 -0.9539423024397332 0.29099443630072674
3003617 -0.9547355232946597 0.29077031277796583
3004231 -0.9543658288867842 0.29151736071006
3004845 -0.954404267310297 0.29121095168871797
3005459 -0.9547140332249041 0.2913852492022498
3006072 -0.9540613942947869 0.29136844468070505
3006686 -0.9537159363154069 0.2908863213973087
3007300 -0.9542750533817254 0.2918978378814455
3007914 -0.9541205889454119 0.29148975218357726
3008528 -0.9538778187546303 0.29145892440281224
3009142 -0.954508799951453 0.29208403980490943
3009756 -0.9542507343368655 0.291387346008423
3010370 -0.954140247659047 0.2912465150868136
3010983 -0.9543550708328369 0.2918082615030576
3011597 -0.9538002287728585 0.2916216155187348
3012211 -0.9539134888481857 0.29114910154921747
3012825 -0.9545313570351716 0.2922618590430069
3013439 -0.9541333289784596 0.29203730375450593
3014053 -0.9547683215707196 0.2921555293431164
3014667 -0.9543502836059673 0.29252074516827503
3015280 -0.9535090318318387 0.2920736626346897
3015894 -0.9546278970711559 0.2920615455525675
3016508 -0.9546051106510468 0.2925022518489504
3017122 -0.9535768445187681 0.29233711331825163
3017736 -0.9541029464290521 0.2918162678868948
3018350 -0.9539834212042955 0.29270877776134696
3018964 -0.9543667760386337 0.29222743930883927
3019578 -0.9538959864788941 0.292233540919863
3020191 -0.9538063282728113 0.29218759199488653
3020805 -0.9536004360304239 0.2921564292768162
3021419 -0.9541038980025319 0.29219156069429586
3022033 -0.9542302652677819 0.2930239161532438
3022647 -0.9540566181157982 0.29296423937495514
3023261 -0.9540338386839138 0.29233842662772197
3023875 -0.9537333023014662 0.29261103100878777
3024489 -0.9535447837530222 0.29280518779284453
3025102 -0.9535464279683254 0.2920155684921478
3025716 -0.9533352611648419 0.2932699657762576
3026330 -0.9535594721170516 0.2929902402256704
3026944 -0.9541179744473612 0.29344501056000816
3027558 -0.953799450438765 0.29332909783891503
3028172 -0.9538617289800547 0.29278081059918326
3028786 -0.9541040234797555 0.2938036980899615
3029400 -0.9536932287367377 0.2935548019061978
3029400 -0.9539813143986908 0.2932166935552841
3030026 -0.9536228700225294 0.2939480682023282
3030653 -0.953483736421895 0.2933550162332828
3031279 -0.9540871163417645 0.29388146985385283
3031906 -0.953663010619765 0.2941501130311545
3032532 -0.9531298216273232 0.29345916099407515
3033159 -0.9535462730149665 0.29361001902827844
3033785 -0.9536471161066401 0.29427000155459315
3034412 -0.9530317072832231 0.2936953403811992
3035039 -0.9536344095001447 0.29419114475489916
3035665 -0.9534718604534625 0.2941324156062317
3036292 -0.9532683024842415 0.2941334973395727
3036918 -0.9534629805516411 0.2944812415986875
3037545 -0.9536280050943546 0.29484926167933206
3038171 -0.9527993915431675 0.29457192775564184
3038798 -0.95375209773538 0.2950024950509252
3039424 -0.9531773266849652 0.29455715463065907
3040051 -0.9528903309021397 0.2943930120954895
3040678 -0.9537790548858072 0.2949010822214471
3041304 -0.9533945506398612 0.2947803583638769
3041931 -0.9530997292525654 0.2948690766358016
3042557 -0.9541277022334841 0.2950979875765941
3043184 -0.9529834314017842 0.29513280728514013
3043810 -0.9528610989708384 0.29495898708575913
3044437 -0.9533704868505012 0.29502446253770775
3045064 -0.9530200697839466 0.2951239548389039
3045690 -0.9527492553968016 0.2951656809937105
3046317 -0.9536038432904743 0.2954045847799584
3046943 -0.9532628627240918 0.2953728209600318
3047570 -0.952799993939002 0.29509209296920447
3048196 -0.9534913087882945 0.2951005267311972
3048823 -0.9533289700887811 0.2952389719765016
3049449 -0.9527410472473067 0.29513702673682063
3050076 -0.9537819082009823 0.29554500878449996
3050703 -0.9529486028883419 0.29537589134634096
3051329 -0.9528391912781184 0.2954086217620346
3051956 -0.9533086598597518 0.2959625612399132
3052582 -0.952961852186468 0.2959904927997571
3053209 -0.9525134512785425 0.29605091261518907
3053835 -0.9534965080223871 0.29594004461106793
3054462 -0.9529950779777588 0.2959710027632049
3055088 -0.9529074521724797 0.2952874693584986
3055715 -0.9534373474173149 0.2957162681512999
3056342 -0.9526274138093895 0.2962186119486849
3056968 -0.9524111932874998 0.2958863389543747
3057595 -0.9529614801373618 0.29649977809878686
3058221 -0.9523074456029883 0.29642655907058807
3058848 -0.9521092514657582 0.2959499054014706
3059474 -0.9525305287208282 0.29639712904294957
3060101 -0.9527857212179248 0.29651915392697525
3060728 -0.9529326677699284 0.2959590571952654
3061354 -0.9532201613371034 0.296020435632212
3061981 -0.9529732661563152 0.29672080409436175
3062607 -0.9527841111027028 0.2960663464581073
3063234 -0.9527859250624885 0.2966923885558669
3063860 -0.9524740630092992 0.2969532151779522
3064487 -0.9521159991729398 0.29626913568965013
3065113 -0.9528082048453813 0.29633970534740306
3065740 -0.9524127364214797 0.29673786467018914
3066367 -0.9525265893959277 0.29611224142736997
3066993 -0.9527291083019395 0.2967603469561722
3067620 -0.9524063013465319 0.29707360470978184
3068246 -0.9521384363109934 0.296783366761225
3068873 -0.9523904673790428 0.2974587729695324
3069499 -0.9522809399341672 0.29769276061206135
3070126 -0.9521955764856516 0.2972214834105515
3070752 -0.9525396899358772 0.29699207249715737
3071379 -0.9526616420331208 0.2977855885091163
3072006 -0.952542112220292 0.2973993957147528
3072632 -0.9527322897388625 0.2973336478367465
3073259 -0.952674395891333 0.29775028866357534
3073885 -0.9521819465054534 0.29697030758287063
3074512 -0.9522066849805552 0.29708701999182213
3075138 -0.9525021659423993 0.2977663401024975
3075765 -0.9517311061104856 0.29806075309874214
3076392 -0.9517140858102336 0.2974637605618865
3077018 -0.9523815304727312 0.29811602113921365
3077645 -0.952337831923542 0.29863003091480306
3078271 -0.9522153771228651 0.2984514172133027
3078898 -0.9520928190813778 0.2988225481381483
3079524 -0.9523131733819217 0.29876136639770245
3080151 -0.9520948657911312 0.29804965855936644
3080777 -0.9522491647642073 0.29865302968474927
3081404 -0.9522084159266593 0.29843938134044673
3082031 -0.9526079040656331 0.2977805180436285
3082657 -0.9525431668054263 0.298086362339749
3083284 -0.9523133673835673 0.29855278922950357
3083910 -0.9525753018638451 0.2986765138187723
3084537 -0.952501822480617 0.2987744227145604
3085163 -0.9520389879693659 0.29926864181429025
3085790 -0.9516608724960459 0.29904385253167026
3086416 -0.9523145783334167 0.29912393837736184
3087043 -0.9519792316160149 0.2995392312572416
3087670 -0.9516428229407844 0.2989614396419098
3088296 -0.9517957344397743 0.2992990733994428
3088923 -0.951956707463224 0.2996547699243846
3089549 -0.9517759603731818 0.29924272564014864
3090176 -0.9513107054207691 0.2985198849013119
3090802 -0.9520387624069244 0.2989520574553636
3091429 -0.9514751157123076 0.2993292376217366
3092056 -0.951307989823857 0.2992031411849177
3092056 -0.9520991707392421 0.29881506745237346
3092695 -0.951951396905255 0.29946204875959664
3093335 -0.9513774003410932 0.2993346304725876
3093974 -0.9512448027851157 0.299306265564856
3094614 -0.9510891500400368 0.2996469196678221
3095253 -0.9508101330908368 0.29972791176942715
3095893 -0.9512556099067981 0.299284175540636
3096532 -0.9519075186585115 0.30019749718311667
3097172 -0.9515827505683561 0.30006167954853497
3097811 -0.9514027503872738 0.30005339825919475
3098451 -0.9520716794615016 0.3004537295767348
3099090 -0.9516879596538643 0.3003107419766121
3099730 -0.9512164634325464 0.2998805793301692
3100369 -0.9518381645448503 0.30013970889877783
3101009 -0.9515136219457687 0.30015177044900243
3101648 -0.9512911051367856 0.2995070877279466
3102288 -0.9516960038007655 0.3004020863124074
3102927 -0.9512700011541694 0.30046647265499254
3103567 -0.951169048393886 0.3000606367641572
3104206 -0.9513105681246474 0.3006568092808627
3104846 -0.9510669434135091 0.30108898895201036
3105485 -0.9512197865236409 0.3003260846804821
3106125 -0.9512882127060109 0.300869814869287
3106764 -0.9517972042195755 0.30115775550363455
3107404 -0.9515444843346723 0.3008151958504213
3108044 -0.9514984433211915 0.3010295794346913
3108683 -0.9512258830134296 0.3014278800431554
3109323 -0.951109977849961 0.30068315034698534
3109962 -0.9512182677248399 0.30071473034695173
3110602 -0.9514162259415211 0.3011061205371302
3111241 -0.9511979134893622 0.3009680916929496
3111881 -0.9510023401554782 0.3008587106546628
3112520 -0.9518418774790935 0.3021226495667061
3113160 -0.9511830938536371 0.30217889073805515
3113799 -0.9508696204706911 0.3018593085078839
3114439 -0.9513687754149847 0.30239236659710067
3115078 -0.9508229034745058 0.3018391113726307
3115718 -0.9511453620928523 0.3015647323957009
3116357 -0.9513860987716443 0.30232600189861064
3116997 -0.9508941398551587 0.30220403005610313
3117636 -0.950680849316403 0.3014367655189061
3118276 -0.951231572174379 0.30184623746201916
3118915 -0.9512720423440404 0.30201227411913956
3119555 -0.9510337537115694 0.3013398789298817
3120194 -0.951270500048937 0.30256071507169746
3120834 -0.95098172557515 0.30215387986491865
3121473 -0.950937550938084 0.30195398297664094
3122113 -0.9512196357341961 0.30265934119849963
3122752 -0.9505236778531344 0.3029278347409656
3123392 -0.9506271439322281 0.30253480369225044
3124032 -0.9512314088744509 0.3026328084673595
3124671 -0.9508629598214916 0.30285106716772037
3125311 -0.9507223468053909 0.3021123023560031
3125950 -0.9509735191467692 0.30242646619677394
3126590 -0.9506908050956882 0.30235089229165674
3127229 -0.9502609330105702 0.30223347258098315
3127869 -0.9509528306499079 0.3024287039012844
3128508 -0.9510326591619416 0.30297189990306844
3129148 -0.9507961812779366 0.3025388887908663
3129787 -0.9508066214960671 0.30285454269197726
3130427 -0.9503254090369131 0.30334171405721383
3131066 -0.9501883563959801 0.3031764779327164
3131706 -0.9504100221502142 0.30319806874667465
3132345 -0.9510647541708493 0.30324915508167216
3132985 -0.9502922571576148 0.303370206020798
3133624 -0.9505677501130536 0.30304459802681644
3134264 -0.9512213414442615 0.30377652276847905
3134903 -0.9505399154219047 0.30349213616111986
3135543 -0.9508605281994492 0.30321897451249713
3136182 -0.9513636090978718 0.3039800546204063
3136822 -0.9508450495825015 0.3038779125710621
3137461 -0.9506393823593384 0.3030458170457541
3138101 -0.9508427223451801 0.3033552260489933
3138740 -0.9504922749557716 0.30338421796982146
3139380 -0.9505330642914618 0.3033449455995023
3140020 -0.9507825189059068 0.30373584034416384
3140659 -0.9500733883137006 0.3041927775452729
3141299 -0.9499686844831505 0.3039842530879505
3141938 -0.9506961574086468 0.3041542978079498
3142578 -0.9503203228836726 0.30400397110242794
3143217 -0.9502763953657817 0.3038425146596325
3143857 -0.9501434684090231 0.30403034980072496
3144496 -0.9508860011498207 0.3046903526256546
3145136 -0.9500968794953139 0.30470054464381296
3145775 -0.9500152727658487 0.3040279507461704
3146415 -0.9504714803402077 0.3043927178165735
3147054 -0.9499794080675562 0.30442617649927495
3147694 -0.9501347690969418 0.30347502382819797
3148333 -0.9500030759495972 0.3042808573167278
3148973 -0.9505331928235826 0.3046840982477779
3149612 -0.948937736305023 0.30383389934909893
3150252 -0.9500808256119322 0.30473464862367283
3150891 -0.9494830443581327 0.30502721403438426
3151531 -0.9499175059835971 0.3049970789489666
3152170 -0.9505255014571116 0.30510608123212546
3152810 -0.9503798825991774 0.30540995232839424
3153449 -0.9502970793297137 0.30515714039335934
3154089 -0.9507105102014232 0.3047484094245467
3154728 -0.9501121599156158 0.30529131594661585
3155368 -0.949742264941685 0.30491566854878865
3156008 -0.9496450125888068 0.30451589845419524
3156008 -0.9497716375405534 0.3051226534541531
3156660 -0.9492441791220435 0.3043945965246916
3157313 -0.9498060195036938 0.30571143267773204
3157966 -0.9491395085910903 0.3055917097252694
3158619 -0.9493618596032988 0.3052755939273369
3159271 -0.9500715310237878 0.30588639469944096
3159924 -0.9500131082557207 0.3063514892955734
3160577 -0.9494804053914339 0.3060660418147306
3161230 -0.9500578563304144 0.3059684577622488
3161882 -0.9498286776377293 0.30594456246541774
3162535 -0.9498935828028053 0.3052825238770937
3163188 -0.9499461034082612 0.30553079005695216
3163841 -0.9504629569989959 0.30607001117388827
3164493 -0.9498751350616075 0.30596552331099547
3165146 -0.9498747780411139 0.3053342252700907
3165799 -0.9496159267274912 0.30676885305719026
3166452 -0.9491845215131794 0.30611461998431233
3167104 -0.9493149761215474 0.3060035173243559
3167757 -0.9497816871921927 0.3069038294117604
3168410 -0.9499234307326966 0.3069016947073937
3169063 -0.9495628063660049 0.3062728607989157
3169715 -0.9503963240287184 0.30676028185706683
3170368 -0.9496279894605278 0.30664849383622994
3171021 -0.9493140195411746 0.30678844391392074
3171674 -0.9494189015253467 0.30634315771097137
3172326 -0.9498428642264897 0.30728193509190255
3172979 -0.9490755177673434 0.30707514083221565
3173632 -0.9494472183313452 0.3063425248835233
3174285 -0.9493655590769923 0.30700115069032285
3174937 -0.9494069291038535 0.3071067282619303
3175590 -0.9490033728630044 0.30718556817154374
3176243 -0.9498017422074264 0.3074326142743432
3176896 -0.9494522681576 0.3078870705772935
3177548 -0.9492865025229091 0.30780081459124786
3178201 -0.9497376017923594 0.3079489513118923
3178854 -0.9495798959416109 0.30842025815793417
3179507 -0.9488154409811652 0.30770657978749977
3180159 -0.9493882160923796 0.30730428196911147
3180812 -0.9493041505444265 0.30792788065403265
3181465 -0.9491659897417447 0.3078322473251632
3182118 -0.9488027560705142 0.30716499872411174
3182770 -0.9490213622494522 0.30749722410245617
3183423 -0.9490716796803634 0.3080827096910342
3184076 -0.9490688228593965 0.3075588143230623
3184729 -0.9496638174012544 0.30802692425490885
3185381 -0.94949410309874 0.30790876635589903
3186034 -0.9488916583913596 0.30807780564112996
3186687 -0.9484937113208965 0.3073562167914316
3187340 -0.9492374765931617 0.3081013916575708
3187992 -0.9488245404565484 0.30752356297291733
3188645 -0.9493555474596906 0.3082222783013146
3189298 -0.9492327015241185 0.3085086269038549
3189951 -0.9488680590683087 0.3082032350188335
3190603 -0.9490038085328001 0.3085344585320023
3191256 -0.9490371995354949 0.3089161915984124
3191909 -0.9484638970992058 0.3089632099432847
3192562 -0.9482464053092503 0.3085045334147827
3193214 -0.9487615050340844 0.30924196465954784
3193867 -0.9481942181633003 0.30881971350365395
3194520 -0.9479651027732223 0.30814220239708556
3195173 -0.9486883318139162 0.30902156683165266
3195825 -0.9486505102065251 0.3093048685253595
3196478 -0.9479993289402474 0.3086521578682803
3197131 -0.9486696483110318 0.3087008567389139
3197784 -0.9488802107034 0.30913491455487524
3198436 -0.9485082018378599 0.3087365281862865
3199089 -0.949231152937451 0.3091360875337546
3199742 -0.9490430474845714 0.3097666976261519
3200395 -0.9484301586408915 0.3099597623490157
3201047 -0.9484293766398645 0.309685789146533
3201700 -0.9488873596059821 0.3100084212565777
3202353 -0.9481523842265297 0.3096483675278615
3203006 -0.9483948133457728 0.30886169714569744
3203658 -0.9487216432256065 0.30978247564968303
3204311 -0.94817256879264 0.3098031586263151
3204964 -0.9479849188832846 0.3093334723108332
3205617 -0.9485679193296942 0.3096492925756167
3206269 -0.9486890268259066 0.30999682069102785
3206922 -0.9483408172147404 0.30992860192361055
3207575 -0.9489546085630268 0.31029734212251087
3208228 -0.9490541450147025 0.31036849764540536
3208880 -0.9481693402844649 0.3104431532904697
3209533 -0.9485912512424265 0.3098561851504767
3210186 -0.9487696485908809 0.31094021296640273
3210839 -0.9480114177058758 0.31058852753634547
3211491 -0.9476097943304862 0.31016524606226265
3212144 -0.9485507949530101 0.3109433816243932
3212797 -0.9480070468822088 0.31063707993952433
3213450 -0.9476172139676764 0.31012170097870423
3214102 -0.948351642855209 0.31060647009620146
3214755 -0.9483331602446993 0.31094549267989396
3215408 -0.9481073866011391 0.31086021390217516
3216061 -0.948118385059826 0.31018264839196874
3216713 -0.9480231661310871 0.3105849430374956
3217366 -0.9481044785386208 0.31124668897137375
3218019 -0.9481837704380369 0.31070382062971014
3218672 -0.9485168967616882 0.3116336162350627
3219324 -0.9482963022918474 0.3116982375834247
3219977 -0.9473628684322462 0.31105032317837056
3220630 -0.9483822621577583 0.31143470915155735
3221283 -0.947958278021681 0.311244062305578
3221283 -0.9472275369397563 0.3113585132142067
3221949 -0.9480664707520716 0.3115748425359649
3222615 -0.9480174729271127 0.31170075154156796
3223281 -0.9475095898142927 0.3115058367949836
3223947 -0.9476397200332953 0.311023843283205
3224614 -0.9481756737806432 0.3116079708098411
3225280 -0.9481597614578522 0.31159607183158033
3225946 -0.9475523089536728 0.3115067004845284
3226612 -0.9479596310577431 0.31152731662240357
3227279 -0.9477321491329705 0.31190551084546286
3227945 -0.9474756088183346 0.31197695074267345
3228611 -0.9473170291054691 0.3110549485025245
3229277 -0.9479881224011089 0.31201582513086
3229944 -0.9479493284575086 0.3121356259912107
3230610 -0.9474895270781323 0.31195590076330887
3231276 -0.947042980369803 0.3114757861671775
3231942 -0.9477388116433365 0.3120407234307146
3232609 -0.9479799497459299 0.31256365374492107
3233275 -0.9472123429402711 0.31233615166956913
3233941 -0.947686704145747 0.31256362854116165
3234607 -0.9473674523219824 0.313123133235508
3235274 -0.9467249988818528 0.31323531872890115
3235940 -0.9469554583379343 0.31232719351654453
3236606 -0.9474249892897835 0.31261682612924413
3237272 -0.9474705416302113 0.31292048878711676
3237939 -0.9469001407974936 0.31298766671354167
3238605 -0.9466875976649144 0.31208675695343535
3239271 -0.9471906972455472 0.3133634079626562
3239937 -0.9472532668570071 0.31329742085057133
3240603 -0.9468162704857038 0.3133068074792651
3241270 -0.9477206612534109 0.3136323105399264
3241936 -0.947683514374401 0.3135836265855852
3242602 -0.9467877046345458 0.3135815839686265
3243268 -0.9471113064631758 0.31285781621342446
3243935 -0.9475808276122966 0.313651456824238
3244601 -0.9474988721606937 0.3137443508393888
3245267 -0.9469229076261996 0.31384020092478804
3245933 -0.9470172371960398 0.31335279794720633
3246600 -0.947054776178541 0.3141104206340209
3247266 -0.9468361942535454 0.31465234719148993
3247932 -0.946519552234759 0.3140494644281574
3248598 -0.9476092261114734 0.31367231648638255
3249265 -0.9473961844104878 0.31406939090695274
3249931 -0.9469093430276236 0.3137002307023069
3250597 -0.9471690688025931 0.31314882244260084
3251263 -0.9473669020225244 0.3144435616148242
3251930 -0.9474604880506787 0.31412321481383565
3252596 -0.9472391881327848 0.31465077165763844
3253262 -0.9475732231584785 0.31418887332945994
3253928 -0.9476326854170977 0.3148213238375327
3254595 -0.946553313565953 0.3142808111621253
3255261 -0.9463796685410863 0.3137264071061604
3255927 -0.9471948193257022 0.3149509477355357
3256593 -0.9466842144899722 0.31462173433131885
3257259 -0.9462320245673521 0.3144808451012624
3257926 -0.9469963573118975 0.31438601518032977
3258592 -0.9469652624001279 0.31495734619867144
3259258 -0.9464055893224985 0.314496921206745
3259924 -0.9468733590265761 0.31423974746934197
3260591 -0.9475123635180376 0.3149786194998719
3261257 -0.9471746000544682 0.31478991066365036
3261923 -0.9466715319614608 0.31487305882231925
3262589 -0.947110277804636 0.31541440405515286
3263256 -0.9467500391971599 0.31602559269883507
3263922 -0.9459788322213487 0.3159656981570828
3264588 -0.9460278057083052 0.3152230032918685
3265254 -0.9465462119757246 0.31597616712993715
3265921 -0.9464071165391984 0.3159313908606593
3266587 -0.9461188878974781 0.31534917656592076
3267253 -0.9469720575254058 0.31566029571590615
3267919 -0.9468285037122254 0.3156017789909644
3268586 -0.9460653413030252 0.3154034367594406
3269252 -0.9461803767486371 0.3148963850665786
3269918 -0.9467185731410706 0.31615926049264936
3270584 -0.9460551519702889 0.31603411929216246
3271251 -0.9457876085612067 0.31536916331616405
3271917 -0.9468105473950962 0.31575630264592486
3272583 -0.9468805688307416 0.31587775116514416
3273249 -0.9461851368910801 0.31604434919743496
3273915 -0.9467090957586802 0.3154503989603132
3274582 -0.9461231111952259 0.3166593984496259
3275248 -0.9460604499705513 0.3166600147839054
3275914 -0.9460919020648515 0.31628413367820646
3276580 -0.946775505618125 0.3167628578109101
3277247 -0.9467637486793928 0.31656109943481214
3277913 -0.9463578523200291 0.31658724638089586
3278579 -0.9466605250678498 0.3160026259614494
3279245 -0.9461864526354657 0.31687923105945576
3279912 -0.9457174537202386 0.3167677685341048
3280578 -0.9455021902525537 0.3164799334790253
3281244 -0.946436117544349 0.3172960524935492
3281910 -0.9465422959242663 0.3172913667025692
3282577 -0.9460848315643327 0.31675428231007974
3283243 -0.9469147197078399 0.3163596888875586
3283909 -0.9465669537762182 0.31693951356613576
3284575 -0.9462986997618609 0.31731139547869786
3285242 -0.9462722117452259 0.31702830381156394
3285908 -0.9467502947065823 0.31769973694385095
3286574 -0.9466030690512077 0.3176708747017856
3287240 -0.9460825465578296 0.3173445570105395
3287907 -0.9463644544920795 0.31726545158197805
3287907 -0.9466358739183313 0.3173739041824125
3288587 -0.9461847115265244 0.3176790246614808
3289267 -0.9456186458242604 0.3175936825490716
3289947 -0.945134711396191 0.31672897301529485
3290627 -0.9459408323835456 0.3175112480205612
3291307 -0.9460754964871649 0.3179496384361193
3291987 -0.945605143263157 0.31769751108004185
3292667 -0.9467199238798116 0.31759820329941973
3293347 -0.9462373092034023 0.3184010971151746
3294027 -0.9457424611864881 0.31829342023956103
3294707 -0.9459702744569176 0.31792371185780177
3295387 -0.9464860859753648 0.31825230809463245
3296067 -0.9459776725632412 0.31837936289710134
3296747 -0.9453333144103488 0.3186832633910698
3297427 -0.9450398352333993 0.3178746963572827
3298107 -0.945952110912277 0.3189557074870916
3298787 -0.9459124545666436 0.31873407430477474
3299467 -0.9453771982890095 0.31850558334359064
3300147 -0.9445867036659188 0.31756856461121075
3300827 -0.9457075784575983 0.31877316550133933
3301507 -0.9445901559874276 0.31853237254075584
3302187 -0.9444417942882721 0.3180655195917881
3302867 -0.9456051179482124 0.31865410498613744
3303547 -0.9456903984718839 0.3187703669466633
3304227 -0.9450184684519457 0.31895078540520433
3304907 -0.9449760975568559 0.31823787426223227
3305587 -0.946026744061799 0.31887946797277267
3306267 -0.9460603617598385 0.3193922927320448
3306947 -0.9452393293267962 0.31889476465616656
3307627 -0.9457282080246715 0.31906009101555327
3308307 -0.9453766889646464 0.31961844890915775
3308987 -0.9445955072972633 0.3198998176807632
3309667 -0.9450355786862066 0.3195109276071365
3310347 -0.9459322528390177 0.3199350669696132
3311028 -0.9455321465498119 0.31961591619093627
3311708 -0.9448073310651629 0.3193864081209823
3312388 -0.9447879173618586 0.318576213092095
3313068 -0.9457584536081809 0.3199380171636038
3313748 -0.9450097424977614 0.3201254187037602
3314428 -0.9444669281421871 0.3197676961399907
3315108 -0.9454129780533392 0.31974664010049
3315788 -0.9450388315533422 0.32038288511336943
3316468 -0.944750625133664 0.3202934637310236
3317148 -0.9453376341337422 0.3199496080800186
3317828 -0.9457451617480306 0.32023315570469785
3318508 -0.9447328201168571 0.3201898599742877
3319188 -0.9443364469960858 0.32016365098941146
3319868 -0.9446511543427936 0.319937335282748
3320548 -0.9452619287509519 0.32117276537520045
3321228 -0.9449756476332013 0.32069115972926243
3321908 -0.9445235846872467 0.32088965599110936
3322588 -0.9450421981841146 0.32087592798417697
3323268 -0.9441954606749411 0.32047581203867187
3323948 -0.9449635286338236 0.32035982620204073
3324628 -0.9447557726919862 0.32148595965078236
3325308 -0.9447516749521921 0.32151571713616245
3325988 -0.9442033497170623 0.32124036190391636
3326668 -0.9449853590001984 0.3213204959013231
3327348 -0.9448922303314748 0.32131722453818923
3328028 -0.9440226944224402 0.3214011978794782
3328708 -0.944278524711768 0.3206283725573216
3329388 -0.945101800709998 0.32163739622207405
3330068 -0.9446855664619226 0.32148322085935915
3330748 -0.9441938033200724 0.3213825207294946
3331428 -0.9445798314393554 0.321222718665751
3332108 -0.9446208110755261 0.32173724862014463
3332788 -0.9444979230586364 0.3218119072501387
3333469 -0.9441989074859317 0.32137274856553916
3334149 -0.9447062859359766 0.3212912827668805
3334829 -0.9444929400387176 0.3217510561313214
3335509 -0.9438835494961259 0.32171859823712645
3336189 -0.9444860239899012 0.3220597621490277
3336869 -0.9451110998398815 0.3227924367952807
3337549 -0.9452706337761514 0.32247375647249477
3338229 -0.9441088264796035 0.3221775606408672
3338909 -0.9448126692869059 0.32170043665368203
3339589 -0.945170743141171 0.32294867885295175
3340269 -0.943743674102682 0.3223141005158262
3340949 -0.9438271181654776 0.3218025200645275
3341629 -0.9444105625696783 0.3221969251674249
3342309 -0.9442171096087536 0.3224786890583022
3342989 -0.9435430605856902 0.3227322078742364
3343669 -0.9442681788937946 0.32265143850405203
3344349 -0.9450128979250745 0.32301163751006245
3345029 -0.9446785855823281 0.32286625412245745
3345709 -0.9437171414467886 0.3225464199090065
3346389 -0.9443146092903738 0.32222161220660994
3347069 -0.9448521856233145 0.3234737071507876
3347749 -0.9443167070906001 0.3232300882579372
3348429 -0.9437888341604863 0.32279363676657213
3349109 -0.944952501171644 0.32309732772692457
3349789 -0.9446527545535646 0.3235210999796848
3350469 -0.9437404386373404 0.32350451011624726
3351149 -0.9438449519349413 0.3230187899416358
3351829 -0.9445114003387987 0.32318948578277734
3352509 -0.9440653004839418 0.32329984678707563
3353189 -0.9433155592678694 0.3229134540426527
3353869 -0.9439829991192523 0.32293198715937965
3354549 -0.9446778047683692 0.3240870362917594
3355229 -0.9441413858047871 0.32432878001969523
3355910 -0.9434987843470631 0.3234729232153153
3355910 -0.9440580647825815 0.3241459528103009
3356604 -0.9439083765664003 0.3236119397613389
3357298 -0.943552749247756 0.32337481431411774
3357992 -0.9432532947866225 0.32360311154852694
3358686 -0.9443821414431438 0.32384104234085476
3359380 -0.9440750903432511 0.32421136728856353
3360074 -0.9434454922722391 0.3239970103231651
3360768 -0.9433606449741841 0.3240334448533025
3361462 -0.943954137203976 0.3248748250010361
3362156 -0.9434282481859371 0.3245964777619016
3362851 -0.9428750805128877 0.32430096389588187
3363545 -0.9435425907518356 0.32367663078011416
3364239 -0.9440263045945588 0.324101237112525
3364933 -0.9434705873091886 0.3245415386072851
3365627 -0.9429776007777648 0.32489748527269563
3366321 -0.9441630127985444 0.32445278469470706
3367015 -0.9444792547782909 0.3251831900569967
3367709 -0.9435383105043234 0.3247028147266039
3368403 -0.942789743966818 0.3243579546518879
3369097 -0.9436604659258775 0.32435907747683823
3369792 -0.9432610656393491 0.3248262523862563
3370486 -0.9428167290581884 0.32468240795007475
3371180 -0.9428691427151312 0.3248239638678151
3371874 -0.9435247000951397 0.3248622297786017
3372568 -0.943376762626078 0.3257619422437893
3373262 -0.9432747561732941 0.32605413158579355
3373956 -0.9426472541932935 0.32534277045417387
3374650 -0.9434175218358025 0.32555223936421906
3375344 -0.9430481465836105 0.3256313090292402
3376038 -0.9427988641611936 0.3256454311871301
3376733 -0.9422226502877574 0.3251374419301337
3377427 -0.9431151718991745 0.3257328453024593
3378121 -0.9429899428286046 0.32556873043798984
3378815 -0.9425904834480207 0.32603288623368126
3379509 -0.9426593440406901 0.3257115051546047
3380203 -0.9436082254093509 0.32644250395065877
3380897 -0.9434555108167016 0.32625174886047975
3381591 -0.9425943035804877 0.32594868728282195
3382285 -0.9426874155450519 0.32592378001819783
3382979 -0.943367481282941 0.326593147892565
3383674 -0.9428878452550647 0.3267223371544199
3384368 -0.9423859149542642 0.3264328147330753
3385062 -0.9428820342568217 0.3260872405776802
3385756 -0.9428634503019803 0.32697779246059144
3386450 -0.9424965511891746 0.32665519092792483
3387144 -0.9419173680694373 0.32666336014876657
3387838 -0.9432495555201961 0.326674413390314
3388532 -0.9413712573992541 0.3266043799668794
3389226 -0.9433324267557066 0.32653816031410443
3389920 -0.9429853464530503 0.3274730901534858
3390615 -0.9428019873659544 0.32689714882224635
3391309 -0.9421322040573217 0.32663562366202503
3392003 -0.9431308466609549 0.3265439838916568
3392697 -0.9432406051918025 0.327463664459125
3393391 -0.9423837623213029 0.32718790435604705
3394085 -0.941539370517149 0.3272243167302726
3394779 -0.9431346289436051 0.3271727304850173
3395473 -0.9432988725844323 0.32807863874584675
3396167 -0.9425167171447921 0.3280637740118389
3396861 -0.9424689380479634 0.3276391178705948
3397556 -0.9419941467146961 0.3268225842259012
3398250 -0.9422805560339415 0.3276565639375966
3398944 -0.9420372219218701 0.32799609173551414
3399638 -0.9419844191680553 0.3276687463291427
3400332 -0.9419663006584693 0.32734347118727763
3401026 -0.9423033762368774 0.3280829634893324
3401720 -0.9418950848070943 0.3278627866632262
3402414 -0.9415167611451621 0.3276591951819845
3403108 -0.942177718128845 0.32763125368755974
3403802 -0.9429030499814733 0.32865464210568107
3404497 -0.9424623251196557 0.32843517645722137
3405191 -0.9416036329417626 0.3287587354745204
3405885 -0.9421532825995522 0.32827687038903364
3406579 -0.942388599094715 0.3285878095224012
3407273 -0.9425305526296568 0.3284511270691331
3407967 -0.9416764949893446 0.32824842202701504
3408661 -0.9420181039767767 0.3285755585022432
3409355 -0.9424139702159458 0.32919160717742263
3410049 -0.9426190153553567 0.3290990424244246
3410743 -0.9420017643698904 0.32882230972555965
3411438 -0.9414749360779422 0.3284824134282556
3412132 -0.9427077025310237 0.3292528566191011
3412826 -0.9429738950210804 0.3293831245020241
3413520 -0.9421298601406647 0.32936713874353946
3414214 -0.9418728887591362 0.32869781303399564
3414908 -0.9427367607949427 0.329326218877434
3415602 -0.942436178994708 0.3295888006454877
3416296 -0.9415080420564649 0.3296155721085803
3416990 -0.9411450563359895 0.3291846927768747
3417684 -0.9424644065004373 0.32926402297439644
3418379 -0.9421780100659606 0.3295815050226317
3419073 -0.9416999615501211 0.32968078716085264
3419767 -0.9413080154742333 0.32957440280915756
3420461 -0.9425363486507926 0.3295992380564674
3421155 -0.94264166717668 0.3303815905626487
3421849 -0.9416075168302742 0.3299833599199849
3422543 -0.9417879493731416 0.3298119207838758
3423237 -0.942051442987648 0.3293465228136766
3423931 -0.9423470444885022 0.33020952000067133
3424625 -0.9417865516697707 0.3306985653036176
3425320 -0.9407888938915568 0.33017481915646024
3425320 -0.940605803184956 0.33040046880881113
3426028 -0.9421896944625333 0.33062178196953784
3426736 -0.941978104586682 0.33104319741250277
3427445 -0.9414151952756843 0.3305077872331749
3428153 -0.9405554436235842 0.32953897085076306
3428862 -0.941426133016749 0.32984827896764607
3429570 -0.9421114849365669 0.3307054171617809
3430279 -0.9411494244041241 0.33109014111718976
3430987 -0.940543018331378 0.3309766469015614
3431695 -0.9412930812199606 0.33083279996137627
3432404 -0.9416661528478105 0.33125867695996764
3433112 -0.9410612695252547 0.3313253815636974
3433821 -0.9404638408390065 0.3305793411756592
3434529 -0.9410285380901283 0.3305514480071565
3435238 -0.9413721723052333 0.3312666125776142
3435946 -0.940852894410853 0.3311046882697063
3436655 -0.9405262092357126 0.33144692103624446
3437363 -0.9406581260736953 0.3310531716229687
3438071 -0.9409325466605967 0.33124047464814643
3438780 -0.9410202098261312 0.33115311314045515
3439488 -0.9402868228080676 0.3316480842525819
3440197 -0.9408647739483001 0.33136998854859173
3440905 -0.9411875021246823 0.33149626524442716
3441614 -0.9412251822903784 0.33185471570267006
3442322 -0.9410752291595321 0.3320360986238532
3443031 -0.9405477337919727 0.3317690392162152
3443739 -0.941464449944425 0.3320172469705281
3444447 -0.9417668772367054 0.3322914327959086
3445156 -0.9411137375560455 0.3319545540299475
3445864 -0.9407979674444645 0.3312776061103321
3446573 -0.9416413416480143 0.3319208196308227
3447281 -0.9414571839561 0.3320746060219794
3447990 -0.9406189252743364 0.3318124231997823
3448698 -0.9403862419370363 0.3316659360081778
3449406 -0.9410982641939656 0.33133221342146985
3450115 -0.9410638516818082 0.3319401510941853
3450823 -0.9402941150706993 0.332143518898637
3451532 -0.9397119718235285 0.3319472977679161
3452240 -0.9409937494509514 0.33228200341547887
3452949 -0.9406413652421521 0.3328399779712759
3453657 -0.9403567696148153 0.33259579415571033
3454366 -0.9401289956967146 0.3325178135762446
3455074 -0.9406853031036408 0.3322331954695632
3455782 -0.940839749453826 0.33313524336798184
3456491 -0.940733713551602 0.3333697699439886
3457199 -0.9402874144410188 0.3333180800861481
3457908 -0.94044372336047 0.33329438462289035
3458616 -0.941045025321903 0.3335256468157609
3459325 -0.9402862386420529 0.33357727425200295
3460033 -0.9395820457927689 0.3333945603494123
3460742 -0.9403370668371581 0.33335618613011336
3461450 -0.9406833393238663 0.3336887808950952
3462158 -0.9404421551111314 0.33341271227246233
3462867 -0.9406457412836245 0.3332207834752392
3463575 -0.9412141834962265 0.334326037284858
3464284 -0.9406706437439087 0.334204350817819
3464992 -0.9396224297129138 0.33386749450334974
3465701 -0.9402166241882377 0.3334032585074393
3466409 -0.9410144309346662 0.3340399443950647
3467117 -0.9401176071432182 0.3337747983866341
3467826 -0.9402121812228718 0.33445368976931134
3468534 -0.940282866006414 0.333972336612332
3469243 -0.9401843978144157 0.33426542131048637
3469951 -0.9402154682392099 0.33453298490472105
3470660 -0.9401106880074614 0.3340956375226351
3471368 -0.9395957014247391 0.3337352316442778
3472077 -0.9406431020875445 0.3336117988328255
3472785 -0.9409972214053137 0.3348204687872035
3473493 -0.9401845822672901 0.3344741521105784
3474202 -0.9395277409008753 0.33483557479235143
3474910 -0.940565011513215 0.33446766626471397
3475619 -0.9406213273586306 0.3351931099987917
3476327 -0.9402914254940195 0.33529562736798585
3477036 -0.9387102087750233 0.3342528005337143
3477744 -0.9402711975208272 0.3348343607048186
3478453 -0.9402304807188233 0.33530895440080144
3479161 -0.9403498245102668 0.33596306568922746
3479869 -0.9388886092199283 0.33475410079418627
3480578 -0.9399390522205193 0.3352270810671431
3481286 -0.940324482645593 0.3357833391528828
3481995 -0.9396773437003535 0.33575907867917126
3482703 -0.9388613421694157 0.3350408655443522
3483412 -0.9396725171471038 0.3348351125784868
3484120 -0.9398490342646952 0.3351785474347366
3484828 -0.9395742560413586 0.33560943571981633
3485537 -0.9390362854793678 0.33595295884110227
3486245 -0.939506902671663 0.3356618251196987
3486954 -0.940069650929171 0.3359864274670651
3487662 -0.939924584523485 0.33598326389974903
3488371 -0.9392135920095662 0.33587444310438164
3489079 -0.9391536293206314 0.3360089205833134
3489788 -0.9401394430745088 0.3364655953776844
3490496 -0.9401828243722653 0.3372192230088087
3491204 -0.9394411915391224 0.3361054498892803
3491913 -0.9386092576416727 0.3366372421883764
3492621 -0.9398746899197741 0.33637402650903203
3493330 -0.9398062060755253 0.33682909668591304
3494038 -0.93923429288796 0.336655805014696
3494747 -0.9384600291816328 0.3363421646030004
3495455 -0.9395460454032324 0.3368102728488468
3496164 -0.9398906659249385 0.3370596472303557
3496164 -0.9391075897432547 0.3370396735382374
3496887 -0.9397822002078556 0.3369701555344603
3497610 -0.9395496137368465 0.3371505226626211
3498333 -0.9386067970021318 0.3368067302637999
3499056 -0.9393248877671988 0.33678611893496524
3499779 -0.9403062900662167 0.33692999611661023
3500502 -0.9404863218681745 0.33762549148803456
3501225 -0.9392502757776353 0.33712345684486195
3501948 -0.9389477983125561 0.337127765133096
3502671 -0.9391589361439888 0.33751828457736155
3503395 -0.9393100231834908 0.3378235957360206
3504118 -0.9384977266511257 0.3373943963310787
3504841 -0.9380441646325663 0.3374113409230639
3505564 -0.9384824273203327 0.3367609496016663
3506287 -0.9392146052342367 0.3374288300925342
3507010 -0.9387373499997713 0.3377827974453846
3507733 -0.9378677712548896 0.33773577281121925
3508456 -0.938289537755809 0.33725765084167963
3509179 -0.9384883196837798 0.3376164925517921
3509903 -0.938988227624697 0.33781053766755953
3510626 -0.9384710345422079 0.3381789147695948
3511349 -0.9382089551974553 0.3382327654049209
3512072 -0.9388476466172827 0.3383981482977728
3512795 -0.9392391079741728 0.33881667190845205
3513518 -0.9383536499957521 0.33882997062179687
3514241 -0.9378517789541068 0.33829922554627556
3514964 -0.9386054561237399 0.33805802155119885
3515687 -0.9392475254635668 0.33832630480378534
3516411 -0.9390757517832532 0.33849422202548146
3517134 -0.938637340484468 0.33825677580051594
3517857 -0.9379465766126145 0.33829797164071895
3518580 -0.9385848689625313 0.33846938361269163
3519303 -0.9387416918756871 0.33918941655594315
3520026 -0.9382367817975803 0.338983564818843
3520749 -0.9381541778245559 0.3382770071112854
3521472 -0.9385528355577913 0.3384839812158017
3522195 -0.9390130667980864 0.33857893320504906
3522919 -0.938732161683636 0.3391523989054252
3523642 -0.9382262183003346 0.33909379713791915
3524365 -0.9384322732601079 0.33919824443719643
3525088 -0.9385424128908962 0.339536484652984
3525811 -0.9388739928536094 0.33975232316898296
3526534 -0.9378315726938518 0.3394730306062097
3527257 -0.9375565367742555 0.3389059150523814
3527980 -0.9379946886861695 0.33941965617141845
3528703 -0.9385848319011149 0.33924181596568953
3529427 -0.9380263475176065 0.3401708808039678
3530150 -0.9369221971829522 0.3390781044089342
3530873 -0.9382918529827775 0.3396950743103017
3531596 -0.9382694740518852 0.34047243265960514
3532319 -0.9382010619494572 0.340672039129271
3533042 -0.9374031782560341 0.33991648464101315
3533765 -0.9373679971332876 0.3397841761603457
3534488 -0.9383619319670147 0.3403480168070506
3535211 -0.9386417595437525 0.3406840805011341
3535935 -0.9382549867727944 0.34094331240111364
3536658 -0.9372169873269803 0.3405330910264437
3537381 -0.9381289565822907 0.34059392179101927
3538104 -0.9382188196472189 0.3407490565168865
3538827 -0.9379625540355915 0.3407134828156533
3539550 -0.9372233664897576 0.3403610001977338
3540273 -0.937626186577343 0.3404982303517004
3540996 -0.9386146656159228 0.3409649139170629
3541719 -0.9381653158783914 0.34142461489308773
3542443 -0.9378667440935741 0.34079896825474465
3543166 -0.9370492719427761 0.3403026420145903
3543889 -0.9374814565769003 0.34055852878474874
3544612 -0.938518650600884 0.3406789462723344
3545335 -0.9375946395244463 0.341273468728113
3546058 -0.9368461673452673 0.3409088010508961
3546781 -0.9373889445976384 0.34088097201780493
3547504 -0.937669229788336 0.34094761721400757
3548227 -0.9374176640327017 0.3419398135045954
3548951 -0.9367907816924071 0.3416699300380126
3549674 -0.9372192010796623 0.3417906988262245
3550397 -0.9378942592987476 0.3416189411213292
3551120 -0.9377615386697586 0.3419395141039621
3551843 -0.9371558889810178 0.3418665981355673
3552566 -0.9363368570762921 0.34233972575777327
3553289 -0.937143463461388 0.342734421902504
3554012 -0.9375028879631896 0.34233000871024505
3554735 -0.936738602961268 0.3420122000693098
3555459 -0.9371819231959931 0.3420071446168221
3556182 -0.9370048585164878 0.3417823269361393
3556905 -0.9376760136542982 0.34242351247137665
3557628 -0.9374035608444012 0.3428323728325425
3558351 -0.9368139069607719 0.34233420334728515
3559074 -0.9363883376266522 0.3425058637625092
3559797 -0.9373631722782799 0.3425160931266299
3560520 -0.9376387569411444 0.3425761736292301
3561243 -0.9369453953652277 0.3420822716940748
3561967 -0.9363315092074614 0.342152905212784
3562690 -0.9374048074849959 0.3423830727085507
3563413 -0.9377313913565477 0.34281519263524374
3564136 -0.9369838012864578 0.34301054912959866
3564859 -0.9373231705813332 0.34326078356406003
3565582 -0.9369281328536232 0.3431024435917602
3566305 -0.9371392290592795 0.34320504956845854
3567028 -0.9371618448187928 0.3432485016711291
3567751 -0.9364990813089118 0.34283811492112787
3568475 -0.9362257652000692 0.3429243322073505
3568475 -0.9362147232820655 0.3429758655440833
3569213 -0.9368064440507425 0.34320107387019205
3569951 -0.937066501874274 0.34321323335370985
3570689 -0.9370135840835894 0.3438346903270405
3571427 -0.9362838014946786 0.34381727403070544
3572165 -0.9354627321463442 0.34362193591936563
3572903 -0.936710980794661 0.3436749532423228
3573641 -0.9368412390991843 0.3439598616840529
3574379 -0.9374049185801723 0.3445891900128136
3575117 -0.936879708965647 0.3441333773233928
3575855 -0.9363448345588292 0.34391645607244675
3576593 -0.93683823073213 0.34411093977317314
3577331 -0.9369529395535575 0.3441925889217539
3578069 -0.9367709811871365 0.34440528712250634
3578807 -0.9357470613642526 0.3445099139226849
3579545 -0.9360335627186978 0.34449754460779125
3580283 -0.9363759906133501 0.34446927582790354
3581021 -0.9363692611770739 0.3447027674814275
3581759 -0.9369070369532848 0.34526048386653213
3582497 -0.9362040969933292 0.345141977394042
3583236 -0.9358114101649093 0.34478035726587486
3583974 -0.9359232383160834 0.3444697887936132
3584712 -0.936093355543993 0.34462800390555665
3585450 -0.9365514045392611 0.3450284616185496
3586188 -0.9363825789518918 0.34517740883741976
3586926 -0.9364971871621313 0.34493774186419174
3587664 -0.936097969005514 0.34493243681461977
3588402 -0.9365441422374026 0.3452110624804553
3589140 -0.9368354044498556 0.3453189328712464
3589878 -0.9365702591979699 0.3456567713672607
3590616 -0.9361082886244918 0.34521693438236123
3591354 -0.9357638226426298 0.34539364738293044
3592092 -0.9358205843845072 0.34554884057203816
3592830 -0.9360335559196197 0.3458756694245057
3593568 -0.9355671402375864 0.3466366190395039
3594306 -0.9352173826116198 0.3465064680349666
3595044 -0.9348044360660572 0.3460072118338246
3595782 -0.9350891315093132 0.3459295060952501
3596520 -0.9356820065134674 0.3457576607242687
3597258 -0.9358608484782205 0.34602561419044264
3597997 -0.9360625372604463 0.3458649653969246
3598735 -0.9358127856403337 0.3459154988455442
3599473 -0.9352896574571279 0.3460022026821349
3600211 -0.9353687138748581 0.34552526936020883
3600949 -0.9344045515007234 0.34616036504566333
3601687 -0.9349792985945329 0.34663087516332325
3602425 -0.9351524831919544 0.34614657710546215
3603163 -0.9357223207138808 0.34687580897908155
3603901 -0.9366252786641637 0.347153601368898
3604639 -0.9362514943495549 0.3476910858836023
3605377 -0.9355521288947019 0.3474508065736078
3606115 -0.9348282146929253 0.3474682846150975
3606853 -0.9353225774534182 0.34721506744424596
3607591 -0.9355054342413429 0.34683038374297553
3608329 -0.9355162806527137 0.3472086188190393
3609067 -0.9358576487748588 0.3471294383151763
3609805 -0.9352638666036829 0.3468625827799858
3610543 -0.9353832384555754 0.34684386512842286
3611281 -0.9354235672944236 0.34717327224930333
3612019 -0.9355101955733196 0.3471648502812913
3612758 -0.9357984633923763 0.3477651912287381
3613496 -0.9351672885676007 0.34759108381555126
3614234 -0.9349269326545002 0.34758506407942835
3614972 -0.9353232274490628 0.34771069674149135
3615710 -0.9350509985422508 0.34706203716095796
3616448 -0.9350904729648094 0.3477806152719005
3617186 -0.9349263987274392 0.34781401948317653
3617924 -0.9348465257800977 0.3476188335592433
3618662 -0.9352570283958195 0.34831019272921376
3619400 -0.9353208409407928 0.34813653181756
3620138 -0.9353603316921717 0.3482683001756028
3620876 -0.9340143228857246 0.3476985568787823
3621614 -0.934771477221362 0.348105755889625
3622352 -0.9352250566607008 0.3489062967838048
3623090 -0.9349209762207784 0.348993525158297
3623828 -0.9349987367771956 0.34859762773385433
3624566 -0.9343571241172902 0.3486911153099888
3625304 -0.9347416877345076 0.3488379581107887
3626042 -0.9358563717589182 0.34858058324513097
3626780 -0.9354189014328723 0.34944566372588814
3627519 -0.9345810911468121 0.34907817229455657
3628257 -0.9348739259179188 0.3489415146582238
3628995 -0.9353668947188787 0.34931476709000375
3629733 -0.9352918985250831 0.34916691653757825
3630471 -0.9350421992049334 0.34974126058298954
3631209 -0.93394186485218 0.34940996627674437
3631947 -0.9341246986328383 0.3490493754882447
3632685 -0.9346828166239559 0.34934572809507036
3633423 -0.9348049748852801 0.34975756597301055
3634161 -0.9346556053681959 0.35003189814462826
3634899 -0.9341433421365557 0.3498814844657505
3635637 -0.9343506497323748 0.349941974070019
3636375 -0.9347282159310335 0.3498481240525167
3637113 -0.9346780910362865 0.34995081940309414
3637851 -0.9341020938106155 0.35038302987385106
3638589 -0.9344018734478832 0.3506742637372428
3639327 -0.9348160572759774 0.35082002721351635
3640065 -0.9352553769659991 0.3499450323244182
3640803 -0.9349862770203666 0.35053403040219966
3641541 -0.9342822959238692 0.35016084512163775
3642280 -0.9345806799340846 0.35021788099814083
3642280 -0.9353049880045664 0.3506003853372955
3643033 -0.9345667289485016 0.35083203655363454
3643786 -0.9336468948128638 0.3503726220004367
3644539 -0.9334904736371347 0.3509626319842131
3645293 -0.933658281617264 0.35077669288314095
3646046 -0.9341183929443341 0.35065822650720185
3646799 -0.9335875245398898 0.3504357687862428
3647553 -0.9331426880425179 0.3504912551381951
3648306 -0.9333483346375839 0.3506430823227666
3649059 -0.9339204089768769 0.35123981989850256
3649813 -0.9345699551722826 0.3511347014120675
3650566 -0.9341200536241177 0.3513033355663046
3651319 -0.933986758615333 0.3513907268788875
3652073 -0.9336947970004654 0.35145575080294905
3652826 -0.9335663831327228 0.3516325580238655
3653579 -0.9343906675123161 0.3511475581166204
3654333 -0.9338314174128823 0.3517989654982091
3655086 -0.933265198060264 0.35142250762155103
3655839 -0.9334043519890198 0.35161439794357047
3656593 -0.9335890319494415 0.35145230614048967
3657346 -0.9338856360174475 0.3511542419392946
3658099 -0.9339767075661575 0.3517411006221526
3658853 -0.9336551114385077 0.35155115606153764
3659606 -0.9341277234937924 0.35201987213665575
3660359 -0.9340559726792613 0.3521068989474564
3661113 -0.9339789912894856 0.35177680126761063
3661866 -0.9333757612721181 0.3525315863472905
3662619 -0.9325679401830976 0.35242096070566864
3663372 -0.9330904521201402 0.3521710406391496
3664126 -0.9335820107172328 0.3521415847450237
3664879 -0.9336502643629967 0.3518297354894304
3665632 -0.9335681101803579 0.3521197397898125
3666386 -0.9325914773172341 0.35199062610625825
3667139 -0.9332293270152576 0.3519649908011222
3667892 -0.9338301504934708 0.35223012731093883
3668646 -0.9336639561479801 0.35210031355488436
3669399 -0.9342497977828855 0.3526791635746689
3670152 -0.9338720188421582 0.3531782599224838
3670906 -0.9335519975128213 0.35310897166010186
3671659 -0.9336947989403898 0.35334798262542083
3672412 -0.9336010446502013 0.3535580843830893
3673166 -0.9338091702770427 0.3534311034617276
3673919 -0.9333235326724534 0.35318371907996665
3674672 -0.9331001002325124 0.3528132761453831
3675426 -0.9335875242336971 0.35260937371268525
3676179 -0.9330284492180653 0.3533289624230133
3676932 -0.9322791239010887 0.35338853641920936
3677686 -0.9325289229013548 0.35349810697035206
3678439 -0.9329432160910406 0.3540535985079719
3679192 -0.9337923592114522 0.3535985850232241
3679946 -0.933699294091035 0.3540026063402271
3680699 -0.9328722148341572 0.35384435904948464
3681452 -0.9327827644935811 0.35449346352456246
3682205 -0.9324313705206647 0.3552091945857342
3682959 -0.9332543619111113 0.3547796119111985
3683712 -0.9330010819109085 0.35479389746221995
3684465 -0.9320545563284915 0.3541685505713997
3685219 -0.9320901909702936 0.35366186902095237
3685972 -0.932177309968299 0.3543997079463739
3686725 -0.9331414715902795 0.354006968960622
3687479 -0.9330355098351467 0.35436159864814754
3688232 -0.9323608555981581 0.3544504209022078
3688985 -0.932682147267693 0.35474279404112613
3689739 -0.9325451215207334 0.35471572604929336
3690492 -0.9328767151096999 0.3545447246159025
3691245 -0.9328520404652512 0.35492527696775983
3691999 -0.9323062376348842 0.35508091187344454
3692752 -0.9322612471767175 0.3550291460345261
3693505 -0.9323163647865103 0.35547638062419695
3694259 -0.9324912962260882 0.35493691225780916
3695012 -0.9325093805983419 0.3553119963747561
3695765 -0.9319934976245742 0.3552722859087192
3696519 -0.9321621124038167 0.35511695553629596
3697272 -0.9324823147363822 0.35554238593446397
3698025 -0.9329663463479698 0.3551728595086225
3698779 -0.9327755675846683 0.35548520096239367
3699532 -0.9327335527689904 0.35598984731668953
3700285 -0.9327415719997099 0.3561338857090388
3701038 -0.9327085274693689 0.3560265297228767
3701792 -0.9328589389657697 0.3562684442684121
3702545 -0.9326722137911746 0.3558819509833985
3703298 -0.9324472805844942 0.35592135344639103
3704052 -0.931338001571923 0.35598923958244544
3704805 -0.9316105739157194 0.35600127475282795
3705558 -0.9317068288198845 0.35613488768005136
3706312 -0.932475043922651 0.3558882236365372
3707065 -0.9325223678857891 0.3558055640448592
3707818 -0.9318265666605474 0.35606362712083967
3708572 -0.9318374588048637 0.3562135754932211
3709325 -0.9321918973122602 0.3565836323728844
3710078 -0.932462520746094 0.35676060072008964
3710832 -0.9324383681757825 0.356944686075932
3711585 -0.9313555459200179 0.35656968241486164
3712338 -0.9317425876231726 0.35659804584000837
3713092 -0.9319018786304563 0.35680034150960727
3713845 -0.9324568510957406 0.3565796934605259
3714598 -0.9321311828370121 0.356895626781406
3715352 -0.931184741838676 0.35703291152746897
3716105 -0.9313950267040714 0.3573282761601151
3716858 -0.931996583188151 0.3577301510505952
3717612 -0.9324365130550021 0.3572784638396865
3717612 -0.9317243604017104 0.35739275242856167
3718380 -0.9316872727789421 0.35775033621750496
3719149 -0.931878459072426 0.3579435940656176
3719918 -0.9321275266974186 0.3580424129525291
3720687 -0.931486335964488 0.35820876166892074
3721456 -0.9307157970812315 0.3579457125760314
3722225 -0.931115869707905 0.35803000119827605
3722994 -0.9306319834824797 0.3578330160842362
3723763 -0.9311082980006183 0.3574612223083872
3724532 -0.9313691083199798 0.3576375379385317
3725301 -0.9316522158050367 0.3582135426500638
3726070 -0.9307225085048106 0.3581189480199326
3726838 -0.9311822490192126 0.35852684548289954
3727607 -0.9312763468330213 0.3586103663030517
3728376 -0.9320575999046693 0.35838625847738576
3729145 -0.9319998160739115 0.3588902086873696
3729914 -0.9312801441850174 0.35865172599106604
3730683 -0.9312910803670874 0.3589775244079276
3731452 -0.9308735320197031 0.3593733962653795
3732221 -0.9311406396204536 0.3589423061383802
3732990 -0.9307527301141361 0.3585752666914511
3733759 -0.9305063367215636 0.35891770987624594
3734528 -0.9303438959403437 0.3585975615547721
3735296 -0.9310264760311547 0.3592738572074264
3736065 -0.930980106438343 0.35931483033041905
3736834 -0.9305266834761406 0.35885579857810185
3737603 -0.9307031457506671 0.3592313230288631
3738372 -0.930578961475364 0.35924563398816023
3739141 -0.9311001816369059 0.3590038569604487
3739910 -0.9309131154392943 0.3592228782872395
3740679 -0.9308881894317227 0.3595418993537146
3741448 -0.9304791363531643 0.35959442493282506
3742217 -0.930612851513848 0.360097279053902
3742986 -0.9305790379755953 0.36009384046591514
3743754 -0.9307719505385584 0.36024664524526634
3744523 -0.9304772076611142 0.35989738670215854
3745292 -0.9305768826040184 0.35989959365416674
3746061 -0.9305543696466922 0.35946263150681185
3746830 -0.9302922937111141 0.3598668061601174
3747599 -0.9304605724079357 0.35944247944290414
3748368 -0.9302923574680942 0.3597552892151155
3749137 -0.930357181525496 0.3608034236668157
3749906 -0.9309375336557539 0.3606525744249939
3750675 -0.9307718659300726 0.36078837173922973
3751444 -0.9301133372129315 0.3608191993369988
3752212 -0.929864697166519 0.36055011056387726
3752981 -0.9299416658185049 0.3609910899480579
3753750 -0.9303056671511672 0.36116064834816697
3754519 -0.9309366967327438 0.3608061807265572
3755288 -0.9306181061860948 0.3609363477933305
3756057 -0.9301614559339102 0.3607112703219019
3756826 -0.9304838689027345 0.36128353081383957
3757595 -0.9305226756272464 0.36096045708569685
3758364 -0.9304895117420457 0.3610652760033858
3759133 -0.9299367918605598 0.3612199204421128
3759902 -0.9299695149801512 0.3611083980606594
3760670 -0.9299645405326037 0.3618205675189671
3761439 -0.9298408393600148 0.36200361746447834
3762208 -0.9296555031397028 0.36183279309149863
3762977 -0.9292503422412618 0.3614539094074142
3763746 -0.9295690655975677 0.3622704800285593
3764515 -0.9290219728096241 0.3618496740014494
3765284 -0.9297431396998677 0.36215327434636974
3766053 -0.9296671922343218 0.3624629595158351
3766822 -0.9299108244536787 0.36210689883032443
3767591 -0.9305856397850494 0.3623977589865545
3768360 -0.9299011978262709 0.36233564544632135
3769128 -0.9297657327509135 0.3627248313197783
3769897 -0.9294710149173673 0.3626980870666848
3770666 -0.9295355634644324 0.3627715187616706
3771435 -0.9299528450906634 0.3626176067260425
3772204 -0.9299143122519062 0.3623140020356986
3772973 -0.9298813730768334 0.3630419423110044
3773742 -0.9294877613622349 0.36322325843505693
3774511 -0.9291813226439154 0.36297316615989134
3775280 -0.929150499693225 0.36333442932861176
3776049 -0.9296379292357524 0.36281341956724
3776818 -0.929972629484638 0.3629133124130837
3777586 -0.9298702882913562 0.36291844661266814
3778355 -0.9293029063430774 0.3632364457324868
3779124 -0.9296013690913874 0.36302149937206063
3779893 -0.9297076512920815 0.3640400341186923
3780662 -0.9293415426047199 0.36337267723119815
3781431 -0.929736068622151 0.363435104153095
3782200 -0.9294725943967238 0.3635141232596395
3782969 -0.9286286233401443 0.36342862125795083
3783738 -0.9294849959081403 0.3635825577677354
3784507 -0.9291301441467262 0.3639804311995027
3785276 -0.9290171341100569 0.36358639278043586
3786044 -0.9294590997515193 0.36396726102587335
3786813 -0.9294664642029781 0.3641515606111735
3787582 -0.9286899436395958 0.3640570832914201
3788351 -0.9290502311463852 0.3645104313811692
3789120 -0.9291385633685479 0.3647330822614139
3789889 -0.9294016525115357 0.3647453944218162
3790658 -0.9293427699618021 0.3641653248729662
3791427 -0.9294998494438886 0.3644876164883607
3792196 -0.9283238784847371 0.36419657158943824
3792965 -0.9287348927286184 0.36435148414839624
3793734 -0.9284199250478905 0.3646843675823008
3794503 -0.928647147149749 0.36442239224086176
3794503 -0.9284087051501327 0.3647906683432349
3795287 -0.9280896755730845 0.3649707501448187
3796072 -0.9281914621322556 0.36478584865401364
3796857 -0.9285779649958875 0.3652532517180625
3797642 -0.9282236596914585 0.3658451667151194
3798427 -0.9276503801557966 0.36533852487768737
3799211 -0.9286002756187648 0.3656448842641607
3799996 -0.9283928761091842 0.366121831182155
3800781 -0.9283515868781966 0.36590728454755617
3801566 -0.9286900611075173 0.3655993791325715
3802351 -0.9281568730354522 0.36556845092529167
3803135 -0.9280123028653998 0.3653348928961574
3803920 -0.9281795865862893 0.3658582619487395
3804705 -0.9282328513652282 0.36623500591029357
3805490 -0.9284082944002798 0.36588019820367473
3806275 -0.927893917875192 0.3660402973651515
3807059 -0.9283719643436471 0.3660251679205967
3807844 -0.9276079103301482 0.36615303626327494
3808629 -0.9279056386021134 0.36659337938457665
3809414 -0.9275533758943647 0.3670003033747805
3810199 -0.9276747551877278 0.36711967368781184
3810983 -0.9273251347221452 0.36695305161334274
3811768 -0.9272967759379721 0.3670343219863793
3812553 -0.9273283920409275 0.3666632541740958
3813338 -0.9278744596627567 0.3671290296927856
3814123 -0.9276738896716261 0.36695647902114936
3814907 -0.9276651206522847 0.367383933345817
3815692 -0.9276325804833523 0.3672323453396913
3816477 -0.9270523916863891 0.3668771583386119
3817262 -0.9272968788994869 0.36715082916085806
3818047 -0.9273533779147106 0.3669938186513633
3818831 -0.9273245161853183 0.3676365406102941
3819616 -0.9274693987355661 0.3677220427799802
3820401 -0.9279882056172415 0.36771936121862675
3821186 -0.9276896971900942 0.3674639190091922
3821971 -0.9273604873546208 0.3676961706302356
3822755 -0.9273369671686114 0.36795144380290734
3823540 -0.9275551368082992 0.368518180583438
3824325 -0.9273225737215571 0.3684460255584613
3825110 -0.9271349486778014 0.3678821780285935
3825895 -0.9268758795404539 0.36735337530268597
3826679 -0.9269321708220435 0.3680080414325267
3827464 -0.9268777075912964 0.3681651975627355
3828249 -0.9278564312250113 0.3683677746933807
3829034 -0.9274478044798905 0.36869308233983533
3829819 -0.9275102575466806 0.36846334783993656
3830603 -0.9271513826537746 0.3685365795131319
3831388 -0.9268926419525659 0.36866931326899643
3832173 -0.9267895807633735 0.3687811056729594
3832958 -0.9276629384172237 0.3686092396636887
3833743 -0.9271920169636474 0.3686498710099006
3834527 -0.9271014084917522 0.3688022308718907
3835312 -0.9270169827350536 0.36889942366189304
3836097 -0.9267929993477727 0.3693107411139091
3836882 -0.9267700738515178 0.36920151326146816
3837667 -0.9270362029162715 0.3691626771543899
3838451 -0.9265494357006777 0.3695873214661149
3839236 -0.9275354455674616 0.3700943875067273
3840021 -0.9272871776357864 0.37013350349906227
3840806 -0.9270098102964844 0.3700510337227546
3841591 -0.9265181202720334 0.36956134988450895
3842375 -0.9263849240283475 0.36960352785511863
3843160 -0.9265525366450698 0.36981807243034764
3843945 -0.9259679344905726 0.3700407181957126
3844730 -0.9261698880426124 0.3701554810173422
3845515 -0.926204261100223 0.3704958033931972
3846299 -0.9261572431623178 0.3703707823837878
3847084 -0.9263327175561322 0.3700736400163081
3847869 -0.9266196024417741 0.369849263572474
3848654 -0.9264921864838918 0.3701232191430146
3849439 -0.926649290407801 0.3706350948203033
3850223 -0.9263869302704668 0.3709954527208334
3851008 -0.9259822276076527 0.37093614898132005
3851793 -0.9262587212814734 0.37084112495481153
3852578 -0.92618719108454 0.3702290027561484
3853363 -0.9256330382789496 0.3710520137384883
3854147 -0.9259870803496145 0.3708718981638161
3854932 -0.925911555878559 0.37148146188131875
3855717 -0.9258622275622483 0.37127186023265635
3856502 -0.925916997334896 0.37109959845678603
3857287 -0.9263747659053853 0.3709798340032097
3858071 -0.926338531030504 0.37152394858925875
3858856 -0.9260183979816276 0.37130220202893177
3859641 -0.9264805798893796 0.3720281561011058
3860426 -0.9256584224390677 0.37157983533731137
3861211 -0.9260057862167157 0.3717438226481651
3861995 -0.9258692663529837 0.3712668674661965
3862780 -0.9260577133138959 0.3714932098481929
3863565 -0.925586542421386 0.3712698423182182
3864350 -0.9258055054116405 0.3720463651780758
3865135 -0.9256767491443058 0.3722683202304066
3865919 -0.9255206241550269 0.3723286849490535
3866704 -0.9256903449213506 0.37208647905327047
3867489 -0.9251051767362841 0.37245459741704207
3868274 -0.9252237015686218 0.3723390301323267
3869059 -0.9256947037589242 0.3728616359972404
3869843 -0.9251538384858847 0.3729576663676274
3870628 -0.9254117513656162 0.3727253832661025
3871413 -0.9249945581689764 0.37257299187091564
3872198 -0.9251692359402041 0.37213420351686133
3872983 -0.9246806223889168 0.37222691450422923
3872983 -0.9256033128484461 0.3723683663358714
3873784 -0.9251399456304965 0.3729307325107526
3874585 -0.9252363833595197 0.3730423004403671
3875386 -0.9254478477813916 0.37387894686209877
3876187 -0.9256085471202754 0.37338799849083276
3876988 -0.9256075965660204 0.3730054222241949
3877789 -0.9254017537042613 0.3727240303341
3878590 -0.9252755005518792 0.37290053174548643
3879391 -0.9246826051907073 0.37321115919434755
3880192 -0.9251617675374502 0.37337483846575686
3880993 -0.9248695401679958 0.3738968047201721
3881794 -0.9245714626903319 0.37386962665182855
3882595 -0.9241551718732531 0.37386433278298103
3883396 -0.9243909741396262 0.3739264502243239
3884197 -0.9246361929728542 0.3735275718239479
3884998 -0.9247010574881388 0.37381401638372747
3885799 -0.9248915636671968 0.3736281179882308
3886600 -0.9250147299575733 0.37430850650206005
3887401 -0.9251804381842214 0.37456993642136227
3888202 -0.924706360265905 0.3743919902393939
3889003 -0.9246453386922632 0.3741625800565689
3889804 -0.9239929120404025 0.3740529672394684
3890605 -0.9246960411767187 0.37440765832076317
3891406 -0.9246533869378512 0.37476025855751305
3892207 -0.9246919530361782 0.374620272029772
3893009 -0.9243514990738118 0.3747198350847097
3893810 -0.9245150182208625 0.3748611772418949
3894611 -0.9243455318011484 0.37457705935001434
3895412 -0.9238805856372958 0.374481440314686
3896213 -0.9239158638996064 0.37477434716443586
3897014 -0.9245417992587388 0.37466010222891866
3897815 -0.9248419702970743 0.3753695710963881
3898616 -0.9247301697011922 0.37519015099921815
3899417 -0.924674494941556 0.3752716849431297
3900218 -0.9242565818537023 0.375161584317357
3901019 -0.9243906105121683 0.37544318389643794
3901820 -0.9243596136088071 0.37590487887928675
3902621 -0.9248090260378651 0.37632055545422266
3903422 -0.9248508183799572 0.3764925266710538
3904223 -0.9245102613888035 0.37650694841858773
3905024 -0.9245296232537789 0.3763728846330067
3905825 -0.9243546331135843 0.37598068021101294
3906626 -0.924325306161555 0.37594784511284096
3907427 -0.9240529095649942 0.3758092634757065
3908228 -0.9239777142700486 0.3762063687750315
3909029 -0.9244056671480988 0.3766592616703772
3909830 -0.9237154236902011 0.37670451336250643
3910631 -0.923376795425159 0.3767138270135608
3911432 -0.9236062874681573 0.37639167277412783
3912233 -0.9235674495966638 0.37689044845425296
3913035 -0.9233637839049795 0.3771004160549214
3913836 -0.9233284886328176 0.37683979175447185
3914637 -0.9234084671442218 0.37662021999584117
3915438 -0.9236510006983883 0.3762170165851402
3916239 -0.9232553550725752 0.3764912960840141
3917040 -0.9232542571377379 0.37677450052927636
3917841 -0.9236959785553472 0.37715029873712874
3918642 -0.9233951059297693 0.37722319988166136
3919443 -0.9236072956680959 0.3768978470949707
3920244 -0.9232900824743177 0.377192089778049
3921045 -0.9230700460786889 0.3774045197612543
3921846 -0.9233557726507452 0.37722765676556075
3922647 -0.9235495612046429 0.37815229569690584
3923448 -0.9230674392422951 0.3784674947966449
3924249 -0.9234201336601517 0.3785306513463234
3925050 -0.9234051336259304 0.3784761470805749
3925851 -0.9226952342039397 0.3779477141368335
3926652 -0.9237070597593561 0.3778981876810699
3927453 -0.9226330442317209 0.3778334085366498
3928254 -0.9235095276013516 0.3782377197608787
3929055 -0.9229313886998062 0.3781114195890439
3929856 -0.9231134486966808 0.37857722673242594
3930657 -0.923226172068652 0.37842102423607027
3931458 -0.9233397014241184 0.37843217351998487
3932259 -0.9240623765240632 0.37859544391737393
3933061 -0.9228829132579822 0.37824700974224706
3933862 -0.923509796835989 0.37860393816003535
3934663 -0.923031576030949 0.3788104335386491
3935464 -0.9226791298546688 0.37908083123196235
3936265 -0.9230104307890286 0.37905347257107336
3937066 -0.9229915518913406 0.3786628706807508
3937867 -0.9237626380221828 0.37846690456444354
3938668 -0.9230854134802035 0.3793804962895131
3939469 -0.9235733428080698 0.3794786624115107
3940270 -0.9231575885362387 0.38020032119395464
3941071 -0.9228804694237989 0.3800306624050995
3941872 -0.9227102622823331 0.37972132474797937
3942673 -0.9224368235573798 0.3798850156446811
3943474 -0.9226076978785978 0.37985434028831777
3944275 -0.9231583329758731 0.38007280470800064
3945076 -0.9237691934729796 0.38038035083937166
3945877 -0.9231996105227237 0.38064485512163826
3946678 -0.9231048500855917 0.38035302131231435
3947479 -0.9229440365577251 0.3802531287315158
3948280 -0.922716508750125 0.3801036249263775
3949081 -0.9224283138937824 0.37933079789343954
3949882 -0.9220271368762519 0.3794541418281165
3950683 -0.9223049479692875 0.38009796256455824
3951484 -0.9227327389943325 0.38036740138551656
3952285 -0.922397147582375 0.3806056461517908
3953087 -0.9222682734145796 0.3807466651119989
3953087 -0.9225330104943237 0.38058469557468894
3953904 -0.9225510614502664 0.38112729150334185
3954722 -0.9221387791245564 0.3808361061043142
3955539 -0.9217270018728789 0.3811310287944261
3956357 -0.9221217722042306 0.38096672355062444
3957175 -0.9219806462665459 0.38044080927488905
3957992 -0.9220670580839688 0.3805318105696061
3958810 -0.9219494531061513 0.3809247490417174
3959627 -0.9220632315264639 0.38094197127706964
3960445 -0.9223574329663764 0.3815028345161914
3961263 -0.9220089027699577 0.38093897688975453
3962080 -0.9217776126959256 0.3810394403000514
3962898 -0.9219628741038005 0.3814873715994169
3963715 -0.9212452057291638 0.3815603528552064
3964533 -0.9221001335760313 0.38132558626852275
3965351 -0.922268800784697 0.3814394712494027
3966168 -0.9221393550933585 0.38167659855105796
3966986 -0.9220197514923842 0.3814243466431495
3967803 -0.9219470072311661 0.3817756107943518
3968621 -0.9215865586913192 0.3818979685390221
3969439 -0.9216166903070432 0.3816032269476443
3970256 -0.9213221782857998 0.3817910090114646
3971074 -0.9212621361398939 0.3818039258747551
3971892 -0.9219796413178966 0.3824028057725027
3972709 -0.921868560201408 0.3829464894290661
3973527 -0.9217102891784948 0.3826309241703246
3974344 -0.9219036183386743 0.38242939469337683
3975162 -0.9211164581036073 0.38253490244008626
3975980 -0.9215699485562784 0.38231285543705884
3976797 -0.9217208120646672 0.38185187943664767
3977615 -0.9214121222736082 0.3822256879666378
3978432 -0.9222727185593623 0.3828543661531612
3979250 -0.9220678310894362 0.38342078522313316
3980068 -0.9220750190799338 0.38306013127479616
3980885 -0.9223292361420662 0.38310425700474954
3981703 -0.9212724423861518 0.38285139889879444
3982520 -0.921549639243083 0.3828359848728837
3983338 -0.9218073668288507 0.3824017445057815
3984156 -0.9216707942552662 0.38314905524874177
3984973 -0.9218385638596187 0.38328762213767054
3985791 -0.9217229272648748 0.38391511404747125
3986609 -0.9214366955697925 0.3840084523766952
3987426 -0.9214408415941829 0.38397672247128684
3988244 -0.9207608837719564 0.3838008776768349
3989061 -0.9205957811571428 0.38337246305055417
3989879 -0.9208571131638955 0.3828202744678791
3990697 -0.9206955648154505 0.38338754328770397
3991514 -0.9218740582644566 0.3839226210505891
3992332 -0.9210832639551947 0.38400458926244485
3993149 -0.9208450413691757 0.38388000749513596
3993967 -0.9209758369430328 0.38456867607045825
3994785 -0.9202816335297042 0.384468139946491
3995602 -0.9205785700152261 0.3842716337908862
3996420 -0.9205180759832514 0.3838802270614567
3997237 -0.9207791372817452 0.3839737949324182
3998055 -0.9212588636181822 0.38458665544698356
3998873 -0.9207137250565649 0.38475502603904843
3999690 -0.9206019289534614 0.3837753032588901
4000508 -0.9210000050345968 0.38439669606187243
4001325 -0.9206292107397956 0.3847476667342707
4002143 -0.920667704529362 0.3847446335988773
4002961 -0.9210142018960318 0.3847369911200027
4003778 -0.9206836076417008 0.38488433223797974
4004596 -0.9206993686311014 0.38494224209629346
4005414 -0.920501311823575 0.38534140240942555
4006231 -0.9203465230384968 0.38552003544647445
4007049 -0.9208719783188563 0.3856335468225326
4007866 -0.919798079456831 0.3855305484000386
4008684 -0.9206712200553695 0.38510802405907435
4009502 -0.9204933911265365 0.38517409578433315
4010319 -0.9208838619058416 0.385419469765573
4011137 -0.9211946733641302 0.38555355830806753
4011954 -0.9208869774344944 0.38586733901743747
4012772 -0.9204579687136182 0.38616965996837327
4013590 -0.9204344311508035 0.38596542913876175
4014407 -0.9196529382776335 0.3863067379561752
4015225 -0.9202810484115177 0.38568090479178535
4016042 -0.9198549246384874 0.38532451266310547
4016860 -0.919947185388803 0.3857059198253452
4017678 -0.9202657037061336 0.3864043148857161
4018495 -0.9206164642813098 0.3866364181268149
4019313 -0.9203193354552315 0.3868849902996501
4020131 -0.9199366333746074 0.3863451529869181
4020948 -0.9194465769008066 0.38620540463813674
4021766 -0.9199396105572828 0.38568257112021015
4022583 -0.920057617794163 0.3857522778078297
4023401 -0.9201076463124405 0.385948820469734
4024219 -0.9203013090958346 0.3865756892682964
4025036 -0.9199830692404375 0.3867126608679002
4025854 -0.9201227226678003 0.38719413817181003
4026671 -0.9195517243786657 0.38687831291915514
4027489 -0.9195054010728074 0.38655033097652997
4028307 -0.9193207772085209 0.3872873570264927
4029124 -0.9196249849517081 0.38690513895997786
4029942 -0.9195586932313817 0.3869844429711989
4030759 -0.919747858790953 0.3874617100276683
4031577 -0.9197505965116612 0.38789579467237895
4032395 -0.9194483657567525 0.38743525140139085
4033212 -0.9197586382742078 0.3875912690061337
4034030 -0.9192080480448908 0.3876225018670791
4034848 -0.9189431851008394 0.38679688593748895
4034848 -0.9194462063836601 0.38706140059122135
4035682 -0.9197413629276512 0.38667195571587676
4036517 -0.9194881357857319 0.38748625226979927
4037351 -0.9198019384805572 0.38819467765889976
4038186 -0.9195780404128833 0.3886973693645621
4039020 -0.9197854056957147 0.3885451108508062
4039855 -0.9196848931654045 0.38865040798111555
4040689 -0.9188112312252487 0.3885960134232997
4041524 -0.9185565289657079 0.3887569382371553
4042358 -0.9188420763352237 0.38823136759630605
4043193 -0.9191558943908794 0.38799951658261095
4044027 -0.9193904675072173 0.3883781294240598
4044862 -0.9195328758229093 0.3888287571690049
4045696 -0.919577954313978 0.38908564058898537
4046531 -0.9190660432825729 0.3887959658544399
4047365 -0.9193057318356758 0.38890442043836926
4048200 -0.9189138753806286 0.38907337374197415
4049034 -0.9180980991707127 0.38848786231812404
4049869 -0.9182309534764433 0.38911783456539467
4050703 -0.9189584920177127 0.3884688602998804
4051538 -0.9196537577432708 0.3887461389021957
4052372 -0.9188661284184534 0.38912304241333356
4053207 -0.919381778846687 0.3898293744970762
4054041 -0.9191484458604222 0.3899500843714086
4054876 -0.9189032071105494 0.38975425666234703
4055710 -0.9186873664571522 0.3894693851340427
4056545 -0.9182109018188054 0.38957557937921183
4057379 -0.9180741644561283 0.38940274613410353
4058214 -0.9187651406972921 0.3894298406238918
4059048 -0.9188241274597334 0.389439173645485
4059883 -0.9187110111492569 0.39028849824454
4060717 -0.9188448415811036 0.3902300648476825
4061552 -0.9186279331633309 0.39055365779792417
4062386 -0.9183059575205164 0.38993979916508825
4063221 -0.9182689939272214 0.3901303987950188
4064055 -0.9178803159976171 0.3901262540353648
4064890 -0.9178010723335499 0.3897589497690218
4065724 -0.9184298597493519 0.38966235168407787
4066559 -0.918297240331753 0.3892954125348144
4067393 -0.9186630220042622 0.3905373344337435
4068228 -0.9184025262640289 0.39131969937796635
4069062 -0.9186282418706695 0.3914478858358511
4069897 -0.9182951389180322 0.39170220952706214
4070731 -0.9174470715857161 0.3912095311752068
4071566 -0.9178563974052454 0.39157654110845924
4072400 -0.917481519420816 0.39121118723250664
4073235 -0.9169999227168395 0.39063402167378874
4074069 -0.9180445783603114 0.390306388895187
4074904 -0.9177981982817086 0.3909821622874163
4075738 -0.918315386930448 0.3918265560907717
4076573 -0.9184122120789496 0.3920680013461505
4077408 -0.9182837834421456 0.3916530444066652
4078242 -0.9178202307822388 0.3910414085851296
4079077 -0.9179245572785308 0.39187498548711763
4079911 -0.9178279302851254 0.3918238517958039
4080746 -0.917262454496531 0.3912996295267732
4081580 -0.9176782679537967 0.39132687877265615
4082415 -0.9177019490331487 0.3913152406391594
4083249 -0.9184141879431817 0.39192889267040987
4084084 -0.9185841944920569 0.3929111287260378
4084918 -0.9178400792008258 0.3922886531532657
4085753 -0.9179011162207444 0.3922762797145431
4086587 -0.917354440371776 0.3931328839401467
4087422 -0.9172775893372527 0.39311716453226686
4088256 -0.9175467674219739 0.3922583072491079
4089091 -0.915944137700004 0.39184565030650975
4089925 -0.9172464397730109 0.3921162379129933
4090760 -0.9179650759297093 0.3928591234895304
4091594 -0.9175694839360753 0.3931463558964603
4092429 -0.917622266136081 0.39302068433212467
4093263 -0.9170558715629951 0.3930314041286803
4094098 -0.9172732692684215 0.39338657353737033
4094932 -0.9175645682898823 0.3935251605648508
4095767 -0.9174459872679644 0.3932770141300494
4096601 -0.9167719407111474 0.3928670365921935
4097436 -0.9165170413049384 0.39273333562915963
4098270 -0.9174706854889387 0.3929223725540147
4099105 -0.9175700822610227 0.39378492174566726
4099939 -0.9178250942291006 0.3939932918186121
4100774 -0.9170904333096102 0.39387632702273234
4101608 -0.9171553415423189 0.39377120528699117
4102443 -0.9174521610273463 0.3940280404388154
4103277 -0.9171011190615966 0.3936593843787339
4104112 -0.9165063381885716 0.39317426670279637
4104946 -0.916601243810236 0.39340562553385633
4105781 -0.9175011165544406 0.3936029839065216
4106615 -0.9176858278265648 0.3942514033927491
4107450 -0.9175917238871214 0.394390408443115
4108284 -0.9167731980235956 0.3944936829430168
4109119 -0.9168153505695572 0.39419011210732674
4109953 -0.9168031191344738 0.3947546130148779
4110788 -0.916385507409624 0.3943768316862282
4111622 -0.91596001698832 0.39419006615632407
4112457 -0.916185248664305 0.3942131284840365
4113291 -0.9168429271875045 0.3940512136451554
4114126 -0.9165581725876436 0.3946318140680533
4114960 -0.9166376441777677 0.3949771310744345
4115795 -0.916601464807267 0.39523825103364424
4116629 -0.9169597491285645 0.3953875870270599
4117464 -0.9164461598615341 0.3959021819638081
4118299 -0.9166863999867861 0.3951872365909252
4118299 -0.9162580910208216 0.39517051851180063
4119150 -0.9156660444216792 0.39490538708763734
4120002 -0.915665950692309 0.3949837836639129
4120854 -0.9160937959731992 0.3949158107861421
4121706 -0.9167406581106996 0.39478637986631226
4122557 -0.9166821914112573 0.3953796437020544
4123409 -0.9169631317295324 0.39583994621223234
4124261 -0.9167633240132984 0.39592030425056446
4125113 -0.9167836641017122 0.3958711994423879
4125965 -0.916633345350953 0.39596087446989664
4126816 -0.9162098573012151 0.39596537225762113
4127668 -0.9162690458893091 0.39578021806437336
4128520 -0.9152071223792925 0.39572616417150075
4129372 -0.9159343610541437 0.39583705252976464
4130223 -0.9160261125923927 0.39586494639185915
4131075 -0.9163155933381387 0.39620668476931387
4131927 -0.9159824722919223 0.39682788877197483
4132779 -0.9160379091408367 0.3968524046657999
4133631 -0.9163349441113876 0.39668951758824245
4134482 -0.9155782148978108 0.3965037203971791
4135334 -0.9151820394001805 0.3968875025543043
4136186 -0.9154191535471685 0.39699026206615395
4137038 -0.9155019134830048 0.39664866253179026
4137889 -0.9152494565309209 0.3967642104288248
4138741 -0.9157456184765418 0.396845110816829
4139593 -0.915870196191311 0.3966921970737716
4140445 -0.9163508569090525 0.39679278915538685
4141297 -0.9158430427978909 0.3972520326686285
4142148 -0.9161388952833168 0.39760277760888874
4143000 -0.9158660160719923 0.39733459506604596
4143852 -0.9157106633307018 0.3973883214596046
4144704 -0.9152142632688529 0.39736250209694574
4145555 -0.915223325002094 0.39738185802651876
4146407 -0.9151237904721609 0.39765533145141513
4147259 -0.9150727950902979 0.39772007058562603
4148111 -0.9153895600368382 0.3975631453651733
4148963 -0.9155285965833259 0.39728257864571426
4149814 -0.9160051040065523 0.397466478931074
4150666 -0.91584929281238 0.3982204774516321
4151518 -0.9161578161826507 0.3986927143356956
4152370 -0.9157952960963796 0.3983106513364518
4153221 -0.9155877229049636 0.39817385965454327
4154073 -0.914821690134537 0.39835839835427733
4154925 -0.9150386243580451 0.3987056488427658
4155777 -0.9146073069415958 0.3983772694675497
4156629 -0.914261204926786 0.39846025906065397
4157480 -0.9141248799077192 0.39794881677981037
4158332 -0.9148171309027 0.398996254446449
4159184 -0.9141060643890644 0.3979423487316539
4160036 -0.9147038867242567 0.3986688043408304
4160888 -0.915193547979074 0.3985902080890443
4161739 -0.9151487212980285 0.39898655044797415
4162591 -0.9153207268802185 0.39987908471320077
4163443 -0.9152192874720331 0.39941046999256746
4164295 -0.9149342304674407 0.39890899871080476
4165146 -0.9147883730706942 0.3992989082658954
4165998 -0.9152835757815961 0.39946092673208183
4166850 -0.9152668126474522 0.3994711033768336
4167702 -0.914760732364142 0.3990919517274847
4168554 -0.9142358034077761 0.3993677078876594
4169405 -0.9137590443618712 0.39937535450628014
4170257 -0.9150597229698436 0.3994023484938
4171109 -0.9149482243943196 0.3994697269708738
4171961 -0.9149567819006077 0.39997324872625617
4172812 -0.915224957385034 0.40035690583460065
4173664 -0.9150745485730807 0.3997810195549175
4174516 -0.9147973403292028 0.4000457337683639
4175368 -0.9143847104691475 0.4001682146934646
4176220 -0.9145656921813159 0.4001587306043628
4177071 -0.9142115106343641 0.39987705531778495
4177923 -0.914302038178752 0.39987752619486777
4178775 -0.9141235510211001 0.399452084918209
4179627 -0.9144504615528121 0.3996019371605539
4180478 -0.91460696875978 0.40001445090583854
4181330 -0.9144255899625148 0.4006413423239062
4182182 -0.9144555047143262 0.4005311184546288
4183034 -0.9144439000124046 0.40059327203402195
4183886 -0.9145506698772171 0.40119683223897795
4184737 -0.9139363975933189 0.4009777519181976
4185589 -0.9142244984718763 0.40136426926385277
4186441 -0.9137884226065021 0.4009204517758881
4187293 -0.9135842873691007 0.40086379444179926
4188144 -0.913365679314021 0.40063941550645954
4188996 -0.9140022501841147 0.4009235649857819
4189848 -0.9145928193877949 0.40071067970683844
4190700 -0.9143217948296164 0.40132601183432354
4191552 -0.9145373347523867 0.4022567784824382
4192403 -0.9146398033004886 0.40201962079865206
4193255 -0.9141873450441054 0.40188025628511725
4194107 -0.9142833836041558 0.40184010007965326
4194959 -0.913615529435111 0.40216393223036945
4195810 -0.913843761498609 0.4020534403656514
4196662 -0.9135135952958662 0.4017800507867985
4197514 -0.9132059623434752 0.401726286380043
4198366 -0.9135576421491046 0.40172423268474206
4199218 -0.9136891280290075 0.4012160622763929
4200069 -0.9141230407172052 0.40195266684361736
4200921 -0.9134857740317597 0.40265402335918965
4201773 -0.9139716606810154 0.4023374167179299
4202625 -0.9137267344410118 0.4025878151940091
4203477 -0.9133563649735311 0.40260392961183866
4203477 -0.9130463364402683 0.40242467081887107
4204346 -0.9130793721141889 0.402054681832569
4205215 -0.9130209228192083 0.40218609944744654
4206085 -0.9132186754360636 0.40255560651348893
4206954 -0.913519172660322 0.40280095093564844
4207823 -0.9132624124421126 0.4027079839262403
4208693 -0.9136908769899348 0.4031165122820122
4209562 -0.913497151603071 0.4032437257292129
4210432 -0.9138421855331297 0.40397784861161795
4211301 -0.9135202092631409 0.40394577146216026
4212170 -0.9134848259132721 0.4038755925019358
4213040 -0.9133874236975648 0.4034109882547788
4213909 -0.9127549006075183 0.4035134319100156
4214779 -0.9129008246143472 0.40352992549042604
4215648 -0.9126548626549279 0.40366820927190306
4216517 -0.9124740172708062 0.4035054121709014
4217387 -0.9124214326243583 0.4038884719334907
4218256 -0.9124559332847241 0.4037704504820092
4219126 -0.9121381846972093 0.40360753248409226
4219995 -0.9122830290623686 0.4035205137551702
4220864 -0.9124327751602466 0.4036630820670143
4221734 -0.9129222902580185 0.40362629847901244
4222603 -0.9132468743294415 0.40379209745174643
4223472 -0.9133810339461758 0.4036905071738792
4224342 -0.9133291800585097 0.4039635949492909
4225211 -0.9133416792360838 0.40450530572345245
4226081 -0.9130414669917103 0.40487480493239325
4226950 -0.9129403013006417 0.40479490260153894
4227819 -0.91281307347192 0.40473079729878403
4228689 -0.9118796645211957 0.4053524035239951
4229558 -0.9121736023137336 0.40529856727203956
4230428 -0.9121769504778312 0.4054058988401416
4231297 -0.9120944878205223 0.4055364011501682
4232166 -0.9123248762851345 0.40540246818507575
4233036 -0.9120813375352036 0.4058831975408559
4233905 -0.9119754784011865 0.40518607491069414
4234775 -0.9118222596522304 0.40497972868948495
4235644 -0.9112755084812276 0.4054037814449838
4236513 -0.9116924136679676 0.40555291130175175
4237383 -0.9121599221454941 0.4057091184996501
4238252 -0.9120162754634177 0.4048350829651406
4239121 -0.912279382941656 0.4056102494315205
4239991 -0.9121631217157997 0.40549414240296666
4240860 -0.9126398815684797 0.4059909705108711
4241730 -0.9124950413419386 0.4059810133646978
4242599 -0.9126908551729479 0.40627813472365915
4243468 -0.9126157780858815 0.4062672086358649
4244338 -0.9120953641663223 0.40634025607180946
4245207 -0.9115474374167006 0.4060814766779786
4246077 -0.9114905417932997 0.40586018320981343
4246946 -0.9113478797647252 0.40667978915056663
4247815 -0.9120404150075904 0.4062164413422675
4248685 -0.9120206036782017 0.4067120939109671
4249554 -0.9118612063819205 0.40667118129348573
4250424 -0.911890155795734 0.4068880429765747
4251293 -0.9117387449544573 0.40687990361619125
4252162 -0.9115991552163729 0.4069907765604888
4253032 -0.9117825583650929 0.4070081373017693
4253901 -0.9115515888001265 0.4070064678585926
4254771 -0.9115670409748775 0.40735117037776064
4255640 -0.9116361159442142 0.40752131370301825
4256509 -0.9115661048001279 0.40691676542655675
4257379 -0.9112521843017269 0.4067565098483829
4258248 -0.9110098871918633 0.40697356587713146
4259117 -0.9113384156708536 0.4074070966189529
4259987 -0.9112317393170161 0.4074042354902661
4260856 -0.9109578768201783 0.4076850966642436
4261726 -0.9110117253626866 0.4078814757821009
4262595 -0.9107239067467103 0.40840546835551644
4263464 -0.911514032727547 0.4083294362981155
4264334 -0.9112171475395603 0.4079195861746425
4265203 -0.9109129770697438 0.4078153038773999
4266073 -0.9105219442923941 0.40746839627944836
4266942 -0.9108196237466948 0.4078648397718631
4267811 -0.9111738001261438 0.40809572809376965
4268681 -0.9111195264113506 0.408144069671061
4269550 -0.910717941835543 0.40858364693546523
4270420 -0.9107348672262259 0.408437271297185
4271289 -0.911153089706292 0.40889320941520146
4272158 -0.9109309556083535 0.4087368368485004
4273028 -0.9109412909832372 0.40900347546126103
4273897 -0.9109554440370652 0.40982716699487975
4274766 -0.9102920639140426 0.4095758252764285
4275636 -0.9105676287042375 0.4093351023973528
4276505 -0.9105042993519367 0.40910578714696344
4277375 -0.9103548886891358 0.4095858866501232
4278244 -0.9105194118511164 0.40953966072264897
4279113 -0.9110368362720378 0.40948018179927176
4279983 -0.9105949174096598 0.4092336954148613
4280852 -0.9108412747405575 0.409137213473789
4281722 -0.9103832629123924 0.40923331939943436
4282591 -0.9108199754313084 0.4090738553705499
4283460 -0.9106023303592057 0.40894997124534693
4284330 -0.9104793293691702 0.40928649073323703
4285199 -0.9107936057766548 0.409263927074292
4286069 -0.9113842101232539 0.4097040287680975
4286938 -0.9105561229886175 0.4097139606818119
4287807 -0.9101909113438991 0.4099165839097274
4288677 -0.9099878975914563 0.41002473106878984
4289546 -0.9097893074862962 0.41013628978685035
4290416 -0.9092855537078227 0.4101001678360167
4290416 -0.9098375137923924 0.41003221139651763
4291303 -0.9094423200325596 0.41062029576077413
4292190 -0.909863722765477 0.41075275936721484
4293078 -0.9095331188680102 0.4105331243135939
4293965 -0.9094815962895 0.4106423769174579
4294852 -0.9094358969705753 0.41142831149261794
4295740 -0.9097072793957792 0.4117496145647296
4296627 -0.9097146786425915 0.41081145584386697
4297514 -0.9098651392215867 0.41123762272431474
4298402 -0.9099802336846697 0.41166503173035207
4299289 -0.9097290176973984 0.4113104232856465
4300177 -0.9095350170181713 0.41094701391308963
4301064 -0.9095481275459989 0.4111253441585221
4301951 -0.9097449311153911 0.4114480567282724
4302839 -0.9099315799776231 0.4115169409159904
4303726 -0.9098550316167763 0.41111722146891544
4304613 -0.9097522818576901 0.41119403428527784
4305501 -0.9094351045678944 0.41145828657228156
4306388 -0.9098699424911967 0.4117869047892704
4307276 -0.9100304227440111 0.411924147638599
4308163 -0.9099655581125574 0.4117909976529497
4309050 -0.9097656834820224 0.41194481461857674
4309938 -0.9098131512454655 0.4119103734352727
4310825 -0.9095721018668348 0.4117598636877432
4311712 -0.9095198159697383 0.4118324474572458
4312600 -0.9087438224750614 0.41211981605186054
4313487 -0.9086106176479216 0.4121963889466335
4314374 -0.9091903471924115 0.4123023205707851
4315262 -0.909436119006544 0.4132317420680442
4316149 -0.9091840867884287 0.41265226908681824
4317037 -0.9090204019929832 0.4129083980805585
4317924 -0.9088256656946843 0.4124534212979386
4318811 -0.9089569796896858 0.4125543056957206
4319699 -0.9087582649011559 0.4121508955447514
4320586 -0.9086726430594401 0.41259836019727814
4321473 -0.9087443333543459 0.41306041973842594
4322361 -0.9093955404491475 0.413015162709372
4323248 -0.909418682543728 0.4131674186604809
4324136 -0.9096125413919807 0.41355924631276114
4325023 -0.9094748570440203 0.4134289093915533
4325910 -0.9092869101261797 0.4134154820692178
4326798 -0.9090306949359382 0.41316782660555046
4327685 -0.9088132246641477 0.41330199297788994
4328572 -0.9083452832768528 0.4135219948559926
4329460 -0.9083779843401074 0.4129934883483706
4330347 -0.9090642110304942 0.41355777566609475
4331235 -0.9086366463275896 0.4135779645055322
4332122 -0.9086841355631785 0.41332229998414355
4333009 -0.9084993413240876 0.4132179473708376
4333897 -0.907957946603084 0.4130278896934072
4334784 -0.9083563691729305 0.4136680518185265
4335671 -0.9080754826010488 0.41392025012763584
4336559 -0.9085020167527027 0.4142335893579271
4337446 -0.9087794819178359 0.4142370680303107
4338333 -0.9085848518288094 0.41470932763102625
4339221 -0.9081894213845008 0.4146544575890157
4340108 -0.9081970903168627 0.4149058530698578
4340996 -0.908321302531861 0.4148881646231322
4341883 -0.9079597651684536 0.4152418727042437
4342770 -0.9080196817304697 0.41505581914434797
4343658 -0.9080360482042904 0.4146425748070355
4344545 -0.908099537201566 0.41561707464743747
4345432 -0.9074312101244798 0.4153484714675184
4346320 -0.9074869036909751 0.4153043991686844
4347207 -0.9077696008161954 0.4148081567778268
4348095 -0.9083427690369145 0.41554502919847935
4348982 -0.9082577664897066 0.4153506018370182
4349869 -0.9079845120520491 0.41500306974278056
4350757 -0.9081105418725762 0.4152011862490719
4351644 -0.908158734077589 0.41549682269952226
4352531 -0.9081581957596846 0.41543944344850775
4353419 -0.9079843217978775 0.4152305357954072
4354306 -0.9082002288767144 0.4155785618336781
4355194 -0.9076179091660539 0.41552839661981206
4356081 -0.9072899613319634 0.41616794981449157
4356968 -0.9069392748799662 0.41579826748928594
4357856 -0.9065562983397516 0.4159752164618732
4358743 -0.9065672331614655 0.41641629988663936
4359630 -0.9067542250465879 0.416715421343916
4360518 -0.9071377263158547 0.4167434497522349
4361405 -0.9065863279608907 0.4165206178442881
4362292 -0.9067334483042444 0.4167563019361415
4363180 -0.9074163802705739 0.4166727959719659
4364067 -0.9073098489967866 0.41630459653852275
4364955 -0.9070115170565026 0.4163359823811725
4365842 -0.9068237553093482 0.41650038071393836
4366729 -0.9068782378618306 0.41654434893568365
4367617 -0.907025316574119 0.41668732158040594
4368504 -0.9071077050729635 0.41671648212192164
4369391 -0.9071902690777961 0.4169229855601012
4370279 -0.9068570419834554 0.4167534900839847
4371166 -0.907344239380066 0.4172782434734705
4372054 -0.9072560758479267 0.4170848540505148
4372941 -0.9069204812037316 0.4173847169670515
4373828 -0.9066568015906601 0.41751390816176065
4374716 -0.9068090620356869 0.417680442539133
4375603 -0.9068762387979982 0.4173039149398199
4376490 -0.906939430109671 0.41727567198698884
4377378 -0.906479464555939 0.417992511085754
4378265 -0.9067435991910657 0.4178915200018038
4379153 -0.9065154265697565 0.41788202311623446
4379153 -0.9066859562575622 0.41810427599318706
4380058 -0.9062176661148016 0.4185081506927005
4380964 -0.9067331145510164 0.4191732324822164
4381870 -0.9066966415899084 0.4191657609962232
4382775 -0.9062445258311318 0.41915414853824506
4383681 -0.906604149207672 0.41890597452476214
4384587 -0.906158289719702 0.41945639119707967
4385493 -0.9061827449517064 0.4194608242195269
4386398 -0.9062115767156916 0.4193276150452936
4387304 -0.9055650754518112 0.41871733430073677
4388210 -0.9054053745195801 0.41877519027970456
4389116 -0.9060294622700366 0.4189060639169568
4390021 -0.9063991605380131 0.4190032577491362
4390927 -0.9056417760213084 0.4184612745117949
4391833 -0.9052741577000343 0.4182204149834228
4392738 -0.9054571133732509 0.41848525664877606
4393644 -0.9056747819822288 0.41840828071490804
4394550 -0.9060679160617795 0.41876230998622144
4395456 -0.9064313611030833 0.4192691697800603
4396361 -0.9062234078388485 0.41975970420462044
4397267 -0.9062201405272716 0.41988851890986695
4398173 -0.9061365529726743 0.42045754385226386
4399079 -0.9061225834820188 0.420307936365993
4399984 -0.9058222685180333 0.42046902774275585
4400890 -0.9059490027528004 0.42019381061968986
4401796 -0.9058206150429772 0.4201792469048863
4402701 -0.905473047412952 0.42059834237925575
4403607 -0.905829204404997 0.42010209417860256
4404513 -0.9060674982940163 0.42057018174047467
4405419 -0.9058197904685281 0.4201602417567702
4406324 -0.9057176613254881 0.4201153215013997
4407230 -0.9054522732591834 0.42037590557830756
4408136 -0.9057926528077975 0.4207063405479895
4409042 -0.905630340413252 0.4207411066569155
4409947 -0.9054110131344343 0.42088286767941346
4410853 -0.90537493960607 0.4209577904854526
4411759 -0.9054108757402748 0.42112148724602216
4412665 -0.9049706220979785 0.4208410222757142
4413570 -0.9049732771079692 0.4206473279126579
4414476 -0.9050565282084801 0.4210830847643952
4415382 -0.9050798489738696 0.4211434642460822
4416287 -0.9048533049446577 0.4208935613773171
4417193 -0.9046965453076979 0.4212247002632312
4418099 -0.9048851529616443 0.42109842211313403
4419005 -0.9054257152405413 0.42148945480342254
4419910 -0.9047177391551962 0.4217012957196993
4420816 -0.9046127633787588 0.4213349321457778
4421722 -0.9043921403670094 0.42177233431924077
4422628 -0.9049482779103923 0.42195129790039637
4423533 -0.9049538002340711 0.4219287493251433
4424439 -0.9051602240359649 0.422316198364608
4425345 -0.9050392191866146 0.4226155335488588
4426250 -0.9054335990861443 0.4222300844043736
4427156 -0.9052095084363302 0.4222278005550884
4428062 -0.9046618089948549 0.4222760125523805
4428968 -0.9050183940904011 0.4227328747044283
4429873 -0.905435937028047 0.42278205659276075
4430779 -0.9051528438839241 0.42277154623744023
4431685 -0.9050119710329537 0.422766806560258
4432591 -0.9048930610828433 0.422998722100287
4433496 -0.9045439233760213 0.4231643670864632
4434402 -0.9046358925014885 0.4227038830285773
4435308 -0.9047326110720745 0.4225941201508967
4436213 -0.9043803736758536 0.42288141345596014
4437119 -0.9045133872571514 0.4228345053642821
4438025 -0.9043276900110612 0.4229802268319122
4438931 -0.9042458348170611 0.42303979221866334
4439836 -0.9040277535119564 0.42297237015485356
4440742 -0.9039698425287256 0.42330132099825457
4441648 -0.9038611117113422 0.42326880567961267
4442554 -0.9035010731904043 0.42314018159272093
4443459 -0.9039420399580189 0.42409201635123067
4444365 -0.9036529171188409 0.42400108514894513
4445271 -0.9037095583624692 0.42400968662265365
4446177 -0.9033423159340805 0.4238102231795428
4447082 -0.9032295844148225 0.4238634279856381
4447988 -0.9030640697047356 0.4240110749651761
4448894 -0.903255044770762 0.4235390165240542
4449799 -0.9039886969366792 0.42413449194308234
4450705 -0.9042364612464824 0.4240731804459246
4451611 -0.9046245524428415 0.42430292664682767
4452517 -0.9038395637423311 0.42407560782435627
4453422 -0.9037437620723017 0.4242504729470446
4454328 -0.9035603128000267 0.42480849553089106
4455234 -0.9036151305232558 0.4252086088482088
4456140 -0.9040142891611047 0.4247930329865482
4457045 -0.9036877112888632 0.4246158398555644
4457951 -0.9034909502420114 0.42454417615371787
4458857 -0.9038814853121468 0.4245603901106308
4459762 -0.9038008306518043 0.4246478557557489
4460668 -0.9040938734638934 0.42457246282365857
4461574 -0.9037284645783166 0.42497835645905935
4462480 -0.9035544986725055 0.4253715504764318
4463385 -0.9035667555978896 0.4253653861554434
4464291 -0.9038533452727889 0.4252962276669618
4465197 -0.9037792106063695 0.42541053308172205
4466103 -0.9039772369888008 0.42590091602768
4467008 -0.9040191278193549 0.4259874847418256
4467914 -0.9035773908405326 0.42568667856934894
4468820 -0.9030099037335463 0.4256696109192568
4469726 -0.9029661059776095 0.4260387106085062
4469726 -0.9026666842845631 0.4258338165359519
4470650 -0.9025611471904534 0.4262210165913889
4471574 -0.90275845035955 0.4267796417079998
4472499 -0.9027936008968888 0.42680002591397476
4473423 -0.9024308495418025 0.4265059301016504
4474348 -0.9024386615636077 0.4264315857243855
4475272 -0.9027016218076105 0.42680902130478765
4476197 -0.9027389428981253 0.4264838545964889
4477121 -0.902674338091683 0.4266342566887582
4478046 -0.9021861401434828 0.4266823649989631
4478970 -0.902326819938697 0.42690533847458334
4479895 -0.9024455894612852 0.42704213102420946
4480819 -0.9025134579647563 0.4269255642104141
4481743 -0.9027067617491742 0.4276855630381728
4482668 -0.9024222196357182 0.42730605672917743
4483592 -0.9023825170819298 0.42719757404177433
4484517 -0.9021178681579243 0.42714459050462117
4485441 -0.9019070326599156 0.4270108573676318
4486366 -0.9020824388002341 0.42758044746789586
4487290 -0.9021041175720146 0.42727132610576307
4488215 -0.9017738689601119 0.4267945680640883
4489139 -0.9018234655984364 0.4276265414368847
4490064 -0.9021101728446753 0.4280588845061022
4490988 -0.9019562333691984 0.4281784975102067
4491913 -0.9019795807119034 0.4277619140375608
4492837 -0.9019054847017672 0.4282445142155878
4493761 -0.9019160833686185 0.4282924991632836
4494686 -0.9019062050117505 0.42802391451490723
4495610 -0.9018208773825772 0.4282684900475527
4496535 -0.9017301753877605 0.42844242366742
4497459 -0.9020158500884337 0.4282977393768302
4498384 -0.9023352717005383 0.42856565299080973
4499308 -0.9021391666562868 0.42854556667362476
4500233 -0.9023967374646056 0.42915367263009896
4501157 -0.9030796824195991 0.4294483083518345
4502082 -0.902555877291576 0.42914019386732905
4503006 -0.9027013809619446 0.4289296865198442
4503931 -0.9021380085116545 0.42894309528099983
4504855 -0.9021114717979399 0.4291765617082708
4505779 -0.9019491739511528 0.42920398781179725
4506704 -0.9014758513823113 0.42909353925933896
4507628 -0.9018365191039555 0.4291674424961607
4508553 -0.9016995262494294 0.4294625521135907
4509477 -0.9017088531257103 0.4297110170796251
4510402 -0.9021051560145577 0.4295939146730602
4511326 -0.9013092057609609 0.42966815479061266
4512251 -0.901341762734494 0.4300529464160183
4513175 -0.9017831041839287 0.43004139491054605
4514100 -0.9014460809419463 0.4300601317966645
4515024 -0.9013691420661782 0.42991558632752574
4515949 -0.9016165682488323 0.43032805582734573
4516873 -0.9015255134816368 0.43013034795214494
4517797 -0.9017468239797735 0.43007073750334784
4518722 -0.9015815725782618 0.43016568089044804
4519646 -0.9022856723541122 0.4299906512897628
4520571 -0.9019886392642565 0.4302680979837529
4521495 -0.901511705516311 0.4300624280003729
4522420 -0.9008026959818022 0.43027259820195757
4523344 -0.9008950276555169 0.43110483627927215
4524269 -0.9012681582728906 0.43125750181679384
4525193 -0.9010843886038452 0.43157674063574875
4526118 -0.9008486860326634 0.43153757000664716
4527042 -0.9012082156742425 0.4317407202045769
4527966 -0.9011635434450298 0.4312717778077363
4528891 -0.9008560161078051 0.43101470374737766
4529815 -0.9004080583589816 0.43109093031756834
4530740 -0.9006866002886172 0.43136415182583965
4531664 -0.9010131711202983 0.4317061267720044
4532589 -0.9008086194252033 0.4315583550758183
4533513 -0.9008397777791612 0.4316192918055186
4534438 -0.901204100369682 0.4315967104608383
4535362 -0.9012844470206742 0.43197563245617715
4536287 -0.9012584040055113 0.4316842395777567
4537211 -0.9009265458979144 0.43156044324409376
4538136 -0.9006944943267715 0.43188431419675366
4539060 -0.9006751151659284 0.4317571164011498
4539984 -0.9007534057293008 0.43206751986054237
4540909 -0.9005001998479162 0.43250967368267224
4541833 -0.9008851925508408 0.43264504691089245
4542758 -0.9008159535658077 0.432579459075
4543682 -0.9005077758249512 0.4323955860669304
4544607 -0.9002124567604438 0.4323808851080827
4545531 -0.9002320136074737 0.4328358436736575
4546456 -0.900137893850721 0.4328073696545935
4547380 -0.8998619551840829 0.43268732628964773
4548305 -0.8994971606494397 0.43295518146972184
4549229 -0.9000207420439441 0.4331531481902315
4550154 -0.9005821137074349 0.4334162198965816
4551078 -0.9005997478124415 0.4333622789167468
4552002 -0.9003120552525845 0.43304648143734625
4552927 -0.8996841328320321 0.43321906584587616
4553851 -0.8997203860781247 0.43292030761708733
4554776 -0.8998924417876988 0.43294270679954777
4555700 -0.8998629920617264 0.43333670017749454
4556625 -0.8999394507714202 0.434048453490874
4557549 -0.900343891825812 0.43391253367564886
4558474 -0.899919248014821 0.43403005045332815
4559398 -0.8996801153231758 0.43453661824071227
4560323 -0.8995504503118944 0.4351727392553925
4561247 -0.8996943402065865 0.43501502137197573
4562172 -0.899627889993707 0.4345805513116197
4562172 -0.8995535366352733 0.4351592432409826
4563115 -0.8994031794106834 0.4345241189449445
4564059 -0.8990338828966633 0.43449963876597586
4565002 -0.8992126163165216 0.4346853877321131
4565946 -0.8989578192940191 0.4348295870599444
4566889 -0.8988757555330973 0.4345987121129416
4567833 -0.8986887424896167 0.43477009114913445
4568777 -0.8985363429938839 0.43494246726357333
4569720 -0.899097583722544 0.43466668619767745
4570664 -0.8986486293413468 0.43446552906155345
4571607 -0.8988087096511274 0.43492925109642117
4572551 -0.8995344293669965 0.4348863010812659
4573494 -0.899560101783798 0.43494742941849895
4574438 -0.8990989569064398 0.4350093455286418
4575382 -0.8989649444798211 0.4352218069915895
4576325 -0.8987770673578492 0.435531736822006
4577269 -0.8985261819817421 0.4356455450611114
4578212 -0.8983709362384449 0.4354072090601844
4579156 -0.8982326196042478 0.43561860782660516
4580100 -0.8987460358653511 0.435872808467248
4581043 -0.8987521915108102 0.43609516149684
4581987 -0.8984638939544721 0.43591275345501146
4582930 -0.8982241811336196 0.4363637643371961
4583874 -0.8988061739224714 0.436776720832222
4584817 -0.8985353052050491 0.4368616890065619
4585761 -0.8981764558178648 0.4372433241167193
4586705 -0.8982855861772636 0.4369165504234323
4587648 -0.8982834285653238 0.43679248798559905
4588592 -0.89836673894527 0.43640844431409737
4589535 -0.8980606613333375 0.43603374167831227
4590479 -0.8981140356957821 0.43668524190422436
4591422 -0.8984177858311196 0.4366025003602158
4592366 -0.8984404991686838 0.43664236183316507
4593310 -0.8983317119092978 0.4366388689551998
4594253 -0.8984850429592732 0.4373738456877382
4595197 -0.8987653408502754 0.4373308433869126
4596140 -0.8984650164325348 0.4371140692565906
4597084 -0.8985464264912044 0.4371323278548295
4598028 -0.8981432215857139 0.4374285021772937
4598971 -0.8984450503424725 0.4374645060703666
4599915 -0.898530555226719 0.43718245160586877
4600858 -0.8980306624778207 0.43745645454996307
4601802 -0.8980867538833804 0.43777877859161696
4602745 -0.8977491345050573 0.4379096397451115
4603689 -0.8975794038723016 0.4378020221547709
4604633 -0.8973087130446541 0.4379416219907852
4605576 -0.8978232704706136 0.43823847240705066
4606520 -0.898142191130228 0.43825481390686716
4607463 -0.8981887356902595 0.43832295513740477
4608407 -0.8978736905397979 0.4381751281622312
4609351 -0.8981357956157194 0.4382418645579403
4610294 -0.8978913553414658 0.43803449160211283
4611238 -0.8980861047117513 0.4379601271591875
4612181 -0.8977392408709467 0.43838721146775894
4613125 -0.8979583424291544 0.43880258203867156
4614068 -0.8983569874723983 0.4388754087933132
4615012 -0.8980324222622394 0.43873211874137913
4615956 -0.8976927745942845 0.4387673027017187
4616899 -0.8979806711056217 0.43865323344587864
4617843 -0.8978920054663859 0.4386162469643804
4618786 -0.8973976129540664 0.43892755667499095
4619730 -0.8971160131561776 0.4391407269282017
4620673 -0.8974974837325185 0.43952584128265665
4621617 -0.8975308668415454 0.4398021839665224
4622561 -0.8973216227000385 0.43999181817176614
4623504 -0.8973596356835991 0.4402875405216544
4624448 -0.8972946842798578 0.4402425967082148
4625391 -0.8973681018823019 0.43957269471327587
4626335 -0.8972185469142169 0.43952558595573693
4627279 -0.8971623602914841 0.4393729661732439
4628222 -0.8970684833249825 0.4400640021175585
4629166 -0.8971403125648013 0.4399458965623295
4630109 -0.8970016528322375 0.4399043948319671
4631053 -0.8969893991910585 0.440352221689464
4631996 -0.8972539777043077 0.4405455646642958
4632940 -0.8974234340000365 0.4404435014183707
4633884 -0.8970351267478385 0.440770603780671
4634827 -0.8967551306733117 0.44062201583802785
4635771 -0.8970108581097207 0.4411002084143263
4636714 -0.897005787307173 0.4409636085957595
4637658 -0.8965011681330972 0.4409154754634037
4638601 -0.8964184782786137 0.44107472743377585
4639545 -0.8966503445111056 0.44122034002643523
4640489 -0.8969339406720886 0.44126449887359354
4641432 -0.896643853800255 0.4412836768993595
4642376 -0.8966678118236584 0.44176120432496496
4643319 -0.896948692935739 0.4420641399470028
4644263 -0.8968824791645023 0.4415544606723502
4645207 -0.8967002143213352 0.44148850581549887
4646150 -0.8958970394704003 0.4416867957524521
4647094 -0.8957339677702255 0.4414004003452682
4648037 -0.8955041359822113 0.44120542563832804
4648981 -0.8956024685961232 0.4414980952178261
4649924 -0.8958297860828446 0.44152193927817995
4650868 -0.8964735581368276 0.44194908870100935
4651812 -0.8967161643389715 0.4418807235786409
4652755 -0.8961469732458222 0.44188039423030295
4653699 -0.8962638730536552 0.4423882792753493
4654642 -0.8962652319827668 0.44235341777750437
4655586 -0.8964256839923822 0.442725421238543
4656530 -0.8959409473129955 0.4428533903556272
4656530 -0.8954793694881614 0.4430012400383444
4657493 -0.8953651839822717 0.4430632130491193
4658456 -0.8958693001427352 0.443577155623919
4659419 -0.8962578107382627 0.4427857782060975
4660382 -0.8960753646861792 0.4428184504404861
4661345 -0.8961099108140012 0.4431488745228427
4662308 -0.8952711070359238 0.44309338633084094
4663271 -0.8954062474779401 0.4431458290772187
4664234 -0.8948661157454421 0.44299209385501004
4665197 -0.8954081352675747 0.44345014657643433
4666161 -0.8953446822975176 0.4432885278983376
4667124 -0.8954339491333647 0.44372005309027673
4668087 -0.8949474955172987 0.4437213088767371
4669050 -0.8955726888057896 0.4438716240636904
4670013 -0.8952983393176314 0.4434607944239691
4670976 -0.8953442755641436 0.44314062971327955
4671939 -0.8949772407733709 0.4435674687326158
4672902 -0.8950503516078794 0.4438563041250274
4673865 -0.8950175815512348 0.44379123854536023
4674828 -0.8946183697258484 0.4436725731075231
4675792 -0.8949231125356186 0.44415179008115124
4676755 -0.8949982875995118 0.44442558252222575
4677718 -0.8951431031298597 0.444600646089663
4678681 -0.8946753973334203 0.4443226953856601
4679644 -0.8944472228144245 0.4446605283074988
4680607 -0.8946522097186054 0.44476372942914766
4681570 -0.8946815027016491 0.4445249239232002
4682533 -0.8943596486451466 0.4448942621177642
4683496 -0.8945947733068819 0.44484026036603913
4684459 -0.8949598827291142 0.44526460768762505
4685423 -0.8950690356236217 0.4447772456966594
4686386 -0.8949561649149587 0.4448279130423428
4687349 -0.8945646991234658 0.4453349009937484
4688312 -0.894395559761821 0.4454374557414389
4689275 -0.8944390170944512 0.44529175816764244
4690238 -0.8940787213174453 0.44611267983446357
4691201 -0.8939053698980179 0.44614508486598264
4692164 -0.8941511866574157 0.4461927218176478
4693127 -0.8942973155459998 0.4454652509480394
4694090 -0.8944740427680552 0.4460569795408283
4695054 -0.8947356475160948 0.4461618370149538
4696017 -0.8945713440325657 0.4456877935081511
4696980 -0.893778939674542 0.445781202658026
4697943 -0.8936218555437662 0.4456334388066049
4698906 -0.893402970260131 0.4459952030775456
4699869 -0.8934763556923085 0.44575804364607524
4700832 -0.8939674890557457 0.44548028629915853
4701795 -0.8937993690196712 0.4462828593112962
4702758 -0.8937553531316174 0.4461955598518664
4703721 -0.8937895282937457 0.4464801997780139
4704685 -0.8940322132292723 0.44664768907350255
4705648 -0.8938650012826361 0.4463141525780277
4706611 -0.8934788979218515 0.4466105298642867
4707574 -0.8938165428068308 0.44673800256222146
4708537 -0.8938064821835165 0.44647307149596643
4709500 -0.8938111677223314 0.4468675375520417
4710463 -0.8939122581471507 0.44770585580961114
4711426 -0.8938151361851594 0.4476860836581004
4712389 -0.8939762522781216 0.44751417917939784
4713352 -0.8935478456119557 0.4474791255088449
4714316 -0.8933002844770663 0.44770566060550887
4715279 -0.8937932425250523 0.4480840668035824
4716242 -0.8933411103703237 0.4485105639799952
4717205 -0.8931321186131373 0.44865011932478843
4718168 -0.8934852515106064 0.44894512173834367
4719131 -0.8934162283753885 0.44854504095132847
4720094 -0.8932387384037381 0.4485839638251476
4721057 -0.8928324842190047 0.4486972903047838
4722020 -0.8930986722024149 0.44836431671250887
4722983 -0.8931853207891756 0.4484606667681918
4723947 -0.8927789871105357 0.4481886665019243
4724910 -0.892668852074254 0.44838239855607864
4725873 -0.8924440542245753 0.4487993739389237
4726836 -0.8924200114860095 0.4483715134864709
4727799 -0.8923371260738453 0.4484454247994448
4728762 -0.8925044461105546 0.44870231492082346
4729725 -0.8925712599283918 0.4489188465426492
4730688 -0.891963636367672 0.448752949247309
4731651 -0.8925766196974813 0.44837752621597576
4732614 -0.8925664560361006 0.44872499065179633
4733578 -0.8928839282945962 0.4493519904600282
4734541 -0.8926666845014988 0.4492463833191272
4735504 -0.8925325876962669 0.44931780330366944
4736467 -0.8923750473089122 0.44952589064136056
4737430 -0.8925869876405226 0.449832326773775
4738393 -0.892722081120194 0.44938950721452037
4739356 -0.8922226587139052 0.4496478292002591
4740319 -0.8925486377816326 0.44968245569658033
4741282 -0.8928128332264353 0.4498811017817775
4742245 -0.89244313534703 0.4498244411543436
4743209 -0.8923226701326964 0.4498248978755704
4744172 -0.8921002694117792 0.45065748719030113
4745135 -0.8918477566295401 0.4510182531420673
4746098 -0.891955477794314 0.45094561766445884
4747061 -0.89206650388665 0.45119264754984983
4748024 -0.8922461828367271 0.4512272447588802
4748987 -0.891913891122396 0.4512718022900107
4749950 -0.892032741282886 0.45045908153676156
4750913 -0.8920751406630694 0.45094082781119565
4751876 -0.8922597877989188 0.45094683933797775
4752840 -0.8923998045531154 0.45078433359442416
4752840 -0.8918481088870281 0.45064148425287276
4753823 -0.8915695770899401 0.4514495875342047
4754806 -0.8913583233991935 0.4516626201133209
4755789 -0.8917166493658695 0.4516986720002572
4756772 -0.8913086888749787 0.45159055412260257
4757755 -0.8917995942798439 0.4518182160089872
4758738 -0.8917263092052844 0.451806376612466
4759721 -0.891400026991728 0.45150128874387174
4760704 -0.8910374788911272 0.4518433127639842
4761687 -0.8913888442136486 0.45227505521476385
4762670 -0.8913777775036357 0.4511903381263998
4763653 -0.8911311046484299 0.45115156342708335
4764636 -0.8908105640475952 0.4511429003399396
4765619 -0.8914678364366623 0.4514773011803108
4766602 -0.8913854385173918 0.45130283799623044
4767585 -0.8910302422251849 0.4514585739342437
4768568 -0.8909428201373508 0.4520756079459958
4769551 -0.8910050455050549 0.45202094220260797
4770534 -0.8914035957330945 0.45232820843765964
4771517 -0.8911463678289605 0.45280580469180215
4772500 -0.8910390391576971 0.45293637340757165
4773483 -0.891275542618607 0.4529108192561093
4774466 -0.8909988413873607 0.4527974918556161
4775449 -0.8907099615683305 0.45330400990048914
4776432 -0.8907931263871547 0.4531991504551589
4777415 -0.8908777545845391 0.45399273459926287
4778398 -0.8908155605730413 0.45318018446069036
4779381 -0.8908471077150046 0.45293727767643965
4780364 -0.8910226229152983 0.4529991033779978
4781347 -0.8905232947940117 0.45264021250228004
4782330 -0.8907441358217496 0.4525217689872682
4783313 -0.8902124244626678 0.453050775822126
4784296 -0.8899683620929238 0.4535241712309689
4785279 -0.8903622000896803 0.4529651428545286
4786262 -0.8900677521391911 0.45314963303476563
4787245 -0.8900293225218292 0.45353031544810607
4788228 -0.8900387494131222 0.4536454007138284
4789211 -0.8900284036856192 0.4533783363010806
4790194 -0.89004915350794 0.4534684193196576
4791177 -0.8901424046618356 0.4538834572725394
4792160 -0.8904122778121377 0.45440516262504665
4793143 -0.8902454866362373 0.4546495961278132
4794126 -0.8904921857530427 0.4553887389825663
4795109 -0.8901544752424095 0.45472513744483106
4796092 -0.8906386972649177 0.4551382670590598
4797075 -0.8904005712507836 0.4548199386397521
4798058 -0.8897505036456969 0.45527967934590713
4799041 -0.8900447245298413 0.4551622512800241
4800024 -0.8901685965565285 0.4553393104684688
4801007 -0.8896520353696631 0.45528427607431277
4801991 -0.8894709577523695 0.455550333419007
4802974 -0.8893894761962983 0.45538168465303464
4803957 -0.8890952546757654 0.45529119535989265
4804940 -0.8891255551056585 0.4559035176335556
4805923 -0.889251992403441 0.4561426396624798
4806906 -0.8893804256476244 0.4559074734369787
4807889 -0.889374969674905 0.45600839068039584
4808872 -0.88945716901022 0.4557991020096141
4809855 -0.8894473504420689 0.45551859273301704
4810838 -0.8899802740519426 0.4555103230122491
4811821 -0.889473445060273 0.4551202951381642
4812804 -0.8893239309587718 0.4557546883681204
4813787 -0.8895682871805991 0.4558820802983302
4814770 -0.8894533918865501 0.4556809648365965
4815753 -0.8890815554724101 0.4557245845325567
4816736 -0.8886949451256136 0.45575138786754216
4817719 -0.8889263142215339 0.4562485641467347
4818702 -0.8886627758155569 0.4564088689756067
4819685 -0.8887987709374431 0.4568591486488079
4820668 -0.8884510116764304 0.45723229207982274
4821651 -0.8886913735540453 0.45686539451628744
4822634 -0.8887309028766954 0.4573990307205469
4823617 -0.8883886425001536 0.45714253043910735
4824600 -0.8886369499135807 0.45735101763061814
4825583 -0.8888315960374839 0.45766908603924716
4826566 -0.8888786043591538 0.45736797589281647
4827549 -0.8882864877269566 0.4573676296470525
4828532 -0.8881911173683195 0.45746303894334595
4829515 -0.8889632009917816 0.4574662851716429
4830498 -0.889088180640664 0.45744396139610877
4831481 -0.8889045961122654 0.4581145866838733
4832464 -0.8883274230579362 0.4572898540244758
4833447 -0.8881048368365494 0.4569640562096995
4834430 -0.8881515431356547 0.45720369365789304
4835413 -0.8884112668281542 0.4576262487032119
4836396 -0.8883091438945072 0.45795290150564577
4837379 -0.8879884802119474 0.45805365780004403
4838362 -0.8877214710275417 0.45812707660510626
4839345 -0.8882967978843604 0.45876122968227295
4840328 -0.8883822997294192 0.4584114481081094
4841311 -0.8882721697377391 0.4585243370219229
4842294 -0.8878911811919364 0.4590662333479753
4843277 -0.8883227816611412 0.45964992662845977
4844260 -0.8879337949090154 0.45950936742330234
4845243 -0.8879361591421275 0.45895770946192577
4846226 -0.8878818490540077 0.4594615746387081
4847209 -0.8880487560801514 0.45916379856708134
4848192 -0.8882892572896007 0.45892078893438565
4849175 -0.8882176546123086 0.45903534711733346
4850158 -0.8871187124094112 0.45912145072419785
4851142 -0.8869086363227153 0.45945364199340616
4851142 -0.8876933620842011 0.4599191644065834
4852145 -0.8876399006955139 0.46029700359598424
4853148 -0.8875021770264814 0.4596248123676042
4854152 -0.8875279311205919 0.4597893983523748
4855155 -0.8879317297346456 0.4596656678385817
4856158 -0.8873928743928469 0.4593653305160333
4857162 -0.8869190276765837 0.45928709010113583
4858165 -0.8866774782178037 0.46007937347648814
4859168 -0.8871575906773951 0.45924594536850494
4860172 -0.8869351800947777 0.4597887115393071
4861175 -0.8868927354098448 0.4597899815767043
4862178 -0.8866519800016316 0.46015683399041785
4863182 -0.8870410962241313 0.4602520517285225
4864185 -0.8874793737696504 0.4604572320940813
4865188 -0.8870572662486216 0.46072089966567786
4866192 -0.887112291329364 0.46094366855720553
4867195 -0.8869288131570862 0.46099153104823537
4868198 -0.8869792122676045 0.4610870015981319
4869202 -0.8866988403332264 0.46086674287393675
4870205 -0.8870110448003895 0.4604931341977523
4871208 -0.8865974992115037 0.46038562169214764
4872212 -0.8862654256956983 0.4605706958976299
4873215 -0.8864278394114719 0.4611420778141139
4874218 -0.8868930048717254 0.4614419913379666
4875222 -0.8864898407918762 0.4617150219352146
4876225 -0.8866363483275795 0.4621080782656135
4877228 -0.8866110706525371 0.4621076685653356
4878232 -0.8865526209802231 0.462131267385297
4879235 -0.8864142679446501 0.46251902841433234
4880238 -0.8862176303880976 0.46244273773543887
4881242 -0.8863901263368911 0.4623744733459286
4882245 -0.886326541009002 0.4618670520169242
4883248 -0.8858811874929333 0.46133850084768546
4884252 -0.8859824027711402 0.4613894419797266
4885255 -0.8857957435641156 0.4619074848585225
4886258 -0.8854478602396798 0.4617954205441354
4887262 -0.8858129317505373 0.461732642937431
4888265 -0.8854394166991322 0.4623971447166926
4889268 -0.885456280277654 0.4626446387315281
4890272 -0.8859783537108158 0.46279885271826504
4891275 -0.8857926596171662 0.46327426083165046
4892278 -0.8857275958246498 0.4632170466283824
4893282 -0.8858456425837433 0.4635756536645146
4894285 -0.8855483476696787 0.4631764683508792
4895288 -0.8859789529301503 0.4633527649481073
4896292 -0.885580654006327 0.4635877221856851
4897295 -0.8858085284909342 0.46360948388241774
4898298 -0.8853052318615767 0.46389552178274174
4899302 -0.8857117433410298 0.46446678600809294
4900305 -0.8857837451220558 0.4638730247161767
4901309 -0.8857116682372373 0.4635499267067618
4902312 -0.8854391867739936 0.46320190734595235
4903315 -0.8854233896118437 0.46319124402235123
4904319 -0.8852940803545714 0.4634135628491394
4905322 -0.8851820075810579 0.46340167884376965
4906325 -0.8850956995196773 0.4642532626838028
4907329 -0.8847987890707254 0.46389307549025877
4908332 -0.8848751902863787 0.46398645567668684
4909335 -0.8847161132278089 0.4648634192334242
4910339 -0.8850461393899883 0.4651438502933151
4911342 -0.8849667384723731 0.46488591521819084
4912345 -0.8849968838949985 0.46453648385135615
4913349 -0.8848440684991842 0.4644011754345868
4914352 -0.8847478453358965 0.46430130419616134
4915355 -0.8845847197374752 0.46421800564885396
4916359 -0.8847359697600966 0.4641776881215709
4917362 -0.884499093435581 0.4655000986638109
4918365 -0.8847763474979823 0.46550420895766714
4919369 -0.884913089080465 0.46553584442077084
4920372 -0.8844951154635738 0.4653657136032426
4921375 -0.8846214876596526 0.4657510389454166
4922379 -0.8848611336719159 0.4655484566577416
4923382 -0.8847492868668783 0.4653278831242538
4924385 -0.8844393533907468 0.4654475253103728
4925389 -0.8845291163799504 0.46536942452057
4926392 -0.8841005195133079 0.46499706869625923
4927395 -0.8841553557606247 0.4652490791082159
4928399 -0.8839707236783877 0.466054835499352
4929402 -0.883839385627811 0.4664821636258012
4930405 -0.8843032453504942 0.4663036360782137
4931409 -0.8839218463815427 0.46647744310197564
4932412 -0.8840289181846349 0.4671406801927509
4933415 -0.8842229967263422 0.4667057759985124
4934419 -0.8841658558922266 0.4661849031709431
4935422 -0.8838336630473814 0.4658714235490789
4936425 -0.8839867643174955 0.46583448747587913
4937429 -0.8839014086665374 0.46623212722169904
4938432 -0.8836082062617023 0.4660266277628982
4939435 -0.8837516024153803 0.46624830352898694
4940439 -0.8841520556983671 0.4666578656703713
4941442 -0.8839476482488728 0.4670690101164862
4942445 -0.883767994445148 0.4671967401721077
4943449 -0.8839516588291063 0.46773998521313076
4944452 -0.8838076668045711 0.46773302488976565
4945455 -0.8842453524154744 0.4677004546471738
4946459 -0.8836350687687918 0.46748395767425865
4947462 -0.8835113950439816 0.46710530239221476
4948465 -0.8836413343044638 0.4675982455295857
4949469 -0.8833981059505983 0.46742740185615633
4950472 -0.8832416802530559 0.46822190129226615
4951476 -0.8835693702598074 0.46839818375218994
4951476 -0.8832088023335243 0.46893174311506763
4952500 -0.8843157371617248 0.46921221479933234
4953524 -0.8834358572502427 0.4684066324556599
4954548 -0.882955916045541 0.4683464507918952
4955572 -0.8827832374490298 0.46797717861984256
4956596 -0.8823533508946892 0.46746080294772385
4957620 -0.8825994560476426 0.4682018573095761
4958644 -0.8821022129646542 0.4685841631388777
4959668 -0.8826682094866137 0.4685979260516542
4960692 -0.8827961151325984 0.4688479897805054
4961717 -0.8825877149580609 0.4691462050959032
4962741 -0.8825123638223491 0.4694317435484198
4963765 -0.882393944829339 0.4690768720354798
4964789 -0.8822544624916425 0.4688056883031145
4965813 -0.8818888862969964 0.4688001643552112
4966837 -0.8816756084359326 0.4685779757516792
4967861 -0.882339064388414 0.46897962802883125
4968885 -0.8827824388570134 0.46887349754471747
4969909 -0.8827150738837009 0.47004165659016606
4970933 -0.8827238362762727 0.47002551070286663
4971958 -0.8828046311131184 0.47014675557482877
4972982 -0.8823205244897121 0.4703493769650956
4974006 -0.8827635019233819 0.47087827582680924
4975030 -0.8825467900638867 0.4708971641417336
4976054 -0.8823554061046509 0.4700561045719961
4977078 -0.8820462010901603 0.46957937933830607
4978102 -0.8821710464715777 0.4702986958230575
4979126 -0.8819594849526138 0.4701021508036757
4980150 -0.8818114325762372 0.47052368238474035
4981174 -0.881708015044528 0.47095720956212833
4982199 -0.8824361588306172 0.47092708012570167
4983223 -0.8822051376746086 0.47088939079527115
4984247 -0.8821020917084249 0.471461085236101
4985271 -0.8820471497231788 0.4710190213225417
4986295 -0.8823612488198529 0.47077324088620653
4987319 -0.88182819096716 0.4703672874629461
4988343 -0.8811533147617765 0.4706915046861991
4989367 -0.8816244643025923 0.47098662492256554
4990391 -0.8811818108038255 0.47097286844548003
4991415 -0.8807847805596847 0.4716960369428679
4992440 -0.8812893139678574 0.47154474808168445
4993464 -0.8815114122494446 0.47129595552810805
4994488 -0.8812888395373172 0.47164284560356545
4995512 -0.8813365473891717 0.471989397141404
4996536 -0.8814371370254889 0.47170689506599167
4997560 -0.8814863386754053 0.47105876645341693
4998584 -0.880559337969462 0.47077015057354454
4999608 -0.8807546957360363 0.4716627216312477
5000632 -0.8807231042118266 0.4716178329464844
5001656 -0.8809618005981487 0.4723224243837198
5002681 -0.8806652625198328 0.4721500774433991
5003705 -0.8808872096050974 0.4726509851122647
5004729 -0.8808652925439914 0.4728362990252414
5005753 -0.8810669377098345 0.4719396947090528
5006777 -0.8808227865156564 0.4725460376267834
5007801 -0.8809072556377968 0.4729015444010658
5008825 -0.8811489723871498 0.47316790844781437
5009849 -0.8810795742687517 0.47312886659063375
5010873 -0.8804983535876378 0.47359861668628034
5011897 -0.8808111933670044 0.47369598586032424
5012922 -0.8805881266908157 0.4736245058304802
5013946 -0.8805928852810028 0.47359452310910544
5014970 -0.8806913644913646 0.4734193637033093
5015994 -0.8804074850263864 0.4732423266341644
5017018 -0.8802343046573559 0.47257901677215364
5018042 -0.8801107723468915 0.4729008971870285
5019066 -0.8799255023270065 0.4734997899617037
5020090 -0.8800517098141395 0.47414482772306954
5021114 -0.8801951389901981 0.47387822193095547
5022138 -0.8799777756651609 0.47468560851155844
5023163 -0.8798997544372321 0.4745932408363415
5024187 -0.8803528373466879 0.47470733206312526
5025211 -0.8796370792646038 0.474763286665668
5026235 -0.8800194309324061 0.4741086297765148
5027259 -0.8800581144975494 0.47419783144225675
5028283 -0.8793774697042581 0.47422847071823276
5029307 -0.8788786821222669 0.47341228005669667
5030331 -0.8800354488064951 0.47464956320906904
5031355 -0.8795909704451847 0.474892618079295
5032379 -0.8792174010129963 0.47487330183321536
5033404 -0.8795648241508424 0.47506266673764624
5034428 -0.8794240444614834 0.47525878706593855
5035452 -0.8800667183852822 0.4746917035285243
5036476 -0.8795735191238968 0.47457470960524234
5037500 -0.8795736799693573 0.474220709015076
5038524 -0.8793145981422217 0.47468751269876797
5039548 -0.8786499932189433 0.4747006610630657
5040572 -0.8785033080332157 0.475291981121419
5041596 -0.8788715268085427 0.4757877423549023
5042620 -0.8792973681186299 0.4755787539138801
5043645 -0.8789121846394159 0.4761539086453772
5044669 -0.8791591700832762 0.4760535397382195
5045693 -0.8793583519903383 0.4766027681700528
5046717 -0.8795304546988194 0.4763917697218225
5047741 -0.8789571847206546 0.47614339512764464
5048765 -0.8791211353537335 0.47611537666828313
5049789 -0.8786273217112613 0.4763012234822649
5050813 -0.8785728235609804 0.4759267519375184
5051837 -0.8788912899990954 0.47646605861919333
5052861 -0.8784828414717322 0.47688105742477616
5053886 -0.878472055744228 0.47736204170906105
5053886 -0.8784556738057815 0.47694949933619335
5054931 -0.8783853102019983 0.4775831272834384
5055976 -0.8783192488119551 0.4781458082373966
5057021 -0.8785394082209317 0.47745719355718413
5058067 -0.8785457844816611 0.47638127615729225
5059112 -0.877722837924428 0.47655487840116834
5060157 -0.8781318883119643 0.4767254827227476
5061202 -0.8783711222724607 0.4771615879376729
5062248 -0.8772941515493728 0.4777941563900625
5063293 -0.87788810863953 0.47832688754278435
5064338 -0.8782889754106454 0.4780619231032054
5065384 -0.8782250300152357 0.47805860552796753
5066429 -0.8782218387813849 0.4776931562450041
5067474 -0.8783631397167881 0.47764133572943834
5068519 -0.878282467752138 0.4774404211901157
5069565 -0.8780383179983273 0.47775950091309144
5070610 -0.8779649011455954 0.4788206194683628
5071655 -0.8780814418893028 0.4784874262593092
5072701 -0.8783834737754498 0.47823067109690737
5073746 -0.878122786094137 0.47833425663705087
5074791 -0.877898410667825 0.4783036618835812
5075836 -0.8780083520144145 0.4778161345543552
5076882 -0.8774410309699988 0.4774496898093822
5077927 -0.876990774158144 0.4783515382957161
5078972 -0.8778028641400489 0.47888830605759936
5080018 -0.8773688424303099 0.47946724071334534
5081063 -0.8773017357676737 0.4795100327018932
5082108 -0.8779792980691039 0.4795268079143928
5083153 -0.8777856415910879 0.4794584168236023
5084199 -0.8776375007202999 0.47890009845826625
5085244 -0.877348936701386 0.4790868108034271
5086289 -0.8774515773528614 0.4791056757051077
5087334 -0.8770836869753836 0.47959828713097696
5088380 -0.8766390169889249 0.47999387303150254
5089425 -0.8772832642921748 0.48053861616663973
5090470 -0.8773245577208887 0.480066015821345
5091516 -0.8771378578260949 0.48042283505943023
5092561 -0.8772182183043239 0.47989333487380476
5093606 -0.8774043856879702 0.4793189077900032
5094651 -0.8768674420149432 0.4789732018582364
5095697 -0.8767650861009095 0.4803146011287195
5096742 -0.8762089579569945 0.48082708598905205
5097787 -0.8770653591762579 0.4812742204297801
5098833 -0.8761866480075206 0.480908578911745
5099878 -0.8761768420824073 0.4807236656941633
5100923 -0.8766684095367564 0.48162634513128116
5101968 -0.8765046457410244 0.4798851916831685
5103014 -0.8761965461264573 0.48025467306728964
5104059 -0.8767190791999583 0.4802656767066715
5105104 -0.8765678439668917 0.4810208040111056
5106150 -0.8764069933911975 0.48208920479950895
5107195 -0.8764701624793074 0.4820292962364614
5108240 -0.8765631641231901 0.48166417027316194
5109285 -0.8764354455295069 0.4812802272111287
5110331 -0.8759600362324144 0.4807956434316607
5111376 -0.8756824728440181 0.48110100131860845
5112421 -0.8762194874796663 0.4816941121412384
5113466 -0.8759110622177835 0.4817634189695796
5114512 -0.8755841488311685 0.4818985878759282
5115557 -0.8760088987242709 0.4823868349472663
5116602 -0.8756706123247054 0.4818533885995776
5117648 -0.8757880290251344 0.481481651520127
5118693 -0.8757443212794772 0.4812817936799852
5119738 -0.8756509670185512 0.48188175681390333
5120783 -0.8754265672902947 0.4818474989017745
5121829 -0.8753149590064144 0.482306106723192
5122874 -0.8748518229732906 0.4828606771839581
5123919 -0.8751387248346242 0.48268936824742253
5124965 -0.8749452773885559 0.48241017318453366
5126010 -0.8752448628159454 0.48268541435130896
5127055 -0.8756729845769631 0.4821079847346456
5128100 -0.8755357315358383 0.48223378209150963
5129146 -0.8744413675384537 0.48261949078319716
5130191 -0.8751571909463577 0.48316503733511684
5131236 -0.8747440826741334 0.4842904392182736
5132282 -0.8746412264413639 0.4838597543881437
5133327 -0.8750140247242718 0.484123404882988
5134372 -0.8756443929248154 0.4843528389055683
5135417 -0.876030780220037 0.48367546896235586
5136463 -0.8751971496337778 0.483269066969939
5137508 -0.8746845532227449 0.48362757889247465
5138553 -0.874604414315734 0.48440143925066953
5139598 -0.8750151833371489 0.4841951463434282
5140644 -0.873895904423914 0.48460809131379806
5141689 -0.8748319331999123 0.48522985510940453
5142734 -0.8748681032136514 0.48477661644746256
5143780 -0.8748263299104692 0.48399949229836
5144825 -0.8748115362431044 0.4839203413657543
5145870 -0.8749234072378083 0.4837671321629578
5146915 -0.875024237675956 0.48427441457326065
5147961 -0.8744737794220715 0.484521712251501
5149006 -0.8739544365793062 0.48532375063086164
5150051 -0.8744477075421697 0.4851748138695095
5151097 -0.8742565046866304 0.48505597900999853
5152142 -0.8743686113877547 0.485492823549393
5153187 -0.8743648072613968 0.48493019163445167
5154232 -0.8741493847252646 0.4848255197446914
5155278 -0.8737645326777033 0.4849581482791783
5156323 -0.8741042327961636 0.486008163470753
5157368 -0.8740736479129659 0.4859365563263291
5158414 -0.8734344797954194 0.48627502009152
5158414 -0.8733823777969322 0.48587785275828865
5159480 -0.872978714170353 0.48644861532733197
5160547 -0.8733897067343465 0.4868694698167612
5161614 -0.8737529066701711 0.4869040024975175
5162681 -0.8736879560428317 0.4860958500274434
5163748 -0.8732940900355924 0.48615816247651245
5164815 -0.8733000988969054 0.48666255109579776
5165882 -0.8730260262184985 0.48693730526086754
5166949 -0.872995390735175 0.48664540969202497
5168016 -0.8734038664395786 0.4871308503852267
5169083 -0.8736360690378938 0.4860890256613541
5170149 -0.8734198500804513 0.4859916804810209
5171216 -0.872887630834573 0.48665549546769565
5172283 -0.8734747048577486 0.4869425964363422
5173350 -0.8729428149341714 0.4868322351976377
5174417 -0.8730710053475027 0.48706467467958225
5175484 -0.8730476491008954 0.4870168126936485
5176551 -0.8728231542914635 0.48643563750404734
5177618 -0.8723216383451704 0.48634130205765036
5178685 -0.8722054408379356 0.48759758099756945
5179752 -0.87278843812927 0.48785661938305713
5180818 -0.873184401799923 0.4878154036387043
5181885 -0.8735301059130044 0.48762256351953104
5182952 -0.8732534813769858 0.48747419925857916
5184019 -0.873069757194141 0.48705590508309843
5185086 -0.8726215402956725 0.4879467675370039
5186153 -0.8723475796843206 0.4887856983555972
5187220 -0.872493224141184 0.4886170266407894
5188287 -0.8727357721282604 0.48864434636500104
5189354 -0.872361280256238 0.4879400496258984
5190421 -0.8726536774479756 0.4878659447490893
5191487 -0.8727125438569734 0.48765884167511114
5192554 -0.8719708587796146 0.487497981802913
5193621 -0.8725659331664138 0.4883702307667673
5194688 -0.872736473028071 0.488245756840513
5195755 -0.8726877444895851 0.4880475981147966
5196822 -0.8722527284464876 0.4880416074770169
5197889 -0.8721847561912667 0.4881563928185821
5198956 -0.8719060743239991 0.4889326310084317
5200023 -0.8713897273802601 0.4891919959365912
5201090 -0.872391062110961 0.49005198607117445
5202156 -0.8724153070334087 0.4894725188053857
5203223 -0.8721988684891532 0.4890294439228645
5204290 -0.8716136589711719 0.48926525407281624
5205357 -0.8719729658552059 0.49002968378734835
5206424 -0.8718004267627905 0.49025722658949716
5207491 -0.8716144889413975 0.4905181345864193
5208558 -0.8715594244802369 0.49072197032914294
5209625 -0.8719112864677802 0.48996162001592447
5210692 -0.8718612504034936 0.490067698277031
5211759 -0.8712962197174298 0.49057862377624933
5212825 -0.8709837161433082 0.4911924645907809
5213892 -0.8713036602111872 0.4910591670059681
5214959 -0.8709564498668065 0.4908683810041949
5216026 -0.8715835968056186 0.4904192947729537
5217093 -0.8715906899923432 0.4902822760724326
5218160 -0.8711660308228896 0.4895310973552391
5219227 -0.8708933705840446 0.49072907846265545
5220294 -0.8710791960863241 0.4909185944121251
5221361 -0.8716903187604651 0.4909738125319235
5222428 -0.8711521847456325 0.49073935251632694
5223494 -0.8713096720050684 0.4905109334615538
5224561 -0.8712613326759088 0.49098468290763675
5225628 -0.8711096924896672 0.49076431380369623
5226695 -0.8703205742035489 0.4916227065421354
5227762 -0.8702925430494716 0.4923636780380345
5228829 -0.8707635787598879 0.4920533853908071
5229896 -0.8706722531097962 0.49196858360764234
5230963 -0.8710546967706007 0.49221537795573334
5232030 -0.8712627925333584 0.4923208020451133
5233097 -0.8714306777629096 0.4925973054274311
5234163 -0.8706675619482692 0.4920249013577055
5235230 -0.8702379622186522 0.4929954058881376
5236297 -0.8707664207390085 0.4931301154662945
5237364 -0.8705119690816764 0.49237199175251456
5238431 -0.8706658953710202 0.49253302961628576
5239498 -0.8702690579920035 0.4922007779288173
5240565 -0.8704542775050471 0.4924758545078938
5241632 -0.8695368968761695 0.49277430667584665
5242699 -0.8695507167359593 0.49284223847372527
5243766 -0.8697259942846466 0.49295835541331373
5244832 -0.8697556860551531 0.4922285096690736
5245899 -0.8698858541512603 0.49275440437574874
5246966 -0.8696823194408426 0.4924556284872183
5248033 -0.8695100496239576 0.49260505316000885
5249100 -0.8693549455390144 0.4931741102764051
5250167 -0.8694857551996024 0.49382844381479696
5251234 -0.8698139017382307 0.4935255833283218
5252301 -0.8694178218224016 0.493345672273766
5253368 -0.8694714032907315 0.49367038924099915
5254435 -0.8701092736094482 0.49343703961727753
5255501 -0.8698755652489645 0.4935063754118078
5256568 -0.869170492775128 0.4940169552542934
5257635 -0.8686350534783253 0.49508346894824784
5258702 -0.8691649118291876 0.494970738711834
5259769 -0.869408220067216 0.4945719045030183
5260836 -0.8697662759123562 0.494586887370014
5261903 -0.8695559756074632 0.4948529948516304
5262970 -0.8697631591319077 0.4943164976913173
5264037 -0.8691186189005096 0.4946772890257357
5265104 -0.8686439513738008 0.4957179578259803
5265104 -0.8695078705088422 0.49509577574940994
5266192 -0.8686520009028598 0.49580550615708513
5267281 -0.8683097460151868 0.49587892228930847
5268370 -0.8688682838285973 0.4959017272901701
5269459 -0.8691144029048581 0.4951363685459644
5270548 -0.8691843151942119 0.49568052477749713
5271637 -0.869389215665228 0.4955444699266529
5272726 -0.8689114156937128 0.4954389604597102
5273815 -0.8680587491192922 0.4951693768206712
5274904 -0.8680578196049238 0.495845973428369
5275993 -0.8684748394090254 0.4953197006343286
5277082 -0.8686393642233813 0.49498204165841286
5278171 -0.8686195643630317 0.4952378460748132
5279260 -0.8686287322851525 0.4953443624953426
5280349 -0.8679770787716523 0.4950822447961287
5281438 -0.8676858705587698 0.4958504298715755
5282527 -0.8679489408685565 0.4957118172455508
5283616 -0.868295677779637 0.49555235239187795
5284705 -0.8681683684342062 0.49578240660226036
5285794 -0.8681204910787911 0.4966989354539968
5286883 -0.8678629382945247 0.4967571086922046
5287972 -0.8678611931241905 0.4971431408804018
5289061 -0.8680095773890081 0.49707854440163485
5290150 -0.8680763668758719 0.4973391307107352
5291239 -0.868035846743546 0.49688065731272707
5292328 -0.8671585459127668 0.4968553332249625
5293417 -0.8667774959386991 0.49753097002556385
5294506 -0.8677067046124427 0.4973156660766952
5295595 -0.867425378299465 0.4972097792185049
5296684 -0.8674101022895058 0.49775009860457364
5297773 -0.8680778795971483 0.4974688182731417
5298862 -0.867227335930241 0.4972196348801172
5299951 -0.8666904570103832 0.4973638980772544
5301040 -0.8671930085401408 0.4976493399578697
5302128 -0.8670516876820373 0.49709564006574364
5303217 -0.8674433226207912 0.49648124374630964
5304306 -0.8671733719120627 0.4968675984525675
5305395 -0.8670956673374793 0.4978549587694415
5306484 -0.8667970452704851 0.4979273075944347
5307573 -0.8669062624109926 0.4984542538792528
5308662 -0.866912124835331 0.4981014975646214
5309751 -0.8676324880607859 0.49800918729607485
5310840 -0.8667734032333021 0.4980530489167824
5311929 -0.8666167204945776 0.4992084833801948
5313018 -0.8666220591045418 0.4994727546227301
5314107 -0.8664841157985751 0.49923841196120267
5315196 -0.8664722796007084 0.49913977052826364
5316285 -0.8668357407017249 0.4998721151473687
5317374 -0.8656457532909765 0.49962669157991657
5318463 -0.8663278336931067 0.49968898021252267
5319552 -0.8663091718742022 0.49982978684308543
5320641 -0.8665102094607526 0.4988480185403294
5321730 -0.8661523277778 0.49878196991808355
5322819 -0.8659594500021249 0.49935988557342503
5323908 -0.8647807513589234 0.4996992761031355
5324997 -0.8657608681751711 0.4990996729827229
5326086 -0.8651870291966497 0.49969422597443386
5327175 -0.8665248322830982 0.4990049255733649
5328264 -0.8664771765671443 0.49954605118413214
5329353 -0.8660395980388582 0.5003007744024807
5330442 -0.8650074656246894 0.5006025696446178
5331531 -0.8658452312801792 0.5005224247889554
5332620 -0.865682032782443 0.5007262372013459
5333709 -0.8661771576523357 0.5004362956889424
5334798 -0.8662129199255063 0.5009644532109249
5335887 -0.8662743015224567 0.500765347741114
5336976 -0.8647782560135499 0.5012598353215927
5338064 -0.8658815747426162 0.501036652942552
5339153 -0.8651625994202226 0.5012542648960459
5340242 -0.8658186983164956 0.5007284643130507
5341331 -0.8654010757808446 0.5010520662819787
5342420 -0.8655540501011869 0.5007850541896169
5343509 -0.8651093214562562 0.5009092034805115
5344598 -0.8652657363238406 0.5009395693739279
5345687 -0.8649320148728158 0.5018024084958784
5346776 -0.8656775866714288 0.5002116733171154
5347865 -0.8655418977985114 0.5011168084881699
5348954 -0.8652419851947476 0.5008949325350834
5350043 -0.8650128203558911 0.501905458423477
5351132 -0.864885874410259 0.501508937613103
5352221 -0.8644237635351697 0.502565660136786
5353310 -0.864939124592997 0.5021588613128982
5354399 -0.8656259796085287 0.5016674777900662
5355488 -0.8655598550443546 0.5017558221513752
5356577 -0.8648719290735285 0.5020997918935318
5357666 -0.8648812207147704 0.5025557922071047
5358755 -0.8646675578413431 0.5028443233671149
5359844 -0.8649981574471339 0.5027517109795449
5360933 -0.8651570429500849 0.5030358003131341
5362022 -0.8651239290826035 0.5031110811316998
5363111 -0.8644276485884007 0.5031448432053184
5364200 -0.8646083541873993 0.5038533112255215
5365289 -0.8642877304090704 0.503391063947001
5366378 -0.8648184893883175 0.5029242524150217
5367467 -0.8648923245819141 0.5030160221480137
5368556 -0.8646467002098961 0.5035266485338686
5369645 -0.864663294580411 0.5028858121779107
5370734 -0.8636464027044356 0.5037673479326035
5371823 -0.8638966400446019 0.5037471935577552
5372912 -0.8643956692125364 0.5039833736038396
5374001 -0.8639359801359704 0.5034773170862126
5374001 -0.8642138549418752 0.5036310615704014
5375112 -0.8635522622720112 0.5040175618479146
5376223 -0.8632662081823369 0.5047265148377028
5377335 -0.8634670652102748 0.5045019339224478
5378446 -0.8639614498275772 0.5043903743279643
5379558 -0.8645461567982881 0.5047606085364976
5380669 -0.8641057608487377 0.504868737872775
5381781 -0.8628699329960118 0.505294461890717
5382892 -0.8630780611474799 0.5059877932292443
5384004 -0.8634358347182841 0.5059093545152191
5385115 -0.8637443180263401 0.5051739913379792
5386227 -0.8635367278825444 0.5056042073712442
5387338 -0.8634879815807108 0.505368363595308
5388450 -0.8627201987263188 0.5050582578020703
5389561 -0.8626657538737603 0.5055152091506593
5390673 -0.8638429350117798 0.5049295146030336
5391784 -0.8633883558461865 0.5050248144896923
5392896 -0.862802663837563 0.5049558338794958
5394007 -0.86248270678332 0.5054854254909531
5395119 -0.8625839964171667 0.5056625901807121
5396230 -0.8628884002557792 0.5051252981401508
5397342 -0.8627259699331561 0.5051295729710242
5398453 -0.8629006253227597 0.5061411323663784
5399565 -0.8620157303444073 0.5060883630048973
5400676 -0.8616539649948879 0.5062631421370118
5401788 -0.8621111137957136 0.5069354186305296
5402899 -0.8624555198608103 0.5066307466374199
5404011 -0.8621453893872162 0.5070098319615717
5405122 -0.8624055527405787 0.5074513882617165
5406234 -0.8622869440345218 0.5074807246421674
5407345 -0.8620668111318214 0.5076820750565445
5408457 -0.8624585116271256 0.5072354087089361
5409568 -0.8623830323468055 0.5077662808925388
5410680 -0.8618516589819355 0.5075665119446916
5411791 -0.8610432659844286 0.5074176743141529
5412903 -0.8617312364463479 0.5075892021699815
5414014 -0.8619433971391577 0.5070332620763943
5415126 -0.8621519697556616 0.5064149472502424
5416237 -0.8620505618289402 0.5069511222587888
5417349 -0.861440704061325 0.5070541202985893
5418460 -0.8615329195926172 0.5070281114817484
5419572 -0.8612048289728836 0.5066866327197243
5420683 -0.8622435642467712 0.5067679462953779
5421795 -0.8619997012600654 0.5071248541442159
5422906 -0.8614009141487714 0.5069632522026225
5424018 -0.8612601318399802 0.5074029695122954
5425129 -0.8613606341212817 0.5079883168486662
5426241 -0.8618902075452178 0.5076860652941523
5427352 -0.8617445019110593 0.5082336596840743
5428464 -0.8611106483836141 0.5083464940951976
5429575 -0.8608344745134819 0.5084009159635694
5430686 -0.8607012726479414 0.5086300124361942
5431798 -0.8608591161971668 0.5085335282758444
5432909 -0.8605905622414857 0.5087078310854353
5434021 -0.8605997750748979 0.50912432526131
5435132 -0.8613159759341132 0.5094608836045414
5436244 -0.8609180648179604 0.509338873331239
5437355 -0.8602532896581931 0.5093591849215932
5438467 -0.8604043873354306 0.5095845453659652
5439578 -0.8609682032848222 0.5085830345865814
5440690 -0.8607663966793803 0.5092920406622535
5441801 -0.8606088516963778 0.5093543262405974
5442913 -0.8606718681026605 0.5090451617628406
5444024 -0.8599071645768892 0.509268793392919
5445136 -0.8609186704862065 0.5091219553187574
5446247 -0.8610155345926208 0.5098816779004057
5447359 -0.8605432450342013 0.5095170559105637
5448470 -0.8596051678258766 0.5090154663866887
5449582 -0.8598238837405465 0.5104568806774339
5450693 -0.8609090797909603 0.5100722073624858
5451805 -0.8602709688038668 0.5109491221185948
5452916 -0.8596794655556401 0.5113605713855328
5454028 -0.8600936197214551 0.5110667946943761
5455139 -0.8596599911433187 0.5108632666087694
5456251 -0.8596243469029775 0.5110337255829012
5457362 -0.8597175339668136 0.5121452843582124
5458474 -0.8597174277947007 0.5116267191195755
5459585 -0.8595987687471991 0.511075638610219
5460697 -0.8602004200625923 0.5108251992708321
5461808 -0.8605446051236311 0.5106181532224578
5462920 -0.8593898540495573 0.51048878032394
5464031 -0.8587124321275283 0.5110427464983391
5465143 -0.859365438625498 0.5110738238779925
5466254 -0.8597573064073595 0.5109088140989219
5467366 -0.8596805773832749 0.5110489117522449
5468477 -0.8598814583236819 0.5113725704925941
5469589 -0.8590792855326224 0.5113510789428521
5470700 -0.8596106427240185 0.5115415456912568
5471812 -0.8593104799983445 0.5114606427761269
5472923 -0.8598519966228158 0.5120059410443016
5474035 -0.859433686257932 0.5126028914886115
5475146 -0.8592334911542705 0.5130627417839426
5476258 -0.8595015894045587 0.5130941619906795
5477369 -0.8598659930125161 0.5122555934463658
5478481 -0.8591831357734386 0.512915300042136
5479592 -0.8587185801241886 0.5131820540622835
5480704 -0.8583675700027129 0.5132761166087215
5481815 -0.8583616229811011 0.5125476969716272
5482927 -0.858835067319094 0.5123868234548066
5484038 -0.8583217883201832 0.5127007259403824
5485150 -0.8575135331384839 0.513254494334984
5485150 -0.8577387304786136 0.5121849923935775
5486284 -0.8578849316664849 0.5128165899666127
5487418 -0.8587098796122625 0.5127029117149337
5488553 -0.8588997836740991 0.5129572697282709
5489687 -0.8578325278025459 0.5129431186893277
5490822 -0.8576854571691627 0.5133475417718782
5491956 -0.8581889377976138 0.5135262534245252
5493091 -0.8582541069257851 0.5129425106695698
5494225 -0.8577390195225466 0.5144431557096195
5495360 -0.8576636275726058 0.514406942417547
5496494 -0.8571814477387375 0.5142178906738559
5497629 -0.8578559800646639 0.5144397951271541
5498763 -0.858102021769939 0.5151254177511569
5499898 -0.8578276650048546 0.5152460806350069
5501032 -0.8574003983183031 0.5149701546379188
5502167 -0.8573099539641466 0.5155145341290516
5503301 -0.8583469749323334 0.5153129792384674
5504435 -0.8572319275769089 0.5154599156621327
5505570 -0.8576008522757383 0.5158614841085857
5506704 -0.8574864377559378 0.5157259911236898
5507839 -0.8578038477998816 0.5155256101324538
5508973 -0.8577104415405538 0.5152028928263097
5510108 -0.8575127653543093 0.515600520874844
5511242 -0.8572627459935573 0.5150194013805665
5512377 -0.8566943096566565 0.5153011206256596
5513511 -0.8574996378494603 0.5156965055769367
5514646 -0.8575520366114011 0.515812881902862
5515780 -0.8568135795959186 0.5157303616335662
5516915 -0.8567586959046036 0.5160550384857638
5518049 -0.8566691846749556 0.5158207571329865
5519184 -0.8571678240512436 0.515613891885767
5520318 -0.8565301524299419 0.5161336625460855
5521453 -0.8568580006645492 0.5161896042093163
5522587 -0.8566926982383894 0.5155597932172756
5523721 -0.856761817859631 0.5155795293102166
5524856 -0.8562913501175816 0.5157223065570551
5525990 -0.8568496720748248 0.5161864369383238
5527125 -0.856155940849624 0.5160129745356207
5528259 -0.8567440863229522 0.5168085183847827
5529394 -0.8568429786257976 0.51664541812492
5530528 -0.8564513532886467 0.5170643682090437
5531663 -0.8565134433221833 0.5180555208627287
5532797 -0.8565965719386315 0.5174496546526578
5533932 -0.8560516679438982 0.5170506865409791
5535066 -0.8563686676352664 0.5177975054895174
5536201 -0.8565359506904174 0.518143771027152
5537335 -0.8556462805539159 0.5182932903036708
5538470 -0.8558106325932819 0.5175501562387637
5539604 -0.855871993876018 0.5179632183495803
5540739 -0.8560492885464019 0.518442808475418
5541873 -0.8557991031117019 0.5181929361734234
5543007 -0.8553371542366761 0.5177515879167376
5544142 -0.856060718169327 0.5178251443763273
5545276 -0.8554375134260338 0.517917067259526
5546411 -0.8552236164350356 0.5177438836356723
5547545 -0.8550091428956074 0.5182809272904337
5548680 -0.8550809999121619 0.5176190028913551
5549814 -0.8555871864415798 0.5176671784212366
5550949 -0.854794436204836 0.5191157572579456
5552083 -0.8550869910695414 0.5188070767360683
5553218 -0.8543523063508734 0.518357209132075
5554352 -0.8546163422136729 0.5186743825165984
5555487 -0.8549618057643185 0.5183103178641916
5556621 -0.8546340811804574 0.5185859071491831
5557756 -0.8544833964679905 0.5191384396260276
5558890 -0.8544477885056513 0.5189003643164334
5560025 -0.8548252626596986 0.5194461914045215
5561159 -0.8547023809369813 0.5199748876176639
5562293 -0.8544982743087204 0.5204578788031495
5563428 -0.8543344372360335 0.5200431070126184
5564562 -0.8548183646432138 0.519768702234648
5565697 -0.8545579467866024 0.519511277798986
5566831 -0.8549462944690378 0.5206935601206457
5567966 -0.8548499377453841 0.5206395757528475
5569100 -0.8539660600179008 0.520621681501749
5570235 -0.854578352236713 0.520172570070351
5571369 -0.8551235964073056 0.51967229600752
5572504 -0.854552323231937 0.5203122888775026
5573638 -0.8541713750948702 0.5206534961063971
5574773 -0.8541043914824757 0.5204984181054848
5575907 -0.8543435447084549 0.5201744104845905
5577042 -0.8540812712105178 0.5206943187674989
5578176 -0.8537805882150479 0.5210799541509741
5579311 -0.8533733380431779 0.5206290156866553
5580445 -0.8535088071008679 0.5200485059671777
5581579 -0.8541358874882556 0.5207561830739996
5582714 -0.8540386086415463 0.5212712749329181
5583848 -0.8533519937880063 0.5213950807801853
5584983 -0.8530324263765562 0.5211817877142303
5586117 -0.8534516837429983 0.5206271954350711
5587252 -0.8537697975187452 0.5206517836340414
5588386 -0.8529423710887903 0.5219982717731113
5589521 -0.8533694327585218 0.5219699900749771
5590655 -0.8527911874873852 0.5219433360931015
5591790 -0.8532303481268247 0.5220008961862425
5592924 -0.8536248315326607 0.5231669475429243
5594059 -0.8530516495913231 0.5232889570890935
5595193 -0.8523897761236577 0.5230161076244898
5596328 -0.8528258559550546 0.5225582681009389
5597462 -0.8532104561795849 0.5226413972042515
5598597 -0.8527584998290918 0.5232283890045725
5598597 -0.8526922987716927 0.5229313409849787
5599754 -0.8533334391272441 0.5232591549207155
5600912 -0.8525474601821632 0.5238164261077459
5602070 -0.8517813803223244 0.5231039370952556
5603228 -0.8527595225846571 0.5226250333254603
5604386 -0.8528022236043262 0.5223950772929082
5605544 -0.8525096743019424 0.5234645485834799
5606702 -0.8526017277941237 0.5232894086935055
5607860 -0.8531774627893998 0.5227788124036767
5609018 -0.8527922982186501 0.522475626244578
5610176 -0.8522481632154518 0.5237756979293322
5611334 -0.85160430829394 0.5236521416214794
5612492 -0.8517954236003759 0.5239009691230654
5613650 -0.8519449905357692 0.5236965582987084
5614808 -0.8516620185692471 0.52397125858898
5615966 -0.8520748320324608 0.5237531509480499
5617124 -0.8510825563311609 0.5238947447699641
5618282 -0.8517508375834362 0.5238322989272788
5619440 -0.8512328775315204 0.5246422137967786
5620598 -0.8513924478278792 0.5252207979444412
5621756 -0.8517542536490209 0.5254109304319561
5622913 -0.8519084045977077 0.52485912228309
5624071 -0.8516758254176686 0.525335677539018
5625229 -0.8513430038369342 0.5265724869196761
5626387 -0.8510663527773783 0.5255106191928965
5627545 -0.851019086002821 0.5247903887120896
5628703 -0.8511777868913085 0.5255000019547827
5629861 -0.8514268017883496 0.5256344023617119
5631019 -0.8510721391038653 0.5251075899925153
5632177 -0.8514250590420145 0.5243590052638865
5633335 -0.8510869690859925 0.5252601931379046
5634493 -0.8514571979022664 0.5260143482441205
5635651 -0.8512067039145188 0.5258994434574565
5636809 -0.8514753457191632 0.5258776410504734
5637967 -0.8521440853153325 0.5251024982002636
5639125 -0.8516805287520683 0.5257145650028113
5640283 -0.8511279335908493 0.5260197750263652
5641441 -0.8510260603618983 0.5257453063876465
5642599 -0.8508558662722953 0.5261545318102212
5643757 -0.8506873405159734 0.5270097152894427
5644915 -0.8507794164311344 0.5273769279197743
5646072 -0.8500470773328894 0.5259872765526076
5647230 -0.8507003503079484 0.52553155541024
5648388 -0.8507811230396674 0.5267800219968577
5649546 -0.8502211362804888 0.5271573654936141
5650704 -0.8500407206790874 0.5280322259347167
5651862 -0.8503768541352829 0.5268387712096331
5653020 -0.8501367798711121 0.5267470002260434
5654178 -0.8496789275451007 0.5273434291779134
5655336 -0.8498167698622919 0.5275504810786091
5656494 -0.8502672105633461 0.5272574636076972
5657652 -0.8500114836396827 0.5266788783291871
5658810 -0.8498407974409036 0.5279974068747207
5659968 -0.8499896704912421 0.5275695797356277
5661126 -0.8496550304255254 0.5271872529645827
5662284 -0.8494100447156225 0.5275517925234623
5663442 -0.8494583290530746 0.5280806282460124
5664600 -0.8498718434292641 0.5284574836544903
5665758 -0.849303853104968 0.527879944513222
5666916 -0.8492549881355015 0.5277171364388421
5668074 -0.8496448240243911 0.528684475517741
5669231 -0.8491736284128607 0.5294636777941691
5670389 -0.8489840301943178 0.5288375615814157
5671547 -0.8491934271604945 0.528552771891388
5672705 -0.8491192291320638 0.5288949601794266
5673863 -0.8490029916772799 0.5302487263603278
5675021 -0.8492966020393581 0.5295178142291649
5676179 -0.8498658952941706 0.5281858680323859
5677337 -0.848778749783951 0.5283615993228072
5678495 -0.8490823139223029 0.529779498887875
5679653 -0.8488610382109811 0.5291723801942413
5680811 -0.8481204493686862 0.5284590148265461
5681969 -0.8489649667958759 0.529602851123464
5683127 -0.8486425615796954 0.5295709681158514
5684285 -0.848768410238658 0.530445105041638
5685443 -0.8479454951784597 0.5299031494495021
5686601 -0.8487858592259098 0.5294980737758779
5687759 -0.8477302632480908 0.5302280542721602
5688917 -0.848209865541583 0.5311202713488168
5690075 -0.8479333781325089 0.5302992642144686
5691233 -0.8485509824060861 0.530224010479496
5692390 -0.8480754930647709 0.5311033565779864
5693548 -0.8485103150845048 0.5318977956744159
5694706 -0.84823667620205 0.5313096229600973
5695864 -0.8480998994585042 0.5303491631485372
5697022 -0.84784129485739 0.5309495452295493
5698180 -0.8478153080883436 0.5315648777606726
5699338 -0.8473208203290228 0.5314064686244859
5700496 -0.8475328088249287 0.5305056325359774
5701654 -0.8478609543802323 0.5305258337067974
5702812 -0.8474048719252829 0.5313508841410061
5703970 -0.8477239692161778 0.5309142890896446
5705128 -0.8482593612153849 0.5304172487490302
5706286 -0.8484522791291722 0.5304836864987538
5707444 -0.8477735386077553 0.5309745250533645
5708602 -0.8479346122450523 0.5317409619409235
5709760 -0.8474158709018441 0.5307370230073927
5710918 -0.8476309476229174 0.5316137185527774
5712076 -0.8471408048261737 0.5324700961191938
5713234 -0.8478283815587324 0.5332221465482705
5714392 -0.8470496925778676 0.5324937723949955
5714392 -0.8469109973671014 0.5321578668536868
5715573 -0.8475593981919898 0.5323136698433966
5716755 -0.8471970810597687 0.5322718309882957
5717937 -0.8466449232024382 0.5331145691706656
5719119 -0.8469641356663494 0.533030360564224
5720301 -0.8465814795462887 0.5331434256293739
5721483 -0.8467322206479325 0.5340478765647811
5722665 -0.846322413779008 0.5333142132119193
5723847 -0.8466905304577395 0.5327377002658582
5725029 -0.8462403783303467 0.5333961446586326
5726210 -0.8465757940466913 0.5335699366560702
5727392 -0.8469758001503249 0.5325727197631623
5728574 -0.8466234740257049 0.5322682448584357
5729756 -0.8461240044527134 0.5343215705097032
5730938 -0.8464596237601812 0.5336308324211281
5732120 -0.8463855456145245 0.5323618733375097
5733302 -0.8458624417890895 0.5337847436265496
5734484 -0.8460530398067194 0.5341609807319712
5735666 -0.8463909375282882 0.533234988894723
5736847 -0.8461719891222906 0.5336509431445223
5738029 -0.8462990605467415 0.5348634252981699
5739211 -0.8459972088459318 0.5344697280511852
5740393 -0.8458822309803239 0.5336561633603698
5741575 -0.8454455685248907 0.5351906223133251
5742757 -0.8457433331593961 0.5356510947469072
5743939 -0.8454518056116606 0.5345136194075647
5745121 -0.8452442128390171 0.5349126350547705
5746303 -0.8454924029289774 0.535765504044159
5747484 -0.8451131140322036 0.5352273081798362
5748666 -0.8458602199412971 0.5343668476797861
5749848 -0.8455308689128324 0.5352791319310336
5751030 -0.8453284186846481 0.5356730711674988
5752212 -0.8456724186899072 0.5351067637268105
5753394 -0.8448937483416548 0.5351500061471056
5754576 -0.8446035455251575 0.5360139166781893
5755758 -0.8447605862545714 0.5360704317887337
5756940 -0.8451824680256319 0.5349403968280148
5758121 -0.8443823038188597 0.5355515508393973
5759303 -0.8445563048611562 0.5363386951004772
5760485 -0.8450730860559157 0.5351944125038417
5761667 -0.8445054082048633 0.535654037503792
5762849 -0.8441303936292124 0.5370357025151193
5764031 -0.8446246271595971 0.5367927045977363
5765213 -0.8447869535785534 0.5361388844267304
5766395 -0.8442905634921379 0.5376668789116946
5767577 -0.8446346019932099 0.5378469540663721
5768758 -0.8438425395185684 0.5371693085146445
5769940 -0.8438946710538855 0.5371555415454938
5771122 -0.8437492402541963 0.535876758327555
5772304 -0.8436010702792945 0.5367869458204199
5773486 -0.8436477580629128 0.5384683649631439
5774668 -0.8440546493742561 0.5379694061314716
5775850 -0.8444314702734539 0.5363272781412716
5777032 -0.8427248780545828 0.5367913668510855
5778214 -0.8438918161902971 0.538254839241704
5779395 -0.8441454586880784 0.5379354048356227
5780577 -0.8444075057768115 0.5370262441304999
5781759 -0.8435755918609066 0.5381927335860848
5782941 -0.844328931792267 0.5391414140678151
5784123 -0.8436145003060391 0.5380630582545226
5785305 -0.8434840741905949 0.5380815875184449
5786487 -0.8428117759230337 0.5387552364443006
5787669 -0.8430421658570577 0.5395752116688125
5788851 -0.8431658170958878 0.5384928018051842
5790032 -0.8431963469829732 0.5383587353319913
5791214 -0.8431295642308393 0.5391801047696048
5792396 -0.8431494430012632 0.539426039390621
5793578 -0.843518603766525 0.5384126821286491
5794760 -0.8427858114611444 0.5383018091606842
5795942 -0.8425848019785559 0.5393340332515739
5797124 -0.8426027625478405 0.5392831714886975
5798306 -0.8434042195023118 0.5385452668782615
5799488 -0.84263548611517 0.5391317662341234
5800669 -0.8420751908541497 0.5403486661884228
5801851 -0.8427251374658689 0.5398464123705355
5803033 -0.8426293418258057 0.5390514535245949
5804215 -0.8415779931519168 0.5398221522515881
5805397 -0.8427232449568134 0.54110940885653
5806579 -0.842534820111906 0.5398793697746138
5807761 -0.8419739816868056 0.5396345444298676
5808943 -0.8419325739443245 0.5407949229129054
5810125 -0.8416941927702954 0.5412398293803512
5811306 -0.8417382371598909 0.5396330571968355
5812488 -0.8418819014747372 0.5393814720324163
5813670 -0.8419512376605043 0.5402631659635094
5814852 -0.8420040987540865 0.5412556326764362
5816034 -0.8423882586964176 0.5403725246343761
5817216 -0.8425867923994196 0.540339833711667
5818398 -0.8419220756376387 0.5411296084808889
5819580 -0.8415172358797097 0.5418694891720864
5820762 -0.8421165614375243 0.5399941979127721
5821943 -0.8416123893517837 0.5406630586442477
5823125 -0.8417872863233767 0.5418076129824487
5824307 -0.8417877384279009 0.541722066957598
5825489 -0.8416656116684974 0.5405939784838864
5826671 -0.8404328898752043 0.5415715102833789
5827853 -0.840774761235219 0.5429612641751246
5829035 -0.8410661134852059 0.5423934337077305
5830217 -0.8407721364353402 0.5419034279571555
5831399 -0.8405251377435923 0.5427960421048179
5832581 -0.8409520502355856 0.5437326085401074
5832581 -0.840464638045817 0.5432711006402902
5833787 -0.8408506430170343 0.5436505598492963
5834993 -0.8407390114788849 0.5418084896193706
5836199 -0.8401867892617378 0.5426942449303469
5837406 -0.8407643622743375 0.5438519713167227
5838612 -0.8409198949986114 0.5419145359257991
5839818 -0.8401783024770452 0.5420006380683037
5841025 -0.8403457539630074 0.5437784428552376
5842231 -0.840259209831241 0.5433849876982396
5843437 -0.8397663771610574 0.5421082785906588
5844644 -0.8394993880842151 0.5436357194385938
5845850 -0.8399116271994624 0.5439878447658552
5847056 -0.8399008170499315 0.5432790409545082
5848263 -0.8391691985202352 0.5435761312321727
5849469 -0.8396645498899563 0.5443838457981698
5850675 -0.8394331608004362 0.5443317275817808
5851882 -0.8389336832473709 0.5433134812698258
5853088 -0.8390220139341982 0.5446829643226488
5854294 -0.839055399929192 0.5453840926307502
5855501 -0.8392966563743057 0.5440556235666895
5856707 -0.8388026738449313 0.5446012556191475
5857913 -0.8392487697680221 0.545528917020855
5859120 -0.8400402418673377 0.5449801078641229
5860326 -0.8396696363276166 0.5443489196785997
5861532 -0.8390642293507877 0.5449806737748593
5862739 -0.838655795461184 0.545479298268237
5863945 -0.8391968833381959 0.5442508966318319
5865151 -0.8384950588278397 0.5447805993634649
5866358 -0.8389616290983435 0.5459653759529531
5867564 -0.8392090443128454 0.5446958348682873
5868770 -0.8384618874551244 0.5445338260562765
5869977 -0.8388344992926356 0.545666379707218
5871183 -0.8392427536434163 0.5457821258573143
5872389 -0.8387695528593384 0.5441896276723777
5873596 -0.8383649889872964 0.5456351841661718
5874802 -0.8382519386006616 0.5461135115772855
5876008 -0.8384888975322692 0.5443852969720773
5877215 -0.8374722014909977 0.5458271415561213
5878421 -0.8381402431721539 0.5470939491718599
5879627 -0.8380352701655532 0.5461054584576899
5880834 -0.8378540083954704 0.546416942312029
5882040 -0.8376628086708245 0.5467935467501169
5883246 -0.8377481831485771 0.5468066575862955
5884453 -0.8378607067686924 0.5456076734474288
5885659 -0.8373088256638389 0.546699478601804
5886865 -0.8377332447667007 0.5477883827316933
5888072 -0.8380475159442193 0.5467587828670241
5889278 -0.8377858395745033 0.5469140892367941
5890484 -0.8376808463492454 0.5472851462965027
5891691 -0.837510861727105 0.5477821724569454
5892897 -0.838093135670594 0.5468403092435508
5894103 -0.8377862190084936 0.5468332433819066
5895310 -0.8375431264300164 0.5481083681813197
5896516 -0.837802207940918 0.5478587667193151
5897722 -0.83744563174063 0.5475570449637591
5898929 -0.8370396649843976 0.5479461912694391
5900135 -0.8368558462485416 0.54873228866409
5901341 -0.8371987776113737 0.5473606850027124
5902548 -0.8366051479657558 0.5476424157742923
5903754 -0.8368403626517927 0.5493565962279233
5904960 -0.8369016768162474 0.5476839952401167
5906167 -0.8367393211516991 0.5479036338566099
5907373 -0.8365741136648778 0.5488230164916358
5908579 -0.8366713426863618 0.549194646564592
5909786 -0.8367201956479703 0.5476377261192863
5910992 -0.8364364198618783 0.5487281522003781
5912198 -0.836728303889271 0.54957433666178
5913405 -0.8372437144567886 0.5485986753923553
5914611 -0.8365395684084684 0.5483518781476331
5915817 -0.8362758063354296 0.5499277972202216
5917024 -0.8368985622455238 0.5503929280149299
5918230 -0.8363424505086989 0.5496397700132221
5919436 -0.8358768539601303 0.5500400262164665
5920643 -0.8360855570437273 0.551018678868098
5921849 -0.8365607010103179 0.549537322149264
5923055 -0.8359539389547869 0.549582727904484
5924262 -0.8362889150640804 0.5505802139575307
5925468 -0.836287123335537 0.5504891098575572
5926674 -0.8365830413123003 0.5494802503222574
5927881 -0.8354755589762195 0.5502881769637877
5929087 -0.8356341322537715 0.5514614077847779
5930293 -0.8362023299113597 0.5496690676692307
5931500 -0.8353270255254399 0.5499057538924341
5932706 -0.8356682018972968 0.5509889066740921
5933912 -0.8357092308573004 0.5509693196932132
5935119 -0.8356651961428524 0.5500841380999247
5936325 -0.8352433596983811 0.5510427078577318
5937531 -0.8349120264768188 0.552416991884819
5938738 -0.8354052703052367 0.5504111977252463
5939944 -0.8340367812774748 0.5507928342301319
5941150 -0.8346376089941145 0.5521815965939428
5942357 -0.834868199410424 0.5513688522932103
5943563 -0.8340933659031593 0.5507050509807362
5944769 -0.8340733034983151 0.5524198483221774
5945976 -0.834580543324995 0.5527411710448935
5947182 -0.8347197274963181 0.550581847886392
5948388 -0.8340815135489155 0.5520281338182316
5949595 -0.8344672985253327 0.5527744200403578
5950801 -0.8347906711346244 0.5518620460550842
5952007 -0.8343300450308868 0.5517223134606025
5953214 -0.8339680143274274 0.5527241258073522
5953214 -0.8340179516967848 0.5536079347113518
5954445 -0.8347577249118564 0.5522085026540661
5955676 -0.8335316457795712 0.5523249249021738
5956907 -0.8340412571243214 0.5543620226139361
5958139 -0.8348588353058983 0.5528692693040687
5959370 -0.8335292176236624 0.5530283373392455
5960601 -0.8341848645605331 0.5540991627015381
5961833 -0.8345587706689577 0.5528918518177974
5963064 -0.8332764180978534 0.5524749244687653
5964295 -0.8330842182181024 0.5542351087999873
5965526 -0.8337572865958913 0.553988357844443
5966758 -0.8334671368804303 0.5530712359038675
5967989 -0.8331799284427546 0.554692291130827
5969220 -0.8336252786433185 0.5546735481334952
5970452 -0.8335492731737597 0.5529861522976698
5971683 -0.832929010990425 0.5545462759045204
5972914 -0.8334479518036519 0.5551227993266021
5974145 -0.8334464571627604 0.5530846708755145
5975377 -0.8324325971759603 0.554317341800632
5976608 -0.8328082549419931 0.5555067629874569
5977839 -0.8332607861325477 0.5538952830902589
5979071 -0.8323285124332873 0.5544566285902056
5980302 -0.8325396623182945 0.5553761025779561
5981533 -0.8327527034867395 0.5537548146231752
5982764 -0.8315234565374372 0.5545169284078337
5983996 -0.8324218339378118 0.5559412534056754
5985227 -0.8328877927269287 0.5555422717922734
5986458 -0.8323059315209622 0.5553599518616997
5987690 -0.8321318908391121 0.5564629809010767
5988921 -0.8326734384603716 0.5559425769152891
5990152 -0.8320762948949506 0.555314476261931
5991383 -0.8318874323957179 0.5567361872643566
5992615 -0.8324509894370193 0.5564880265761272
5993846 -0.8318563372275978 0.5549000593273593
5995077 -0.8316509846002015 0.5567385319008827
5996309 -0.8318218942265989 0.5571249409801814
5997540 -0.8320315693554893 0.5555308204822335
5998771 -0.8319445503748604 0.5571898333421365
6000003 -0.8319767119813715 0.5574362647231333
6001234 -0.832241606986478 0.5556487908380703
6002465 -0.8313402755728916 0.5568549358945689
6003696 -0.831134746757066 0.5575124219935209
6004928 -0.8315570621597631 0.556787814975486
6006159 -0.830706793637192 0.5577850492950422
6007390 -0.8313801515342063 0.5588306188006837
6008622 -0.831578822882856 0.55775312282093
6009853 -0.8307644138728415 0.5571565857514459
6011084 -0.8308457578885963 0.5586697300049877
6012315 -0.8318551420442459 0.5571654159156025
6013547 -0.8307657673029865 0.5568301504948822
6014778 -0.8311581435106139 0.5589157476459166
6016009 -0.8320169825489873 0.5574924024878484
6017241 -0.8308258897006775 0.5578229649805125
6018472 -0.8303051361294012 0.5593057877911314
6019703 -0.8308528282494129 0.5576312774621957
6020934 -0.8303703951727134 0.5580850341934106
6022166 -0.8298968115308487 0.559515951760252
6023397 -0.8307082460098807 0.5580793697120155
6024628 -0.8296240399531629 0.5579905833221085
6025860 -0.8294544555548857 0.5598067005518134
6027091 -0.830379110819039 0.5586583763562165
6028322 -0.8289093823013102 0.5588628884994253
6029553 -0.8297702155344047 0.5603930869635975
6030785 -0.8307196000654206 0.5584457320786391
6032016 -0.8298931293319716 0.5591591886312899
6033247 -0.8297920225198218 0.56083716985158
6034479 -0.8301857862338275 0.5591460288580241
6035710 -0.8290572124748723 0.5597972009397214
6036941 -0.8294050844318475 0.5609740006487558
6038173 -0.8300084282905871 0.5596465499736298
6039404 -0.8290778233608114 0.5601996448514222
6040635 -0.8291184860653623 0.5610146623450285
6041866 -0.8292486630305187 0.5599802198946477
6043098 -0.8290204711242755 0.5610687206373428
6044329 -0.8290395298569008 0.5612076784990616
6045560 -0.829142820543391 0.5598933430453457
6046792 -0.8283807855023423 0.5613768906761059
6048023 -0.8286739697920891 0.5617648867008342
6049254 -0.8289843455980664 0.5607030625186556
6050485 -0.8282593120556039 0.5618693086997084
6051717 -0.8287619599718553 0.5619560000752335
6052948 -0.8288059395642908 0.5610667694305254
6054179 -0.8278731340971687 0.5621144695936411
6055411 -0.8284416958148438 0.5625084495136784
6056642 -0.8286851111423155 0.561244853954171
6057873 -0.8279630316549852 0.5624598485403232
6059104 -0.828577262330588 0.5624190160079882
6060336 -0.8284584121855365 0.5610139100328745
6061567 -0.8280144813071867 0.5621382152262914
6062798 -0.8281161054508506 0.5626182834812248
6064030 -0.8275640772720773 0.5619513720509921
6065261 -0.8271458898841695 0.5630828662773207
6066492 -0.8283392762356273 0.5632514136396511
6067723 -0.8275433916525358 0.5616309087632215
6068955 -0.8270259951847341 0.5632219198779876
6070186 -0.8275518344685291 0.5632654420014812
6071417 -0.8274684461675285 0.5620246103421287
6072649 -0.8269947832267901 0.5634687991971898
6073880 -0.8279340520139655 0.5634479504564454
6075111 -0.8270790847648783 0.5625657111841044
6076343 -0.8267811805480644 0.5637873553934082
6076343 -0.8267441702417164 0.5629786478897858
6077599 -0.8267318751894649 0.5639828666207684
6078856 -0.8272057631450319 0.5628826400985099
6080113 -0.8260824143261961 0.563335912247235
6081370 -0.8262270641645086 0.5645709550050094
6082626 -0.8271128017321329 0.5629337984500764
6083883 -0.8255206310356914 0.5637153132071604
6085140 -0.8261890057707189 0.565407312101191
6086397 -0.8271027627761951 0.5645107454310552
6087653 -0.8257052588694433 0.5647005022253382
6088910 -0.8266947055513336 0.5660389651099058
6090167 -0.8276324851197702 0.5643301060143127
6091424 -0.8259697808429807 0.5649812271160132
6092680 -0.826577214616973 0.5659938350339031
6093937 -0.8265821545580089 0.564136405777315
6095194 -0.8257360211047223 0.5648423752698652
6096451 -0.8262494562382304 0.5660908104928738
6097707 -0.826663968884478 0.5641280194959603
6098964 -0.8256662426562309 0.5652897264146188
6100221 -0.826184175195393 0.5657938858629485
6101478 -0.8265012934684711 0.5647787997205835
6102734 -0.8254633579720642 0.5659348233918285
6103991 -0.8259623817591829 0.5667553624628943
6105248 -0.8255705516936697 0.5653934977771222
6106505 -0.8249313802412394 0.5669681882781443
6107761 -0.8257349133877847 0.5666297089407251
6109018 -0.8252122504280494 0.5652499259679968
6110275 -0.8248939441935302 0.5663139826183914
6111532 -0.8257007225780807 0.5661869526837647
6112788 -0.8249673873611049 0.5659159264744389
6114045 -0.8239927337068915 0.5672252511492292
6115302 -0.8248840183117255 0.5664349429614005
6116559 -0.8248030020834335 0.5660362059646077
6117815 -0.8242837129327684 0.5680442670875191
6119072 -0.825532827691543 0.5669240393656005
6120329 -0.8241987323483494 0.5661112803784647
6121586 -0.8241439395248494 0.5680499795018654
6122842 -0.8248850830510795 0.5671217073503665
6124099 -0.8241624667352141 0.5671778719870326
6125356 -0.8235887699566058 0.5688914293184741
6126613 -0.8252572028641244 0.5679971932298121
6127869 -0.8242829450556415 0.5677829510045489
6129126 -0.8237766752578694 0.5689215211128267
6130383 -0.8242132983233178 0.5679069326311103
6131640 -0.8231312817145691 0.567737181798525
6132896 -0.8233811402662492 0.5695950464462383
6134153 -0.8244959594765315 0.5684903853598522
6135410 -0.8231635902910146 0.5685020470889283
6136667 -0.8238966270660567 0.5697453204563169
6137923 -0.82421549753287 0.5686532546495825
6139180 -0.8231541227200603 0.5689164347306149
6140437 -0.8237226402931244 0.5703094098274069
6141694 -0.8240953613416024 0.5690978615221354
6142950 -0.8226041055895532 0.5696946184051936
6144207 -0.8231231587526437 0.5702116740142107
6145464 -0.8232904148500797 0.5690260364884588
6146721 -0.8215929622654553 0.5698737460644564
6147977 -0.8226186428612307 0.5694019987071876
6149234 -0.8225987520577995 0.5702303371338528
6150491 -0.8228039798235613 0.5700670689123254
6151748 -0.8231873681982611 0.5698544015666327
6153004 -0.8222789877844052 0.5705672612449313
6154261 -0.8224420795428379 0.5710205886484985
6155518 -0.8226018152761482 0.5707330216550195
6156775 -0.8216321623971828 0.5715499912513993
6158031 -0.8223184666630456 0.571176035624995
6159288 -0.821854620296472 0.5708291449706024
6160545 -0.8211812161812511 0.5719758825666771
6161802 -0.8221323236229631 0.5711648604104407
6163058 -0.8218644116460222 0.5719040210246819
6164315 -0.8213963266369142 0.5725502741543151
6165572 -0.8219855480044714 0.5717824120046548
6166829 -0.8215704411381816 0.5723945842813757
6168085 -0.8204432688998066 0.5723238478721178
6169342 -0.8216858312051097 0.5716068149034884
6170599 -0.8210035355760904 0.5722060960877986
6171856 -0.8206390606048548 0.5732223173844201
6173112 -0.821835460466335 0.5722387511307608
6174369 -0.8209987238052942 0.5723818810756349
6175626 -0.8209813519285656 0.5730795583361753
6176883 -0.8208216076412322 0.5724331719357029
6178139 -0.8202425113312184 0.5719806506230777
6179396 -0.821118107607714 0.573050376157249
6180653 -0.821041193268374 0.5722684350102079
6181910 -0.8203322019428229 0.5728126178173465
6183166 -0.8209399691250172 0.5738004615966649
6184423 -0.8205815740628343 0.5730957611116342
6185680 -0.8202295300609713 0.5738997899251882
6186937 -0.8208685069376416 0.5733584611714557
6188193 -0.8207258793757455 0.5729477689585302
6189450 -0.8200772422350172 0.5739330962266904
6190707 -0.8204904475613304 0.5737137617980042
6191964 -0.8200544075818352 0.5735815789329611
6193220 -0.819642831218668 0.5751694460346745
6194477 -0.8200468677377406 0.5740370827779713
6195734 -0.8194322673757434 0.5738651764063992
6196991 -0.8186344485553609 0.5744049932728286
6198247 -0.8196365107215318 0.574234466860658
6199504 -0.8190177662844274 0.5740142408050585
6200761 -0.8193590936952772 0.5746697025190942
6202018 -0.8199867742353018 0.5746291283887071
6202018 -0.8194545965289219 0.5748851126845366
6203300 -0.8190846182437341 0.5746866499718619
6204583 -0.818795411760012 0.5760198932974646
6205866 -0.819373093471839 0.5755217213228002
6207149 -0.8188109280487736 0.5753119200965648
6208431 -0.8184477594138723 0.5757680135796616
6209714 -0.8196898519082724 0.5749488606021081
6210997 -0.8185782492341824 0.5757394848371747
6212280 -0.8191804352792127 0.5767957710025964
6213562 -0.8190744346482972 0.5759924311768336
6214845 -0.8180431613165831 0.5765615617225187
6216128 -0.8192533029736114 0.5759905287735022
6217411 -0.8189829104618919 0.5749934535505259
6218693 -0.8179677924008419 0.5768137780668079
6219976 -0.819031451372805 0.5761361287648783
6221259 -0.8184143981545653 0.576123896890862
6222542 -0.8182308264690936 0.5776929947729648
6223824 -0.8184640542183885 0.5765159437994029
6225107 -0.8177504656543431 0.5773962677934613
6226390 -0.8180276317706012 0.577143162656935
6227673 -0.8179755902057155 0.5767647864296359
6228955 -0.8171281328942763 0.5776799332226747
6230238 -0.8180083344571766 0.5772732424215129
6231521 -0.8173194069451991 0.577277478314896
6232804 -0.8174415107871631 0.5787367838535771
6234086 -0.8174235180646648 0.5779290994775679
6235369 -0.816399288287728 0.5781498833537649
6236652 -0.8173949615325642 0.578120714961328
6237935 -0.8171831269448986 0.5780174302041057
6239217 -0.8166960873126244 0.5786173655804692
6240500 -0.8176980714296026 0.5780792016465948
6241783 -0.8168296607951152 0.5784388034423732
6243066 -0.8163159812876428 0.5791665714437582
6244348 -0.8173140509669782 0.5779480034560611
6245631 -0.816115983000259 0.5784362207964623
6246914 -0.8167477376045426 0.5787616270841448
6248197 -0.8162892663922258 0.5785252499961613
6249479 -0.816311395178638 0.57957966900551
6250762 -0.8167345929345915 0.5791534803584343
6252045 -0.8163192383856795 0.5794423980063843
6253328 -0.8158138524347066 0.5805017376994682
6254610 -0.8166750612983843 0.5793106346700221
6255893 -0.8157863783946289 0.5797385203110116
6257176 -0.8163550558627666 0.5798889100294504
6258459 -0.8153811282410918 0.5796409301424075
6259741 -0.8156131829829082 0.5802725505329286
6261024 -0.8143246928582686 0.5811900953965129
6262307 -0.8155789871097587 0.5802706949178583
6263590 -0.8147757413417739 0.5806857465207479
6264872 -0.815089494510789 0.5810258840678437
6266155 -0.8154896353602207 0.5807972398736063
6267438 -0.8147465677779647 0.5811091678634902
6268721 -0.8156476605484878 0.5810049540217906
6270003 -0.8148682196741329 0.5811405729625212
6271286 -0.8137139840405484 0.5821706553657621
6272569 -0.8149365966968874 0.5812788691508575
6273852 -0.814034749658158 0.5814833707980318
6275134 -0.8143829790587228 0.5814553508858478
6276417 -0.814681769323687 0.581430320307711
6277700 -0.8143279262095687 0.581281635162611
6278983 -0.8146576075814355 0.5817888744783124
6280265 -0.8152736946741056 0.5820183818096148
6281548 -0.8137710265947924 0.582775155101907
6282831 -0.8146784830951688 0.5822771309308017
6284114 -0.8139424872725683 0.5830342074809729
6285396 -0.8139089880798904 0.5836206379114216
6286679 -0.8136924765742722 0.5831682670801331
6287962 -0.8135559595780839 0.5828017976431502
6289245 -0.8136599387649764 0.5823798313852572
6290527 -0.8137315216379712 0.5826719451469095
6291810 -0.8133004273762086 0.5827146322004552
6293093 -0.8140101430350156 0.5819582367414708
6294376 -0.8136436534962134 0.5831235998229998
6295658 -0.812551745196122 0.583696085320883
6296941 -0.8130207744606379 0.5835275771724961
6298224 -0.8118687962123812 0.5834408845501653
6299507 -0.8128616429754362 0.584291051603782
6300789 -0.812408165937024 0.5841299830251134
6302072 -0.8115213901553942 0.5845639459609465
6303355 -0.8133465167037922 0.5835828233477242
6304638 -0.8127296054251067 0.5841410218570163
6305920 -0.8123750900313905 0.5848993941275453
6307203 -0.813402170132671 0.58364484065483
6308486 -0.8126541520621536 0.5843276292039625
6309769 -0.8130226328931283 0.5850761257513968
6311051 -0.8126245371254552 0.5845994556869264
6312334 -0.811787887176209 0.5852295852041597
6313617 -0.8127706609637414 0.5851224212826222
6314900 -0.8121866864007583 0.5853181799512684
6316182 -0.8111669301757288 0.5865465773990926
6317465 -0.812043003609864 0.5849650290676661
6318748 -0.8111220206972141 0.5850375008887659
6320031 -0.8115527472695168 0.5860071017267828
6321313 -0.8112890515948841 0.585571567535759
6322596 -0.8110358946703499 0.585595365426212
6323879 -0.8116451252209396 0.5858943696967673
6325162 -0.8111931940578916 0.5855139565435655
6326444 -0.8104586554195637 0.5864694245438923
6327727 -0.8111526245697473 0.5861251494802354
6329010 -0.8106754799168221 0.5864770928028715
6330293 -0.8102803913900066 0.5875814944245047
6330293 -0.8101311990820477 0.587474974206307
6331602 -0.8105827197038252 0.587004146497813
6332911 -0.8096147494720423 0.5881615885448144
6334220 -0.8103693348786456 0.5870924444572452
6335530 -0.8100868592887115 0.5878269321104633
6336839 -0.8105649026378653 0.5876299608697959
6338148 -0.8108139817188741 0.587370674811597
6339457 -0.8099795716863498 0.5875631249850337
6340767 -0.81061424037002 0.5872705588143619
6342076 -0.8103024598625388 0.5880523620632022
6343385 -0.8105799392787517 0.5868544220975798
6344694 -0.8095854402237997 0.5881802233303456
6346004 -0.8092214478876911 0.5884871718144145
6347313 -0.8094465143326284 0.5885807284405543
6348622 -0.8085276951031268 0.5895781992153672
6349932 -0.8099948684257002 0.5884722695772862
6351241 -0.8085535482917233 0.5894478816610461
6352550 -0.8095624552756827 0.5889064913870178
6353859 -0.8093885387882118 0.5888932277889505
6355169 -0.8085765279213306 0.5895552987713187
6356478 -0.8088778216331649 0.5893153106126019
6357787 -0.8082878419927312 0.5900164592086268
6359096 -0.8087849582801184 0.5892650173998366
6360406 -0.8078173861679158 0.589933826019017
6361715 -0.8085294548020183 0.5901266247386471
6363024 -0.8083183533836681 0.5907706480669599
6364334 -0.8082147288227566 0.5915378073804165
6365643 -0.8082685499706197 0.5905758441374647
6366952 -0.8075431673566699 0.591047677907994
6368261 -0.8084662550709598 0.5900709266328764
6369571 -0.8073433381233764 0.5903108407812545
6370880 -0.8081642194659786 0.5901623419141002
6372189 -0.8086146545038961 0.5899408661727434
6373498 -0.8080119843559045 0.5905350856141175
6374808 -0.8081074935574935 0.590952356899771
6376117 -0.8067521075016792 0.5915849222589362
6377426 -0.8073724008315732 0.591243396656959
6378735 -0.8068614063748238 0.5925710459594588
6380045 -0.8070090224083012 0.5923926613015478
6381354 -0.8070677007150243 0.5930024241984881
6382663 -0.8066816991136659 0.5929243996858669
6383973 -0.8070306135584212 0.5920072455437998
6385282 -0.8059168779544348 0.5929122899303783
6386591 -0.8071415852993893 0.5917911648223877
6387900 -0.8065733652457435 0.592277884312137
6389210 -0.8067627670811206 0.5922149060485834
6390519 -0.8067616726478695 0.5920010691567272
6391828 -0.8058693377585098 0.5925944449425242
6393137 -0.806698046678618 0.5932892123672758
6394447 -0.8062533805261506 0.5937813245829837
6395756 -0.8067106493686063 0.5931664875110387
6397065 -0.8060447537106072 0.5933724287632597
6398375 -0.8059558367330695 0.5933908645622901
6399684 -0.8051139737224416 0.5932085933407184
6400993 -0.8053488367336692 0.5931725488616042
6402302 -0.8057352614764302 0.5937235619649123
6403612 -0.8049840798433461 0.5935331836902229
6404921 -0.8066457547569554 0.5936414133359217
6406230 -0.8060553679265148 0.594063243754309
6407539 -0.8062569564527028 0.5946987022319048
6408849 -0.8060149503776771 0.5946576009038937
6410158 -0.804863281592742 0.5951090814555805
6411467 -0.8055209680248291 0.594699126675362
6412777 -0.8045459852664814 0.5949829418193082
6414086 -0.8047047141475473 0.5948311669718103
6415395 -0.8049194524935037 0.5949751260878725
6416704 -0.8040373574867884 0.5950923039852253
6418014 -0.8050864246148052 0.5946017834825891
6419323 -0.8044574745173946 0.5953749814272153
6420632 -0.8037399387740358 0.59570475488521
6421941 -0.8041895984418308 0.5956829020384287
6423251 -0.8034708167525102 0.5965181066241391
6424560 -0.8048146161504454 0.5954900721577279
6425869 -0.8041541016142908 0.596577300859617
6427178 -0.8035171072545436 0.5966870929525415
6428488 -0.8036914671122201 0.5971956100885363
6429797 -0.8024229467252834 0.5976119454183377
6431106 -0.8037347316735541 0.5960123040309048
6432416 -0.8030675077652094 0.5972104447580384
6433725 -0.8034431864459937 0.5963930509066262
6435034 -0.8031625181935266 0.5963256837392004
6436343 -0.8023951541714315 0.5968081829114261
6437653 -0.8040862286726367 0.5957082456189181
6438962 -0.8025165837986902 0.5975238836721508
6440271 -0.8023223724195508 0.597864286958313
6441580 -0.8021007681616404 0.5975878886718778
6442890 -0.8009583082063046 0.5988231120634971
6444199 -0.8020762902392492 0.598165956637946
6445508 -0.8018818898157126 0.5989649798878329
6446818 -0.8018204174381067 0.5983257410879036
6448127 -0.802302170999716 0.598631529767646
6449436 -0.8010355889547314 0.5989262155285106
6450745 -0.8021790918911634 0.5987654747856087
6452055 -0.8020036396250514 0.5988292312983698
6453364 -0.8014913246829578 0.5986823767205376
6454673 -0.8018131258882366 0.5991977705995442
6455982 -0.8008002551530724 0.6002081207726733
6457292 -0.8010883131390604 0.5993587264424187
6458601 -0.80071583598187 0.600356625362554
6459910 -0.8006618803511 0.5999030364635187
6461220 -0.8007259711926373 0.5994684476037365
6461220 -0.8005378126820286 0.5998256841683275
6462556 -0.801182305082758 0.5996236129105071
6463892 -0.8006295182732033 0.599599482158105
6465229 -0.8003390706790239 0.5994615424121653
6466565 -0.8010419608690501 0.6006214136107154
6467901 -0.8002281371867573 0.6005407749830386
6469238 -0.8011216619660319 0.6006105418089838
6470574 -0.8003279113419671 0.6014482997047358
6471910 -0.8006291848946228 0.600829088837023
6473247 -0.7996823899240886 0.6020319387952433
6474583 -0.7995248720558897 0.6016453522610352
6475919 -0.8004213279429372 0.6017422727027817
6477256 -0.7995721081670641 0.6015985289729798
6478592 -0.8004339710632339 0.6005131247304015
6479929 -0.799006584343762 0.601690878402357
6481265 -0.7997662085960063 0.6010905837829981
6482601 -0.799148817534995 0.6024881227962464
6483938 -0.7993629954734551 0.6020461540094717
6485274 -0.7990828353299907 0.6029394104231718
6486610 -0.7987696004166649 0.6026255357416627
6487947 -0.7987258645547766 0.6028190828690085
6489283 -0.7986457475091012 0.6035708308068422
6490619 -0.7990488294363612 0.6029332920165896
6491956 -0.7980979835270638 0.6039147851167449
6493292 -0.798574217170143 0.6030050180170106
6494629 -0.7985877856696181 0.6035852391726317
6495965 -0.7985069180847971 0.603752478813404
6497301 -0.7987652126366981 0.6032843724588012
6498638 -0.7980909209599311 0.6040237583027132
6499974 -0.7984621340614931 0.6033909364420861
6501310 -0.7981016570727459 0.6034627404685916
6502647 -0.7973494882659171 0.6032289485559345
6503983 -0.7970526543546856 0.6047782215188048
6505319 -0.797128171920207 0.6047234764080797
6506656 -0.7972788662051737 0.6043072189523354
6507992 -0.7964813231316826 0.6053069394291276
6509328 -0.7970251462111857 0.6045272437882804
6510665 -0.7965630794719758 0.6054072512147085
6512001 -0.7971054416474027 0.6042576303706418
6513338 -0.7970271949698989 0.6052397263632164
6514674 -0.7972016467396514 0.6049693915547838
6516010 -0.7975133555759495 0.6057119560134656
6517347 -0.7963392420078571 0.6061852487354398
6518683 -0.7969805161617389 0.6067302000496779
6520019 -0.797123145669456 0.6058948758706875
6521356 -0.7962935761681335 0.6071183927343611
6522692 -0.7962910518630802 0.6068536348064559
6524028 -0.7968793827867112 0.6075641388895227
6525365 -0.7953626325814505 0.6061631703376673
6526701 -0.7956396705767189 0.6064202517527572
6528038 -0.7948781754851882 0.6072065220143763
6529374 -0.7954855780151294 0.6058693143634529
6530710 -0.7947252488005994 0.6072470429430362
6532047 -0.7948785267595763 0.605826838845028
6533383 -0.795173828699203 0.6076668713238965
6534719 -0.7946474832697374 0.607837236491579
6536056 -0.7950564842288806 0.6079263866166104
6537392 -0.7941841908178076 0.6087860272266178
6538728 -0.7945277347206096 0.6083671865014938
6540065 -0.7936065867982582 0.6092579807013208
6541401 -0.7939647701022187 0.6084204502938956
6542737 -0.7942122001215599 0.6093250162640671
6544074 -0.7939166099136179 0.6086064801689792
6545410 -0.7938349763000704 0.6088746272721672
6546747 -0.7934739032266614 0.6089749360015787
6548083 -0.7935479945879095 0.6080860843259696
6549419 -0.793252929868983 0.6094846454309116
6550756 -0.7937595144278539 0.6080672655155648
6552092 -0.7928828505396786 0.6100137137726243
6553428 -0.7933972535712839 0.6096536850406343
6554765 -0.7928664078393995 0.6095388893668134
6556101 -0.7924370149933535 0.6107020887945841
6557437 -0.7924622428436287 0.6099951403369114
6558774 -0.7917239239356894 0.6114704820346379
6560110 -0.7921095967165115 0.6102696282886165
6561447 -0.7921961947516485 0.6111928367010909
6562783 -0.7915620501107253 0.6104682206110669
6564119 -0.7923875458048508 0.61094334018682
6565456 -0.7920353625142375 0.611736406203498
6566792 -0.7925481450853988 0.6111017388002872
6568128 -0.7919798465765111 0.6121954136668932
6569465 -0.7920692446320367 0.6112940874298487
6570801 -0.7917750683566094 0.6124183778670024
6572137 -0.7917689388858353 0.6125827899088035
6573474 -0.7913353440345803 0.6120745414670835
6574810 -0.7904469104166282 0.6130065839771635
6576146 -0.7910394538172595 0.6119410294685527
6577483 -0.7904254900350247 0.6132756784307121
6578819 -0.7909888546341832 0.6119362435315606
6580156 -0.7906848128519042 0.6130970392935571
6581492 -0.7905505065177049 0.6124798513071366
6582828 -0.790597478969542 0.613142677653143
6584165 -0.7906025374160621 0.6140592714390415
6585501 -0.7900522943343563 0.6128806581150354
6586837 -0.7897028642418926 0.6146825768092924
6588174 -0.7902514020141613 0.6139232723927517
6589510 -0.789114850296006 0.6152981959026517
6590846 -0.7895172319133217 0.6142518655654674
6592183 -0.7898886159176038 0.6138844121896938
6593519 -0.7889880374188997 0.6147614419968718
6594856 -0.789464070047228 0.6133300904387554
6594856 -0.7894411077416057 0.613420502872995
6596219 -0.7888326055824777 0.6146550948383285
6597583 -0.7892125562874414 0.61369227180431
6598947 -0.7890607110389579 0.614797458359647
6600311 -0.7887856353494588 0.6146862495308764
6601675 -0.7888389263738897 0.6155755694327162
6603039 -0.7875612700145685 0.6160012281141924
6604403 -0.7879818003354442 0.6158261282452013
6605767 -0.7876319612366744 0.6168069441968244
6607131 -0.7871786194976274 0.6159839782306499
6608495 -0.7871067976953802 0.6168652120593194
6609859 -0.7878785535285665 0.6153375309375985
6611223 -0.7870830833615117 0.6169180667881861
6612587 -0.7870927568219593 0.6159359359591112
6613951 -0.7870696086439763 0.616886980972719
6615315 -0.7876198313934848 0.616674914087242
6616679 -0.7875343147940712 0.6172396650367242
6618043 -0.7871937138724587 0.6183790910650815
6619407 -0.7864915918538663 0.6175723748882086
6620771 -0.7859700791274418 0.618551190708269
6622135 -0.7859899945032848 0.6178767342511347
6623499 -0.7853245197921781 0.6189868374607672
6624863 -0.7858879045254307 0.6173657291558977
6626227 -0.7856179874340046 0.6191694830138076
6627591 -0.7862596584257457 0.6180158888441634
6628955 -0.7854153915651911 0.6190472836966524
6630319 -0.7854263078336446 0.6184591996316117
6631683 -0.7851499390467926 0.6192789510803197
6633047 -0.7856303505847629 0.6192984257655197
6634411 -0.7855572222281798 0.619859771082974
6635775 -0.784646251465715 0.620352496053135
6637139 -0.7839452003440188 0.6197420899998712
6638503 -0.7837874667303003 0.6207566035975283
6639867 -0.7841853374614084 0.6196333234542236
6641231 -0.7837038028183514 0.6211144009626737
6642595 -0.78440761833776 0.6204565756439779
6643959 -0.7838929903259014 0.6210385898507739
6645323 -0.7846479409398818 0.620663100672965
6646687 -0.7843692057823338 0.6209604695012099
6648051 -0.784340733336917 0.620872278314338
6649415 -0.7841387599465858 0.6223944945566412
6650779 -0.783463455293394 0.6222416986350695
6652143 -0.7828016542366966 0.6225370955337963
6653507 -0.7822052105338252 0.6229907540899267
6654871 -0.7821030286242912 0.6227151546139593
6656235 -0.7814244531802671 0.6233316774810905
6657599 -0.7817121914582142 0.6221845649092824
6658963 -0.7816909466488642 0.6223603580015801
6660327 -0.7826978902279818 0.6212773687373428
6661691 -0.7821205924301693 0.6230722057028265
6663055 -0.7831717641892488 0.6223947487878466
6664419 -0.782943419913901 0.6227464867183757
6665783 -0.7821267555139677 0.6241082485779098
6667147 -0.7823379099298309 0.6233317983646466
6668511 -0.7813225129884557 0.6255081665022059
6669875 -0.7807311239318786 0.6237778457068232
6671239 -0.7805687586563602 0.6255057723823954
6672603 -0.7807205320569364 0.6233162719034141
6673967 -0.7799294360377372 0.62563243996972
6675331 -0.7807631311122037 0.6241204239032504
6676695 -0.7801569594948602 0.6251089179307885
6678059 -0.77997360299016 0.6243874439291128
6679423 -0.7797834680191201 0.625463824633359
6680787 -0.7805349000823487 0.6244887736664386
6682151 -0.7801214064071179 0.6259001025765212
6683515 -0.7795346243909341 0.6256916840745843
6684879 -0.7789007450165761 0.6267129382877633
6686243 -0.77837181398207 0.626910452630201
6687607 -0.7785383993813754 0.6267558288712501
6688971 -0.7787493063860806 0.6266505210447532
6690335 -0.7789844110066197 0.6261233605435024
6691699 -0.7786963156168006 0.6271517519810852
6693063 -0.7789231905799601 0.6270200213221893
6694427 -0.7789897922760441 0.6278373204881874
6695791 -0.7792363546907413 0.6276216177649038
6697155 -0.7782509618639523 0.6287717694450357
6698519 -0.7777531795874421 0.6288195126663192
6699883 -0.7769262701884787 0.6295234311773515
6701247 -0.7769914426653973 0.6291103164704137
6702611 -0.7761828617592371 0.6303343929323784
6703975 -0.7755230631946403 0.629672488703133
6705339 -0.7762857738692354 0.6304803966184305
6706703 -0.7763979322489407 0.6288024504491883
6708067 -0.7764695885100351 0.630615893264954
6709431 -0.7766082479052528 0.6284451179017987
6710795 -0.7760917743660006 0.6306186000993459
6712159 -0.7766798698897097 0.6292931922389094
6713523 -0.7759584283551717 0.6307601598066022
6714887 -0.7756380218046555 0.6299899576122104
6716251 -0.7749537977380955 0.6311807134080847
6717615 -0.775500363870408 0.6299581717294311
6718979 -0.7739728277362794 0.6320538339989322
6720343 -0.7749823821613837 0.6309804619819275
6721707 -0.7731545607811235 0.6328801797904489
6723071 -0.7744428472155536 0.6317192955828513
6724435 -0.7730792720062999 0.6330067950954117
6725799 -0.7732780550066044 0.631750294646036
6727163 -0.7730937255790361 0.6331792286199984
6728527 -0.7733354062607414 0.6330551429090401
6729891 -0.7731975811558022 0.6340631139312305
6731255 -0.7737794030203877 0.6336985435764092
6731255 -0.7728700573509881 0.6351343190191628
6732647 -0.7732524258425831 0.6329991468155833
6734039 -0.7715633919389557 0.6341662499456122
6735431 -0.7727290077371521 0.6335446567514372
6736823 -0.7717983113498833 0.6348068727438987
6738216 -0.7722489316682271 0.6337867226984665
6739608 -0.7724166487319124 0.6355786959234617
6741000 -0.7720634940810153 0.6343333605641793
6742392 -0.7714712256103831 0.6356681131562825
6743784 -0.7721572384809048 0.6351884580989882
6745177 -0.7714701899312538 0.6360187818384927
6746569 -0.7713890922859507 0.6355756972430039
6747961 -0.7704647472038453 0.6358298225922493
6749353 -0.7706500988874512 0.6358830830940906
6750745 -0.7699683211550611 0.6368258292912656
6752138 -0.7703477875648548 0.6364559770342731
6753530 -0.7697006592669082 0.6367822182328703
6754922 -0.7699382349269984 0.637810294167698
6756314 -0.7697690733878682 0.6374220169769502
6757706 -0.769059128819825 0.6381278468555631
6759099 -0.7691093294541395 0.6379435501650406
6760491 -0.7688649470369112 0.6385999341765435
6761883 -0.7688097392150129 0.6385453282221477
6763275 -0.7689014564802156 0.6393180340490257
6764668 -0.7676323461298002 0.6395202135510653
6766060 -0.7683225888466096 0.6408547465762398
6767452 -0.7677706820976979 0.63960793441528
6768844 -0.7678116956807033 0.6408842480040418
6770236 -0.7681354250209095 0.6399737627703777
6771629 -0.7675239864983154 0.6411474604597753
6773021 -0.7672688299038074 0.6397825744213158
6774413 -0.7666533719139048 0.6423362843395697
6775805 -0.7669766198797942 0.6408693832241177
6777197 -0.7658983417760916 0.6419500327547337
6778590 -0.7664690331579226 0.6402915215161267
6779982 -0.7651091267914387 0.6423021272693421
6781374 -0.7661583009884312 0.6420381117116204
6782766 -0.7647400114035652 0.6426919525927963
6784158 -0.7650822149113615 0.642220178396037
6785551 -0.7644020275307891 0.6436402103767771
6786943 -0.7644451872321059 0.6427268527655592
6788335 -0.7635803041500409 0.6447593536905124
6789727 -0.7640595298821667 0.6433788493459042
6791120 -0.763056301457853 0.6449260731274213
6792512 -0.7632220892448156 0.6433208767515336
6793904 -0.7626289246074639 0.6454738782059084
6795296 -0.7634956354756233 0.6437974891875275
6796688 -0.7623425049736304 0.6466804296906034
6798081 -0.7627814379880997 0.6447478748803571
6799473 -0.7612167107440547 0.6469568031064264
6800865 -0.7619727378731757 0.6454906205353689
6802257 -0.7600664329277158 0.6473993593049229
6803649 -0.7615293169550096 0.6462799913273857
6805042 -0.7602660281996302 0.6476174657166681
6806434 -0.7607446577409588 0.6467801133727045
6807826 -0.7602925872504065 0.6482088946191266
6809218 -0.7610034095335927 0.6468757275054727
6810610 -0.7605670930594396 0.6484249370426578
6812003 -0.7610511376791678 0.6471715306809693
6813395 -0.7591129440336546 0.6493880022528876
6814787 -0.7602348271976298 0.6486486369093423
6816179 -0.7583601814922704 0.6501572174404574
6817572 -0.7589206007474154 0.649316540891668
6818964 -0.7574802424391157 0.6502794515034467
6820356 -0.757973771784778 0.6499105958547223
6821748 -0.7568574416550714 0.6507319200209163
6823140 -0.7576016702835693 0.650588370834113
6824533 -0.7562908052476841 0.6518240759181309
6825925 -0.7574957316916561 0.6513905940597648
6827317 -0.7559870891200238 0.6521854732588747
6828709 -0.7560319447142319 0.6521272141772292
6830101 -0.7545128471722895 0.6528816720516089
6831494 -0.7549864540386724 0.6529423906911741
6832886 -0.7541344306490889 0.6539663674139612
6834278 -0.7543332679162569 0.6541140611453816
6835670 -0.7537557836682875 0.6547333206278325
6837062 -0.753748708559235 0.6556249481648443
6838455 -0.7532779748090572 0.6552253628270589
6839847 -0.7528051185329169 0.6565440121622427
6841239 -0.7528805786634223 0.6552641663077949
6842631 -0.7519003575944472 0.657450478685157
6844024 -0.751886021444945 0.6563639422911852
6845416 -0.7516695790516994 0.6570174028187098
6846808 -0.7516475307280301 0.6568083201045539
6848200 -0.7511108214245997 0.6579691395370997
6849592 -0.7509944842970304 0.6576711798922303
6850985 -0.7504601477389161 0.6595168805311034
6852377 -0.7497642746972588 0.6581147710938441
6853769 -0.7487113759307064 0.6599245945986133
6855161 -0.7488222472228627 0.6594163673807674
6856553 -0.748137517341791 0.6611904810866777
6857946 -0.7489508751384337 0.6599391188696877
6859338 -0.7477175080307454 0.6619106704313338
6860730 -0.7476301834377717 0.6606507596464243
6862122 -0.7461328340127826 0.6627234102935711
6863514 -0.7471412570035855 0.6612520276902015
6864907 -0.7461709083489938 0.6630444312276235
6866299 -0.7463368587706101 0.6627520456571085
6867691 -0.744962657891834 0.6641691737566647
6869083 -0.7450643502698607 0.6628755643018104
6870476 -0.7437170154280264 0.6654118356847344
6870476 -0.7436230490359297 0.6645691143004511
6871897 -0.7440849887053553 0.6644687737726842
6873318 -0.7423933526733331 0.6654294820245044
6874739 -0.7437921235068875 0.664946603786758
6876160 -0.7422381743664398 0.6669256629100905
6877581 -0.7431139110394417 0.6662823436521038
6879002 -0.7410798002011243 0.6678265803777084
6880423 -0.7417536430382807 0.6670842687904776
6881844 -0.7398202135433026 0.668734997022989
6883265 -0.7399565685135452 0.6681692371784844
6884686 -0.73869199728553 0.6695170200406808
6886107 -0.7390946499305892 0.6690909299112384
6887528 -0.7380079738968371 0.6706056732650613
6888949 -0.7379032228261763 0.6704082081148609
6890370 -0.7374910094696708 0.6718238526682908
6891791 -0.7368477146819353 0.6718199244956408
6893212 -0.7365533744850339 0.6737664892776797
6894633 -0.7361235803918394 0.6721611789786661
6896054 -0.736364954546781 0.6739172835620714
6897475 -0.7354818246423573 0.6731463631772157
6898896 -0.7349181978121715 0.6738515017753138
6900317 -0.7339556718980472 0.6745714070783488
6901738 -0.7339906212917933 0.674839430610049
6903159 -0.7318299535657163 0.6757370604071731
6904580 -0.7323337900175434 0.6758777325432749
6906001 -0.7293591979826619 0.6773091522184338
6907422 -0.7307614573602541 0.6770810538127854
6908843 -0.728369107593578 0.6788071038831102
6910264 -0.7293381948105733 0.6782633801114478
6911685 -0.727560097565036 0.6799410215196893
6913106 -0.7281448182108452 0.6795995123743431
6914527 -0.7260159232888733 0.6818898911399476
6915948 -0.7269060527294559 0.6814424786864547
6917369 -0.7250519802006492 0.6839100802797083
6918790 -0.725220894442937 0.6828408108749208
6920211 -0.7235861204049624 0.685316219891502
6921632 -0.7235163767739692 0.6835752538821682
6923053 -0.7222824779078102 0.6864376552592311
6924474 -0.7222046498266523 0.6854262454593865
6925895 -0.7211360672970043 0.6872337430918379
6927316 -0.7209571354869699 0.6860239218571147
6928737 -0.7188521082419691 0.6877937333810369
6930158 -0.7191469149639544 0.6879243900965758
6931579 -0.7173767672053635 0.6897637978133343
6933000 -0.7161504672570587 0.6895707265256971
6934421 -0.7152128854273856 0.6908948026725086
6935842 -0.7136741969597303 0.6916522593871341
6937263 -0.7133228465462728 0.6928690210256638
6938684 -0.7116360484659597 0.6937654859416481
6940105 -0.7117724613620772 0.6951466952251908
6941526 -0.7097453373462391 0.6953096681221855
6942947 -0.7096095381456367 0.6967230583310206
6944368 -0.7074533048097321 0.6976493030678169
6945789 -0.705969467144836 0.6978194452236222
6947210 -0.7062909788091392 0.6984871581793324
6948631 -0.7031217213121896 0.7003366421106817
6950052 -0.7041174111848897 0.7003636995067791
6951473 -0.7007159360083961 0.7022027748805053
6952894 -0.7015881877001288 0.7018381961920147
6954315 -0.6992763559653284 0.7033486266923656
6955736 -0.6992254546218498 0.7038049980245549
6957157 -0.6972296807615282 0.7059977864657009
6958578 -0.696378432843221 0.7058034315305709
6959999 -0.6950533662996591 0.7078319248187672
6961420 -0.6941364893062525 0.707034834651893
6962841 -0.6922549649673744 0.7096532926801898
6964262 -0.6911193501628026 0.7097522062043676
6965683 -0.6893594431895308 0.7116707015752455
6967104 -0.6875253270437371 0.7121683040619171
6968525 -0.6860483696501275 0.7143007500904
6969946 -0.684066977382375 0.7149073109734786
6971367 -0.6832725627721348 0.7171493981224665
6972788 -0.6801739254031768 0.7173321725045724
6974209 -0.679413637695721 0.7189077538067686
6975630 -0.6771025165585584 0.7192442964430195
6977051 -0.6763973946514965 0.7210116646282505
6978472 -0.6729999067442304 0.722257316201907
6979893 -0.6729293368839417 0.7234267570187503
6981314 -0.6692037396688707 0.7256318329397462
6982735 -0.6685012893044088 0.7264172866128654
6984156 -0.6640063761929974 0.7280997508177159
6985577 -0.6630314108881441 0.7288976148572508
6986998 -0.6591101513351256 0.7304233380015446
6988419 -0.6577694714984713 0.7312818885644227
6989840 -0.655088113918295 0.7339566088217746
6991261 -0.6533475666465922 0.7351466191915231
6992682 -0.6502118854873331 0.7381499777188886
6994103 -0.6476170574795036 0.7388837600607513
6995524 -0.6448647432072582 0.7412970014451468
6996945 -0.6417828405375264 0.742278792274878
6998366 -0.6385632575982697 0.7448507208854923
6999787 -0.6343093717999309 0.7462425523868206
7001208 -0.6319357280427551 0.748569183673689
7002629 -0.6279108018649913 0.7501263726198087
7004050 -0.6246585775445634 0.7524882198819234
7005471 -0.619358688204619 0.7549189747069855
7006892 -0.6169213810862836 0.7563843543525077
7008313 -0.6113116142316707 0.7582805351669654
7009734 -0.608423143572863 0.76043728797293
7011155 -0.6015644571090809 0.7625021178559996
7012576 -0.598964610522482 0.7646508697695635
7012576 -0.5968071306052591 0.7645396345649794
7014026 -0.5937767858740562 0.7664284878994648
7015476 -0.5877734173561923 0.7687445920060828
7016927 -0.5824992837032121 0.7710370022802174
7018377 -0.5768003375653856 0.7729082971958653
7019827 -0.5694179683289697 0.7751235576966288
7021278 -0.5641916011597075 0.7779328543752184
7022728 -0.556675479587922 0.7806853275479052
7024179 -0.549869933545058 0.7821986332665685
7025629 -0.5416751786257035 0.785387824054239
7027079 -0.534034700474854 0.7878812000483059
7028530 -0.5261509096052868 0.7914991958656282
7029980 -0.515794620274218 0.7939356939571199
7031431 -0.5053132312639425 0.7964198538722512
7032881 -0.4963570886457389 0.7981858225987195
7034331 -0.48534799090579145 0.8002914666017009
7035782 -0.4731846889082015 0.8029552198155153
7037232 -0.45923688031058685 0.8028563408315877
7038683 -0.44693260632885595 0.8059766353630586
7040133 -0.43225156921617924 0.8068169492476974
7041583 -0.41574737778145726 0.8072551864789049
7043034 -0.3986696386671039 0.8069185626477423
7044484 -0.3818316924733429 0.806637742640638
7045934 -0.36259977524468734 0.807426577848282
7047385 -0.342661804806191 0.8043213149583135
7048835 -0.31858262139715454 0.800304008294597
7050286 -0.2969023519123097 0.7969343512054298
7051736 -0.2705014168432743 0.7925892623036355
7053186 -0.24300166497723938 0.7849224574877542
7054637 -0.21292757694023862 0.7725910775348761
7056087 -0.1806812148464041 0.7610522475455828
7057538 -0.1476302860452481 0.7458053980022309
7058988 -0.11062335053984561 0.7254550914063949
7060438 -0.07314715172617739 0.6942796327631592
7061889 -0.035889612587776606 0.6579985889532252
7063339 0.0016454477447837123 0.6214972407161954
7064790 0.03733027479713297 0.5705934051302489
7066240 0.06446873907612516 0.5091349572195626
7067690 0.0856338699678192 0.43545118274966865
7069141 0.10188458363267733 0.36846089095756274
7070591 0.10564077792991883 0.2847344333603089
7072041 0.08906751431156709 0.19979256072123355
7073492 0.05244352072187947 0.11343091749450394
7074942 0.016642494336786922 0.03730911086664806
7076393 -0.048994611465894886 -0.032227885232847614
7077843 -0.10694401360262148 -0.09146291396050266
7079293 -0.18397631429912653 -0.1396702704530363
7080744 -0.26440220473300696 -0.16945466703990122
7082194 -0.34947362644337676 -0.17921201590432462
7083645 -0.4199919032329431 -0.18710781737319648
7085095 -0.49322601381209163 -0.18070451004858423
7086545 -0.5559731528685393 -0.16356775420763092
7087996 -0.6134497186268273 -0.13549791374669387
7089446 -0.6609426768723609 -0.11170166476309004
7090897 -0.7022583819826379 -0.08499887042842075
7092347 -0.7380203399261458 -0.05403128964685135
7093797 -0.7647435326909495 -0.02087141295975116
7095248 -0.7893913780387778 0.007484407543278645
7096698 -0.8090910421620753 0.03341146491951762
7098149 -0.8262264391627793 0.061249851847504616
7099599 -0.8375692268665079 0.08807784946871565
7101049 -0.8488056080327645 0.11244164324072453
7102500 -0.8586146719277479 0.13165523565056114
7103950 -0.8663473964882672 0.15302775428242427
7105400 -0.8714091807533626 0.1727342265819043
7106851 -0.8757143084610113 0.1922575480109638
7108301 -0.8807055047736255 0.20711708800976975
7109752 -0.8846247821253641 0.22387069375652235
7111202 -0.8871988529203596 0.23963018279481796
7112652 -0.8874990329511123 0.2537975831489836
7114103 -0.8906278299885124 0.26749508998359006
7115553 -0.891908512375768 0.27928608287488
7117004 -0.8925627165546272 0.2936630405140685
7118454 -0.891148072398564 0.3044543107181003
7119904 -0.8926691230939462 0.31411596022728094
7121355 -0.8922686850318908 0.3252560905965252
7122805 -0.8919372625648766 0.3339794726318118
7124256 -0.8906434905109889 0.3442571621836641
7125706 -0.8904849992506667 0.35071596930117305
7127156 -0.8897606619049093 0.36048108282751545
7128607 -0.88867997309062 0.36662868381961644
7130057 -0.8877144933796512 0.3747562500522492
7131507 -0.8859722629125945 0.38176489803668096
7132958 -0.8865745530430025 0.38806072240004086
7134408 -0.8852476006982696 0.3946369998829086
7135859 -0.88403532269298 0.3992676103323928
7137309 -0.8828975662288763 0.40695063925685887
7138759 -0.8820396354536157 0.4102876692816546
7140210 -0.881173016046638 0.41768037363003
7141660 -0.8801786318434258 0.42164005832876583
7143111 -0.8785969129690171 0.42723393129403925
7144561 -0.8770265762669742 0.4312252483805152
7146011 -0.8768706979345827 0.435311680578535
7147462 -0.8746909469394186 0.4405540104684152
7148912 -0.8739830701742064 0.4432281332197695
7150363 -0.8729006490004896 0.448835463329524
7151813 -0.8723208445805649 0.45061590146957375
7153263 -0.8707058217783628 0.45628256708235854
7154714 -0.8693200210843138 0.45858770360686857
7156164 -0.8690744233016611 0.4623220955031945
7157615 -0.8676082752312547 0.4650532956611239
7157615 -0.8679663818730495 0.46500637213612
7159095 -0.8654249315655342 0.4692157612738893
7160575 -0.8653250506748554 0.47048726139020947
7162056 -0.8636653070102391 0.4756412791551818
7163536 -0.8622811827910366 0.47752350932816856
7165016 -0.862089328266962 0.48048819131805254
7166497 -0.8604263718146895 0.4834546504580148
7167977 -0.861119886804542 0.4848779488933087
7169458 -0.8590311174154835 0.48929910812785005
7170938 -0.8586805395420172 0.4901577742755677
7172418 -0.8575723464523819 0.49301281691566445
7173899 -0.8561008234576347 0.495268491257415
7175379 -0.8565936783318737 0.49660967088480057
7176860 -0.8546524643513284 0.4992526040298208
7178340 -0.8538229182511525 0.49994030557489944
7179820 -0.8531006340681245 0.5034587359966322
7181301 -0.8522517028832353 0.504836505590236
7182781 -0.8519377277990039 0.5071071699765339
7184262 -0.8501551908511314 0.5088165742468369
7185742 -0.8503812272596456 0.5096862298686271
7187222 -0.8490293113846757 0.513159610543385
7188703 -0.84833007384756 0.5133545326631775
7190183 -0.8476597340020806 0.5163752480764012
7191663 -0.8466860543540258 0.518025159176648
7193144 -0.8463437545749045 0.5190334356502138
7194624 -0.8445521197153951 0.5214616888852339
7196105 -0.8443429147446485 0.5216831303554603
7197585 -0.8438453384688022 0.5247182000202009
7199065 -0.8424040248099657 0.5245657656520735
7200546 -0.8432422630825405 0.5262917501541521
7202026 -0.8407026377696697 0.5285359965091027
7203507 -0.8411726509439693 0.5286011333122588
7204987 -0.8403240160061456 0.5320011281501109
7206467 -0.8398726184948091 0.532025075786628
7207948 -0.8390236159582622 0.5335295697830876
7209428 -0.838091750707644 0.534277499296584
7210909 -0.8382407180334038 0.5346324592784534
7212389 -0.837035979354057 0.538120423523779
7213869 -0.8370763381113249 0.5376981018150473
7215350 -0.8368231427608188 0.539743084359795
7216830 -0.8354337811522269 0.5408658932764159
7218310 -0.8354558997547936 0.5414343953971557
7219791 -0.8338208064995765 0.5433746809408155
7221271 -0.8340652013794201 0.5431853843103548
7222752 -0.8333913359596647 0.5454769979326325
7224232 -0.8332250956766963 0.5445951371144983
7225712 -0.8326028991474534 0.5461352463839966
7227193 -0.8311085748665912 0.5480194107697819
7228673 -0.8315654439612415 0.5484620193405428
7230154 -0.829804654888787 0.5512196968779175
7231634 -0.8301292108846133 0.5503805474969579
7233114 -0.8294627789244162 0.5521559952735727
7234595 -0.8291728658696623 0.5530850232925877
7236075 -0.8286169674566259 0.553138335643473
7237556 -0.8292071879782219 0.5538902547593392
7239036 -0.8274605353618351 0.5559960248498635
7240516 -0.8277777107881789 0.5560548928302831
7241997 -0.8267313424739696 0.5581401033168911
7243477 -0.8268469019856026 0.5575767879244339
7244958 -0.8260011321033172 0.558277140886118
7246438 -0.8252044932768303 0.5596433922009226
7247918 -0.8258383266868194 0.5593310382091925
7249399 -0.8245016104546184 0.5614842105826919
7250879 -0.8249547270714204 0.560999185951204
7252359 -0.8240277634915196 0.5626647742034983
7253840 -0.8232524397672693 0.5624130523417821
7255320 -0.8234898063633412 0.5634454266698565
7256801 -0.8222620973634283 0.564547412900753
7258281 -0.8220537122137404 0.5642831835476507
7259761 -0.8209642597099257 0.5660375437569207
7261242 -0.8206329813023047 0.566402946827929
7262722 -0.8211488328817307 0.5673018324326357
7264203 -0.8198010416104272 0.5688624182148624
7265683 -0.8205053306440336 0.5687049482498242
7267163 -0.8188038498689751 0.5704331738336956
7268644 -0.8191232038123455 0.5701008286804732
7270124 -0.8191217161069302 0.5707063048556251
7271605 -0.8182327504170476 0.570868335282397
7273085 -0.818735889980367 0.5710653158764375
7274565 -0.81715776558669 0.5734194039404235
7276046 -0.8177254619790741 0.5730743240123349
7277526 -0.8167660985228283 0.5735865750379961
7279006 -0.8165953618425251 0.5742148996618498
7280487 -0.816779112785645 0.5746255174435978
7281967 -0.8151967416359152 0.5751292913278094
7283448 -0.8158780071196514 0.5750341235144569
7284928 -0.8148030258270661 0.5765659847207047
7286408 -0.8155722158064641 0.5754437074106274
7287889 -0.8153051345678308 0.5777660724969037
7289369 -0.8136333375443856 0.5783351467128068
7290850 -0.8141852437669865 0.5787871905589637
7292330 -0.8130980031263282 0.5801707740369594
7293810 -0.8130774875302873 0.5797048196671063
7295291 -0.8126722942707678 0.5806570546010207
7296771 -0.8126592176231436 0.5799814084034517
7298252 -0.8130648686256374 0.5810196409346715
7299732 -0.8114116994600318 0.5816122454056786
7301212 -0.8115289106605762 0.5817945357561679
7302693 -0.8107775324629811 0.5832583035891198
7304173 -0.8111234247783043 0.5824798103729085
7305654 -0.8110468203478107 0.5838721527397256
7305654 -0.8115747482863657 0.5831360985900091
7307165 -0.8097858732170508 0.584586906311374
7308676 -0.8109531839338335 0.5840212244661677
7310187 -0.8108935395585303 0.584293811096119
7311698 -0.8096519059508581 0.585354044276741
7313209 -0.809676081658657 0.5857860078390846
7314720 -0.8088442269103322 0.5868379535057759
7316231 -0.8079506055352091 0.587605199637809
7317742 -0.8087191442267275 0.5872879213540039
7319253 -0.8070963630573836 0.5881035131411261
7320764 -0.8083074936185116 0.5874074642357312
7322275 -0.8076161600560953 0.5881383103156687
7323786 -0.8065265130038554 0.5890688878646229
7325297 -0.8068342721665843 0.5891747635262313
7326808 -0.8058008975404851 0.590280852770782
7328319 -0.8063786752293878 0.589973616664665
7329830 -0.8063473692489573 0.5899855339171155
7331341 -0.8056072440136981 0.5908004054637146
7332852 -0.8059834519933591 0.5910525779709713
7334363 -0.8051512625284815 0.5917377602955308
7335874 -0.8043297203628527 0.5922194857302022
7337385 -0.8051762425941247 0.5920039898108749
7338896 -0.8046285487271378 0.5931956132127537
7340407 -0.8046267073178948 0.5925753654698546
7341918 -0.8051305002256339 0.5926201829608015
7343429 -0.8037055884249921 0.593199701016994
7344940 -0.803425702607777 0.5935684834921287
7346451 -0.8028637892048373 0.5944469198950003
7347962 -0.8025390805635757 0.5949148335013164
7349473 -0.803440497304985 0.5955596966515251
7350984 -0.8021077402291407 0.59706756907715
7352495 -0.8023024502022508 0.5967299917957789
7354006 -0.8015595077694748 0.5969949976173977
7355517 -0.8008831810568746 0.5969488159962834
7357028 -0.8017133460168994 0.5965860428212262
7358539 -0.8002032002164048 0.5973969984043609
7360050 -0.8003221178578745 0.5977011820524585
7361561 -0.8003962719507045 0.5978199268562902
7363072 -0.7989591525135139 0.5986030143282722
7364583 -0.8001099879453669 0.5988928277953743
7366094 -0.7996754342218257 0.5990968166970027
7367605 -0.7989607520813191 0.5997514441732998
7369116 -0.8001485045906297 0.5996173454136566
7370627 -0.7986872815235951 0.6006649500595046
7372138 -0.7983164089200462 0.6015817521253245
7373649 -0.7986638272735733 0.6007892440845458
7375160 -0.7984632606897496 0.6010454038302684
7376671 -0.7978368658008916 0.6011047675743364
7378182 -0.7981031591452378 0.601692746732307
7379693 -0.7978448425984433 0.6020069763906241
7381204 -0.7975440099773254 0.6016624852287249
7382715 -0.7984335557367054 0.6019097223005131
7384226 -0.7970209192588639 0.6031524448296011
7385737 -0.7970031827032771 0.6032769867136545
7387248 -0.7971858497336101 0.60359996053461
7388759 -0.7961503581792179 0.6046941884134595
7390270 -0.7970997044834354 0.6042160746324127
7391781 -0.7976918405795065 0.6040322418561648
7393292 -0.7966222021888414 0.6052529210104093
7394803 -0.7964859129448928 0.6045211370924158
7396314 -0.7962847755199485 0.6052364526291452
7397825 -0.7947854855648082 0.6058203334411163
7399336 -0.7949523495382371 0.6054323983678459
7400847 -0.7946125388502001 0.6057425039568706
7402358 -0.7943779596344328 0.605858451074592
7403869 -0.7943760570151095 0.6059131785881946
7405380 -0.7940246447304691 0.6061885515879853
7406891 -0.7940104798577569 0.6067415665846971
7408402 -0.7946022690463238 0.6075478103426589
7409913 -0.7936455295498726 0.6088982816593119
7411424 -0.7941254881515384 0.6088440000031646
7412935 -0.7947581672255656 0.6089701611868975
7414446 -0.7926916702410036 0.6099740598839444
7415957 -0.7928593729702096 0.6099478703582888
7417468 -0.793112638769754 0.609296683095071
7418979 -0.7918619911550653 0.6103540145932793
7420490 -0.7926028402998467 0.6099072113668262
7422001 -0.7922517969316231 0.6100373821419919
7423512 -0.7924066735501794 0.6104891580807489
7425023 -0.791850389694823 0.60963475533814
7426534 -0.7915365063794644 0.6111780270289903
7428045 -0.7917200230566039 0.6105514816884894
7429556 -0.7920089411405625 0.6103721723664549
7431067 -0.7909370560384518 0.6122352473924334
7432578 -0.7915304989359027 0.6123024807954751
7434089 -0.7917873496690712 0.6116398147191968
7435600 -0.790512464892759 0.6123422280009252
7437111 -0.7907629226124083 0.6118592160952413
7438622 -0.7908738933258767 0.6120987452457721
7440133 -0.7892969892664975 0.6133123851475828
7441644 -0.7894867302056388 0.6134378518102528
7443155 -0.7890919180957954 0.6139461164422156
7444666 -0.7889648324642506 0.6142590362679604
7446177 -0.789510729234598 0.6136719915294372
7447688 -0.7893035439656894 0.6129302818476385
7449199 -0.7891429894379046 0.6144222727673591
7450710 -0.7896258337120952 0.6141163426008581
7452221 -0.788203135032175 0.6150983370390555
7453732 -0.7886380357973972 0.6150880553379082
7455243 -0.7890497440584128 0.6148679352832334
7456754 -0.7880633652527655 0.6159755133737174
7456754 -0.7878996467045833 0.6158808092066755
7458296 -0.7885600651424499 0.6162657613103538
7459838 -0.7882612340711137 0.615667178931688
7461380 -0.7873543592143102 0.6164837845439128
7462923 -0.7877571234646065 0.6156734027778202
7464465 -0.7869399615501025 0.616457490302627
7466007 -0.7866251835500733 0.6171492861944676
7467549 -0.7867279775808453 0.6177267589388522
7469092 -0.7865462961194424 0.6181186968919433
7470634 -0.7859559006998685 0.6180251336674192
7472176 -0.7870379602114367 0.6173843386137354
7473718 -0.7866028645858936 0.6183709984977991
7475261 -0.7861612380211132 0.6183426379152873
7476803 -0.7870405631136397 0.618275009581019
7478345 -0.7855695962860877 0.6186547009345729
7479887 -0.7858250314706454 0.6197300216124291
7481430 -0.7866430167735382 0.619065561406134
7482972 -0.7858962316603739 0.6200507751277361
7484514 -0.7859019480439621 0.6200511320336688
7486056 -0.7862749590894151 0.6191851163164237
7487599 -0.7854339574510227 0.6202861813840542
7489141 -0.7853937404638333 0.6197843461849467
7490683 -0.7854507321799092 0.620176466745919
7492225 -0.7839512594133485 0.6209027400109601
7493768 -0.7837088390418504 0.6220865562790254
7495310 -0.7842251411592656 0.6208109558521749
7496852 -0.7835953793508285 0.6213175492961611
7498395 -0.7840176574443177 0.6211879698599381
7499937 -0.7837587189166215 0.6203722864700478
7501479 -0.782837330178528 0.6218629354920012
7503021 -0.7836016892763057 0.6220580274931409
7504564 -0.7828839747209801 0.622942751816356
7506106 -0.7829543207119836 0.6233453931012617
7507648 -0.7836540990596836 0.6223999026303947
7509190 -0.7830257886265476 0.6231884390931183
7510733 -0.782665544076392 0.623446065631924
7512275 -0.7835424357044489 0.6226546457377946
7513817 -0.7825401719254064 0.6227868547212123
7515359 -0.782147587005201 0.6233643421872795
7516902 -0.7824448469638758 0.6242304780480322
7518444 -0.7816197505986028 0.6250783266425494
7519986 -0.7817430962696569 0.6245229208971422
7521528 -0.7824725319972035 0.6241049211556097
7523071 -0.7815887643684818 0.6240145236095833
7524613 -0.7812083454279216 0.6247960570233325
7526155 -0.7817315624552353 0.6242821015295854
7527697 -0.779957723777671 0.6257249737314792
7529240 -0.7805413662842392 0.6254496223608622
7530782 -0.7804277881683324 0.6251599278026241
7532324 -0.7801362423028783 0.6264919313855306
7533867 -0.7811309521966532 0.6262000036726966
7535409 -0.781054080858467 0.6259671233968739
7536951 -0.780172376731676 0.6268672005028861
7538493 -0.780622713033832 0.6257326339724807
7540036 -0.7794903468729708 0.6267860892126251
7541578 -0.7797657060380061 0.6268414139471731
7543120 -0.7795867527784367 0.626638753879948
7544662 -0.7789928299087909 0.6278498216576326
7546205 -0.7790876767308125 0.6281039720373656
7547747 -0.7793736941322834 0.6271763703274484
7549289 -0.7792790189381232 0.6284142426190048
7550831 -0.778641168447023 0.6280568152214124
7552374 -0.7789843790608671 0.6279246497443067
7553916 -0.7774586223887913 0.6285306857937839
7555458 -0.778220465364166 0.6291087435264505
7557000 -0.7780183245473827 0.6276887509182654
7558543 -0.7775603739162876 0.6288731719218944
7560085 -0.778223223655581 0.6289626214790291
7561627 -0.7781021641967955 0.6281820698813351
7563169 -0.7776121971798903 0.6296366287020843
7564712 -0.7774457396595699 0.629291471801099
7566254 -0.7776991774973347 0.6295894817717362
7567796 -0.7767665738317903 0.6300381951215814
7569338 -0.7768649922553894 0.6301953730256549
7570881 -0.7768992185942506 0.6300110677524249
7572423 -0.7765340865712066 0.6305794166845076
7573965 -0.7768447385855907 0.6303805202988764
7575508 -0.7765562818914059 0.6304467602480714
7577050 -0.7762872155774682 0.6313352194228935
7578592 -0.7765756132571505 0.6304730443681718
7580134 -0.7757467779024548 0.6310739085887718
7581677 -0.7762599136796564 0.6319606474214369
7583219 -0.7762270721835106 0.6304783580651141
7584761 -0.7751710562225199 0.6319176374147796
7586303 -0.7758342567092502 0.6321542166807768
7587846 -0.7761162211165193 0.6314003104022631
7589388 -0.7755302672613981 0.6324789204960269
7590930 -0.7758423490709465 0.6330367963422541
7592472 -0.7757826317750589 0.6321542616331608
7594015 -0.7750566037653956 0.6340470342336888
7595557 -0.7757777695342692 0.63336465248682
7597099 -0.7757076722585985 0.6329835946260867
7598641 -0.7747053983524022 0.6334601639406788
7600184 -0.7748459629143625 0.6328872799036434
7601726 -0.7745817080439763 0.6333480374358946
7603268 -0.7735411796642634 0.6343485892932361
7604810 -0.7739735227013461 0.6340053875431048
7606353 -0.7731461878702375 0.634140590279921
7607895 -0.7731491537401385 0.6352738645867974
7609437 -0.7741222389366513 0.6343065651587899
7610980 -0.7732618019638559 0.6348682497753181
7610980 -0.7735347956133222 0.6353648512327016
7612554 -0.7733432151923189 0.6351273715037856
7614128 -0.7736792393957238 0.6346717576634053
7615702 -0.7728815141734052 0.6351310822346016
7617276 -0.7724114367772859 0.6365273953117659
7618850 -0.7730344005783901 0.6349865914214212
7620424 -0.7724107895179059 0.6348683083464561
7621999 -0.7718307990789216 0.6362460642224257
7623573 -0.7722742414406181 0.6349728056007704
7625147 -0.7733170658322329 0.635439901671808
7626721 -0.7720661851882321 0.6365329624862284
7628295 -0.7722777854788279 0.6367991313118319
7629869 -0.7726070093413292 0.6364517578147073
7631444 -0.7720091968959467 0.637658777512919
7633018 -0.7717389582921564 0.6371168169356285
7634592 -0.7726327427761677 0.6352286862671157
7636166 -0.7709097563539244 0.6372932788033213
7637740 -0.7711959433359206 0.6378587978226672
7639314 -0.770774017058164 0.637626280423735
7640889 -0.7698738696845481 0.6387468877897579
7642463 -0.770069412649711 0.6390692590973567
7644037 -0.7704573739375122 0.6382449548063935
7645611 -0.7715090226044407 0.638280787623537
7647185 -0.7701760622006538 0.6398666515406397
7648759 -0.7708449274460872 0.63864931449551
7650334 -0.7704512004420563 0.638265517685967
7651908 -0.7694115071715893 0.6397830184466203
7653482 -0.7699912294896512 0.6390575878388015
7655056 -0.7701150937597891 0.639088904115438
7656630 -0.769374934928425 0.6403851555547146
7658204 -0.7693484740422977 0.6396443809177457
7659778 -0.770235488292263 0.6390380817914377
7661353 -0.7688632325379264 0.6398733427115841
7662927 -0.7695117149023766 0.6400494697993897
7664501 -0.7696666959184205 0.638687520089795
7666075 -0.7683868696014565 0.6408316020770156
7667649 -0.769182121232347 0.6410100408319541
7669223 -0.7692687713706007 0.6396982754355308
7670798 -0.7690750155974515 0.6411224561543375
7672372 -0.7685403821881546 0.6411086604306276
7673946 -0.7690470042470289 0.640230721334608
7675520 -0.768552725217615 0.641527599245758
7677094 -0.7680377998149127 0.6419271975009606
7678668 -0.7680652777147494 0.6415567528371227
7680243 -0.7675340860440768 0.6417463612043897
7681817 -0.76694245299526 0.6430816233443785
7683391 -0.7670118095105454 0.6424056821289111
7684965 -0.7679178241291802 0.6415465706520872
7686539 -0.7683335299476616 0.6403588715995239
7688113 -0.7665868230412475 0.6427283025150167
7689688 -0.7670818001009291 0.6425726773214399
7691262 -0.7666947670009094 0.64195510854149
7692836 -0.7660581670250766 0.6432419103804562
7694410 -0.7665785298155923 0.6435897190770917
7695984 -0.7673625206453712 0.6422534565601951
7697558 -0.7663209044977228 0.6433353002546763
7699132 -0.7657268130755023 0.6440392785375008
7700707 -0.7660138768570258 0.643445434504311
7702281 -0.7657717249004397 0.6438307953734552
7703855 -0.765521956571798 0.6443157531894768
7705429 -0.7660843979517511 0.6431422669103822
7707003 -0.7654326086838886 0.643969491402099
7708577 -0.7657146322046835 0.6447802394636435
7710152 -0.7655563966231055 0.6441400307638951
7711726 -0.7659024013473392 0.6436044598375611
7713300 -0.7650182381068088 0.6449148643552184
7714874 -0.7656505583285002 0.645379586901473
7716448 -0.7654666794948342 0.6444410679046113
7718022 -0.7644265936336079 0.6469921080012819
7719597 -0.7651205953311588 0.6464515548802499
7721171 -0.7653241920177315 0.6458882752625403
7722745 -0.764637740517859 0.6463757812099762
7724319 -0.7641507735681167 0.6465794132181597
7725893 -0.7646859905279698 0.6455418817520188
7727467 -0.7635875347036489 0.6466103077084556
7729042 -0.7628357487856703 0.6469940673117252
7730616 -0.7637241724174851 0.6459887570644381
7732190 -0.763866500426655 0.6458473444371634
7733764 -0.7639997946010066 0.6468010865528586
7735338 -0.7636739695336089 0.645767697024851
7736912 -0.7639589088737473 0.6469839180807112
7738486 -0.7638332563112435 0.647735909965979
7740061 -0.7639394676751791 0.6471781925520059
7741635 -0.764390963217073 0.64670967259136
7743209 -0.7635642412403794 0.6487532717913893
7744783 -0.7630645009466008 0.6485066566910022
7746357 -0.7639195363896658 0.6475470737824206
7747931 -0.7621285240466866 0.6488886342240473
7749506 -0.7619817599304299 0.6486146273581084
7751080 -0.7623816312324987 0.6481268188952535
7752654 -0.7612110441105476 0.6490388251798032
7754228 -0.7615425291362927 0.6487452423750188
7755802 -0.761780940471552 0.6483226608592205
7757376 -0.7615186871009375 0.6488430231557633
7758951 -0.7606405943310489 0.6489373484488794
7760525 -0.7618786329655113 0.6483172188507736
7762099 -0.7615114275375501 0.6486356548671153
7763673 -0.7612531929024995 0.649917111020762
7765247 -0.7615501762010599 0.6488278489043791
7766821 -0.7619561035264374 0.6488171976576196
7768396 -0.7609842881612544 0.6501353130820596
7768396 -0.7622135134900886 0.6491709451285135
7770002 -0.7615677037121832 0.6500871764143856
7771609 -0.7611703168148637 0.6507119181813802
7773216 -0.7608340173010866 0.6505419304171051
7774822 -0.761135325331859 0.6501509477842419
7776429 -0.7606198291553672 0.650914622308706
7778036 -0.7594950775810916 0.6513445157687989
7779642 -0.7602626896617118 0.6511658572629827
7781249 -0.7603780030159871 0.6508156070029938
7782856 -0.7598014239458047 0.6521222135870962
7784463 -0.7594425819779003 0.6523713418878093
7786069 -0.7596043479898223 0.6516851718028289
7787676 -0.7597828395460754 0.6505070244927939
7789283 -0.7596998593322322 0.6519537588079385
7790889 -0.7599637673275234 0.6523304569433747
7792496 -0.7597567175680743 0.6517306216484389
7794103 -0.7605980800988221 0.6511323332292136
7795710 -0.7595373247342998 0.6525871888162427
7797316 -0.759113774623507 0.6527489778736015
7798923 -0.758255827800578 0.6522244200823457
7800530 -0.7589483890355192 0.6521540684664666
7802136 -0.7582608906641063 0.653550139743534
7803743 -0.7573695645619096 0.6542998540183242
7805350 -0.7578023174277971 0.6537000593843643
7806957 -0.7579714767555935 0.652959008921929
7808563 -0.7570420554081037 0.6545733419441775
7810170 -0.7571379882658716 0.654342845719475
7811777 -0.7569716842974402 0.6541229472453496
7813383 -0.7583176559042615 0.6524457774847185
7814990 -0.7566751010742472 0.6543274096672771
7816597 -0.7570854606161143 0.654254724717916
7818204 -0.7569526158379781 0.6537914295179167
7819810 -0.7582051066556783 0.6535883447675928
7821417 -0.7571006552061466 0.6545101673165673
7823024 -0.7570339869394839 0.6553319355256114
7824630 -0.7572982416216654 0.6547887003618261
7826237 -0.7570825803354837 0.6549941155649034
7827844 -0.7560153446072281 0.6563284584240971
7829450 -0.7558409370455305 0.6557583912015311
7831057 -0.7564535898013903 0.6556500771997353
7832664 -0.7562955907872244 0.6553975360991756
7834271 -0.7553288339280367 0.6570506947226931
7835877 -0.7554104126000263 0.6567314010025017
7837484 -0.7556679513728618 0.6560779437842458
7839091 -0.7554654773371693 0.6566472831110404
7840697 -0.7547479461326103 0.6575498055166961
7842304 -0.7551870339682073 0.656413912655298
7843911 -0.7553052959806154 0.6555159792838133
7845518 -0.7553630775145463 0.6569097429521191
7847124 -0.7543039044425989 0.6570342926720079
7848731 -0.7544293282160173 0.6567602015040656
7850338 -0.7552728647353817 0.6563680559396262
7851944 -0.7554271507999372 0.6568587933470329
7853551 -0.7547976799883379 0.6582969362430322
7855158 -0.7545190931435903 0.6574228265953747
7856765 -0.7550202141535342 0.6578230281677364
7858371 -0.7535848958267527 0.6587634420097258
7859978 -0.7533012598914282 0.6584921187536626
7861585 -0.7538501440109633 0.6585680954285115
7863191 -0.7538710425608292 0.6585830402327186
7864798 -0.7526253907722261 0.6600909938802413
7866405 -0.7527305141326763 0.6589951935789771
7868012 -0.7535905260638889 0.6578817926668887
7869618 -0.7532436222599834 0.6586527325743637
7871225 -0.7524368271415276 0.6595514404644658
7872832 -0.7527928034087211 0.6586095057732004
7874438 -0.7539144470927456 0.6580289523912416
7876045 -0.7529468532670054 0.6597756159712298
7877652 -0.7532145968090301 0.6594059692176015
7879258 -0.7532140462872463 0.6592334871235379
7880865 -0.7533101830555704 0.6594628310210082
7882472 -0.7522818496060798 0.6608068205233072
7884079 -0.7529126100361815 0.659778040337922
7885685 -0.7528514000476904 0.6594885462922159
7887292 -0.7517692583331725 0.6611090305452967
7888899 -0.751821477966892 0.6612591611455731
7890505 -0.7518286673246566 0.6612868075760671
7892112 -0.7519525849225879 0.6613097165111732
7893719 -0.7505121063584195 0.6620857285957348
7895326 -0.750727250242021 0.661277309454937
7896932 -0.7510229171283307 0.6598556544257022
7898539 -0.7509119704349602 0.6616883902507636
7900146 -0.7506367217777211 0.6616944229125937
7901752 -0.7507500504953255 0.6605310900399907
7903359 -0.7518354218268204 0.66048274133923
7904966 -0.7499468291434771 0.6620005286326526
7906573 -0.7505931943393668 0.6614591393146267
7908179 -0.7506473346029023 0.6611277345458907
7909786 -0.749946682574575 0.6631116380654111
7911393 -0.7494864045870046 0.6627067424784717
7912999 -0.7492972907084269 0.6628219556466634
7914606 -0.7500036254898288 0.6624020763872482
7916213 -0.7486126983404641 0.6641595619189751
7917820 -0.7491045533860305 0.6631142435880437
7919426 -0.7496635027132603 0.6621628544969417
7921033 -0.7486788054364585 0.6638890437262936
7922640 -0.7482510874504894 0.6630530222431362
7924246 -0.7489248092110644 0.6623233641940919
7925853 -0.749224770336552 0.6628754597142038
7927460 -0.7476269537746656 0.6643073223142573
7929067 -0.7480890581397525 0.6637923034847749
7929067 -0.7478385611035626 0.6650522789503969
7930706 -0.747945084454462 0.6641667613432637
7932346 -0.7484400503645994 0.6636991031523046
7933986 -0.7497487927333999 0.6647561256191771
7935626 -0.7484684244926951 0.6655439285672268
7937266 -0.7481223862624066 0.6650976781228312
7938906 -0.7483361846881824 0.6647156760165189
7940546 -0.748823663269882 0.6638926014499663
7942186 -0.7476667990983128 0.6652865884255421
7943826 -0.7474609346082633 0.6652622464418458
7945466 -0.74789760543487 0.6644508162246614
7947106 -0.7481527919093854 0.6648322182970294
7948746 -0.7475361076907473 0.6657418617970791
7950386 -0.7468270053859656 0.665898216739059
7952026 -0.7470861837815886 0.6652882823763515
7953666 -0.747637484060931 0.6647778416381773
7955306 -0.7463689466409977 0.6661077703148346
7956946 -0.7453694120782094 0.6663269654067027
7958586 -0.745914663561437 0.6657975181822193
7960226 -0.7464395052663677 0.6656310648696884
7961866 -0.7455078680021388 0.66781178573002
7963505 -0.7455414058954786 0.6674809341042857
7965145 -0.7457717859894534 0.6664448820333122
7966785 -0.7468124022197978 0.6661645218625751
7968425 -0.7462184955120669 0.6668695599931408
7970065 -0.7449863502365294 0.668381704247377
7971705 -0.7450407460924386 0.6679031244061601
7973345 -0.7454474738737686 0.6674291224228386
7974985 -0.7456621267473734 0.6682551719193435
7976625 -0.7444303452195729 0.6692016229636688
7978265 -0.7446783829192855 0.6684657274568675
7979905 -0.7449648378236398 0.6675518440932988
7981545 -0.7451657122919109 0.6682544632512405
7983185 -0.743749962174885 0.6683993589421796
7984825 -0.7438343106288746 0.6682587808547727
7986465 -0.7447293813483745 0.6675226836777465
7988105 -0.7457694929350412 0.6683072407881934
7989745 -0.7445426039133096 0.6687393503473931
7991385 -0.7431311850756332 0.6693398614774217
7993025 -0.7440504225228912 0.6684835841033033
7994665 -0.7445429467906478 0.6685140242028116
7996304 -0.74334205123665 0.6696646045645539
7997944 -0.7426461245529394 0.6697153723256721
7999584 -0.7433576198760607 0.6685906553570927
8001224 -0.7424195895492204 0.6700793259232325
8002864 -0.7431893787569228 0.6691273377454495
8004504 -0.7435870980044984 0.6686934659919958
8006144 -0.743132727101028 0.6701632732712294
8007784 -0.7417040446391319 0.6711816749515286
8009424 -0.7421065560881023 0.6706895698146804
8011064 -0.7423232768030049 0.6700501461130036
8012704 -0.7421032881164867 0.671431558257746
8014344 -0.7413064385682634 0.6715038044950243
8015984 -0.7418194827097409 0.6707356969599514
8017624 -0.7419344312161196 0.6699244816680288
8019264 -0.741691987498037 0.6712295281003658
8020904 -0.7410376813819579 0.6714660495970584
8022544 -0.7414767159156059 0.6707201692779959
8024184 -0.7426453079707266 0.669909477468757
8025824 -0.7418882434482358 0.6705709810641343
8027464 -0.7414706991534742 0.6713455645007605
8029103 -0.7414338157870535 0.6713640317336167
8030743 -0.7418601539671961 0.6709716169010629
8032383 -0.741343299785357 0.6721659300544058
8034023 -0.7406273448028807 0.6731772073730838
8035663 -0.740692357081908 0.6716350566460825
8037303 -0.7403752176858358 0.6721088426617307
8038943 -0.7406705565740688 0.6727746769802929
8040583 -0.7396768071747423 0.6732912141508292
8042223 -0.7394642414607153 0.6728754775799161
8043863 -0.7397203471488492 0.6720437413674228
8045503 -0.7393553217474356 0.67305171631907
8047143 -0.7390532681397712 0.673773981691418
8048783 -0.7385940169282431 0.672679302717368
8050423 -0.7391492246532526 0.6727579795585041
8052063 -0.7394680983319786 0.672765148809684
8053703 -0.7386629982954659 0.674098417024985
8055343 -0.7384134966120336 0.6736165324089265
8056983 -0.7389847707934424 0.6737189645622542
8058623 -0.739385380631366 0.6741349597123577
8060263 -0.7380023332690347 0.6746690372048068
8061902 -0.7377164985293589 0.6747930635451171
8063542 -0.7385266821790027 0.6739890752133243
8065182 -0.7387722141694072 0.6744264336882967
8066822 -0.7378504340524069 0.6754841947164777
8068462 -0.7373236883689948 0.6755718293073418
8070102 -0.7382639415920977 0.675159829673588
8071742 -0.7388960671484216 0.6750817912007064
8073382 -0.737930504470357 0.6761426345131799
8075022 -0.737035728644144 0.6756492026675572
8076662 -0.7377716157070837 0.6750906912035369
8078302 -0.7382933572707034 0.6754554998571226
8079942 -0.7372097276664993 0.6767494810166711
8081582 -0.7368939976280785 0.6759573921531132
8083222 -0.7371526055892629 0.6750202308224653
8084862 -0.7377056942082335 0.6752828499127842
8086502 -0.7368951100937052 0.6762279221921932
8088142 -0.7366250161131538 0.6762435723966675
8089782 -0.7360352668145731 0.6753422069702644
8091422 -0.7366442666761894 0.6758699592234143
8093062 -0.735859425245694 0.6766905531187449
8093062 -0.7361456404694041 0.676659878972595
8094735 -0.7352626675139158 0.6775954277081738
8096409 -0.7348494330538917 0.6768846840880569
8098083 -0.7355892134400188 0.6768800344468391
8099757 -0.735239355177699 0.6765717671839815
8101431 -0.7346105147254778 0.6779165795008799
8103105 -0.7340120416457775 0.6778208823071129
8104779 -0.7345333555135535 0.677748363267624
8106452 -0.7346321067795633 0.6771177890840246
8108126 -0.7356832913674195 0.6777194701044504
8109800 -0.7351632858418354 0.6779446095102907
8111474 -0.7343809156924221 0.6783688096133691
8113148 -0.7352026035694339 0.678122166720529
8114822 -0.7349440265165078 0.6776083909805797
8116496 -0.735591974365228 0.6783784068330843
8118169 -0.734951718892398 0.678919034388733
8119843 -0.7338117997718625 0.679180176434688
8121517 -0.7338332904416898 0.6784491150719658
8123191 -0.7344866292062548 0.6785097433162046
8124865 -0.7344540151675483 0.6793093144196465
8126539 -0.7333197821831584 0.6801226388430709
8128213 -0.7325143669386962 0.680025530363445
8129886 -0.733416802209297 0.6793535357689552
8131560 -0.734054808778635 0.6791209311454999
8133234 -0.7342082645454439 0.6792371610899502
8134908 -0.7334762928923423 0.6799696182007016
8136582 -0.7330233775180198 0.679411001989191
8138256 -0.7332839771028994 0.6786892429219256
8139930 -0.733808380857839 0.6788355271434446
8141603 -0.7327647893616758 0.6801489773048311
8143277 -0.7323064448690191 0.6801757957009863
8144951 -0.7319040783473166 0.6810874497949947
8146625 -0.7321944123796925 0.68064942548634
8148299 -0.7324894667812333 0.6809816960628976
8149973 -0.7319207751635293 0.6811777788609308
8151647 -0.7307471774373178 0.6809144084209515
8153320 -0.731321356012408 0.6817092540006997
8154994 -0.7316564100345498 0.6803576334774544
8156668 -0.7321859761588392 0.6807918461385343
8158342 -0.7321441533407423 0.6814025509193834
8160016 -0.7312125176301767 0.6821393037221425
8161690 -0.7317121636343841 0.6810698586042966
8163364 -0.7318253180718406 0.6810389984191354
8165037 -0.7320296936985483 0.6817268332042055
8166711 -0.7305086799525621 0.682299261317285
8168385 -0.730635745765509 0.6822792564499953
8170059 -0.7305521615904189 0.6822542790472944
8171733 -0.7316867682793597 0.682835250754994
8173407 -0.7319254870324207 0.6828708532963748
8175081 -0.7302589550052876 0.6837369507350822
8176755 -0.7306518246661051 0.683956320900078
8178428 -0.7306633965377515 0.682911132982843
8180102 -0.730223984729269 0.6826154686674416
8181776 -0.730101917393655 0.6832899249764255
8183450 -0.729810087072726 0.6835859749220699
8185124 -0.7287755671452646 0.6844807964025257
8186798 -0.7287027385278799 0.6834184070546817
8188472 -0.7286320420170296 0.6833200144233492
8190145 -0.729875377476417 0.6833098487760592
8191819 -0.7298812436320755 0.6834902271072204
8193493 -0.729945500256568 0.6841089688616132
8195167 -0.7291495081704538 0.6840161900569071
8196841 -0.7293509950024385 0.6841726672777624
8198515 -0.7291602192862155 0.6835064560166274
8200189 -0.73004365550596 0.684320938243721
8201862 -0.7294651003149809 0.6847289591078846
8203536 -0.7286003127536604 0.6854164706923994
8205210 -0.7279577658722848 0.6855973592869744
8206884 -0.7283670787766348 0.6848868441250544
8208558 -0.728412262548223 0.6842450489688223
8210232 -0.7290451434276137 0.6842775323430021
8211906 -0.7279961508039576 0.6852277899527043
8213579 -0.7264848713356205 0.6853064144327587
8215253 -0.7271964841058759 0.6852200018241427
8216927 -0.7268602228877576 0.6852226563060138
8218601 -0.7275027949482316 0.6860919894791616
8220275 -0.7274440057353205 0.6858210592304927
8221949 -0.7268750102640228 0.6866981079073693
8223623 -0.7269152436943602 0.6864226666312945
8225296 -0.7270614341215533 0.6858634435606636
8226970 -0.7271067920479687 0.6857634573605639
8228644 -0.7276343060672562 0.6860502802913827
8230318 -0.7276781864645975 0.6863406690628472
8231992 -0.7259995985096247 0.6860234048590594
8233666 -0.7268431550059696 0.6862931749331778
8235340 -0.7268185191340736 0.6863582528153237
8237013 -0.7268889059330388 0.6873514825097911
8238687 -0.7265024652663126 0.6874518876083879
8240361 -0.7257221989599999 0.6883032581150668
8242035 -0.7254651119103677 0.6887294856582419
8243709 -0.7252676483467149 0.6878705643483449
8245383 -0.72574495430003 0.6876303533171085
8247057 -0.7259740856092648 0.6881428396879211
8248730 -0.7256466544780551 0.6884292984046515
8250404 -0.7244808504041729 0.6881537937203333
8252078 -0.7248530018897873 0.6878035444699293
8253752 -0.7251365256508249 0.6875852885926009
8255426 -0.7255542485289465 0.6882631759250002
8257100 -0.7256117104173048 0.6880494921633009
8258774 -0.7244824411219669 0.6886776774954457
8260448 -0.724489240144903 0.6890839514823817
8260448 -0.7248732918704411 0.6880843846639602
8262156 -0.7256319434740593 0.6884488854383322
8263864 -0.7245342727521916 0.689183332635165
8265573 -0.7241449148520159 0.6895705720810817
8267281 -0.7243410640184652 0.6888508751597412
8268990 -0.7242108962551753 0.6892397098374218
8270698 -0.7241871957276893 0.6895198338016387
8272407 -0.7242253892558491 0.6898186991762006
8274115 -0.7240932586319913 0.6900821302726705
8275824 -0.7227393618998635 0.6897987701215139
8277532 -0.7230316633827213 0.6898477574840314
8279241 -0.7228368000373946 0.6894974244115356
8280949 -0.7235235601670094 0.6903711591503139
8282658 -0.7235338369426991 0.6899731269333823
8284366 -0.7232665473561827 0.69056192101207
8286075 -0.7227467259420159 0.6899121467936635
8287783 -0.7228705739546891 0.6899863193278502
8289492 -0.7232888887389449 0.689359588004776
8291200 -0.7232525500548798 0.6901211717680448
8292909 -0.7232962959040062 0.6902198298439955
8294617 -0.7216860151729491 0.6913755017365409
8296326 -0.7217111220135403 0.691275700008771
8298034 -0.7218340088838034 0.6915467211000396
8299743 -0.7220098781105465 0.6910926100203219
8301451 -0.7220220943580872 0.6916072955596002
8303160 -0.7224081572667934 0.6913335433663298
8304868 -0.7209683745586964 0.6915742816090366
8306577 -0.7209169108186657 0.6925359231647673
8308285 -0.721358082554807 0.6918595704694185
8309994 -0.7216545629136704 0.691928316911395
8311702 -0.7226244970706713 0.6915585440402998
8313411 -0.7218960627368887 0.691732024961369
8315119 -0.7207180399114274 0.6927961161831488
8316828 -0.7208744800797963 0.6929245120429968
8318536 -0.7210969912567182 0.6929605306854913
8320245 -0.7209897108830952 0.6931205123112195
8321953 -0.7212769422451379 0.692850445824353
8323662 -0.71999882288117 0.6930991591307016
8325370 -0.7193851346651271 0.6931986292387484
8327079 -0.7196007828709313 0.6929862478201683
8328787 -0.719814790181314 0.6934614064556628
8330496 -0.7196389105206119 0.6935869736496851
8332204 -0.7198171590171136 0.6936528348667356
8333913 -0.7194793389350559 0.6936091553144066
8335621 -0.718641675134296 0.6934908268293793
8337330 -0.7200197312488564 0.6935062997108933
8339038 -0.7199862196506884 0.6931325561832672
8340747 -0.7192045149899763 0.6943556812606039
8342455 -0.718979700394321 0.6938786244314512
8344164 -0.7194221383990304 0.6938438536847299
8345872 -0.7188905923844809 0.6940453753896344
8347580 -0.7187918921205027 0.6936896457700739
8349289 -0.7184938216207171 0.694126807486008
8350997 -0.717932418013134 0.6947934183328286
8352706 -0.7180980699942758 0.6952698398414969
8354414 -0.7183891954950975 0.6949761401724652
8356123 -0.718248851606146 0.6951853802446494
8357831 -0.7181744345984862 0.695293737287922
8359540 -0.7170581168571526 0.6958943094430876
8361248 -0.7172176665001414 0.6949421057542686
8362957 -0.7170577280199992 0.6959603785595884
8364665 -0.7176704499118901 0.695521649647628
8366374 -0.7181330287557105 0.6956659443849584
8368082 -0.7181711940429679 0.6950137956272449
8369791 -0.7164605774167546 0.696188960748607
8371499 -0.7169285329757898 0.6959276931089068
8373208 -0.7168863054390564 0.6953974014852984
8374916 -0.7167527151373883 0.6960541294837379
8376625 -0.7176646356313277 0.695915906041724
8378333 -0.7172267010210883 0.6963722513230791
8380042 -0.716018130496397 0.6971504530072682
8381750 -0.7160754634271259 0.6976043372778296
8383459 -0.7156353716128541 0.6978210300664954
8385167 -0.7156005602770354 0.6977988948697762
8386876 -0.7166463995548855 0.6968728002016297
8388584 -0.7155839412589785 0.6969461024064219
8390293 -0.7155452725717883 0.6974484956144271
8392001 -0.7152666258250111 0.697361341521191
8393710 -0.7162287084080023 0.6966424287339661
8395418 -0.7157652878211791 0.6967398548493169
8397127 -0.7160441628760418 0.6971352751874252
8398835 -0.7151420549722389 0.6974889830524486
8400544 -0.714310094205628 0.6981797012515274
8402252 -0.7146910438196228 0.6983165843163419
8403961 -0.7146797543147173 0.6984705464452285
8405669 -0.71553077213255 0.6988914033346804
8407378 -0.7153293288723878 0.6985362554194768
8409086 -0.713978836751106 0.6986052208039644
8410795 -0.7136793043770536 0.699041798235976
8412503 -0.7140384111837706 0.699347725614578
8414212 -0.7138681067427176 0.6990118491574937
8415920 -0.7142075337734063 0.6987611083822604
8417629 -0.7140009431476679 0.6980882565111969
8419337 -0.7138172671770484 0.6992912834921525
8421046 -0.713673933723875 0.6992843761793426
8422754 -0.713503504404381 0.6996948045791567
8424463 -0.7136268230678221 0.6996470329203118
8426171 -0.7141367747645957 0.699751731063895
8427880 -0.7135527462735689 0.6992393780978079
8429588 -0.7132836715165165 0.6997741655825093
8431297 -0.7127041134145736 0.700027740392342
8431297 -0.713280963593448 0.6998571148987828
8433040 -0.7131220749667635 0.7006022596300681
8434784 -0.7134089701573453 0.7009355464708855
8436528 -0.7129456024011303 0.7007371034003439
8438272 -0.7127396072371316 0.7007574395849326
8440016 -0.7116781481628446 0.7017246668046555
8441759 -0.7117840091981275 0.701338918078677
8443503 -0.7120884606615365 0.7009088760899884
8445247 -0.7118750863553108 0.70109546830329
8446991 -0.7121433748585184 0.7006075881178138
8448735 -0.7123905522058719 0.7006860043396723
8450479 -0.7117727179328003 0.7009695797898297
8452222 -0.7116903217900049 0.7009113937344269
8453966 -0.7114153292046141 0.7006904362475563
8455710 -0.7112637835385353 0.7014395074508545
8457454 -0.7113516823131746 0.7014641650942834
8459198 -0.7110599521002542 0.7018270937369422
8460941 -0.7115987438365431 0.7014968806075869
8462685 -0.7114519989058048 0.7013762328473493
8464429 -0.7110634690255279 0.7016089398016473
8466173 -0.7096891009158053 0.7017491341609888
8467917 -0.7102921406092859 0.7023971279314174
8469661 -0.7092222376845795 0.7025233976534798
8471404 -0.7098127604070882 0.7025031570314704
8473148 -0.7100212669629861 0.7022768984555514
8474892 -0.7105895808204876 0.7021080590116663
8476636 -0.7098363677731552 0.7020681605532243
8478380 -0.7097508086521327 0.7031196118755675
8480123 -0.7094505942349174 0.7023957380730653
8481867 -0.7097778282000007 0.7031581391342846
8483611 -0.7091433734494533 0.7031602623870972
8485355 -0.708428675638856 0.7037534135746027
8487099 -0.7090444867904253 0.703809491847411
8488843 -0.7089119261045272 0.7037171272123703
8490586 -0.7088738715437254 0.7040561017019495
8492330 -0.7074560271025373 0.704411933782552
8494074 -0.70847247233814 0.7040478614658736
8495818 -0.7079982623069625 0.7039828760926377
8497562 -0.7085253827922106 0.7038865588527916
8499305 -0.708828152321582 0.7037291120888759
8501049 -0.7093892342200437 0.7040778043172229
8502793 -0.7083704377716836 0.7037417505215704
8504537 -0.7081393994425701 0.7044189854905615
8506281 -0.7072070378200054 0.7046679182314209
8508025 -0.7073344313228566 0.7054651345500158
8509768 -0.7070678955949481 0.7059233089556954
8511512 -0.70688798400682 0.7064416991732394
8513256 -0.707763392300843 0.7058664067199228
8515000 -0.7075271956660586 0.7061809024741158
8516744 -0.707762434083802 0.7056005816189284
8518488 -0.7065333159052394 0.7059242808408001
8520231 -0.7069635937342811 0.7058636359040478
8521975 -0.706930773937697 0.7055304750073623
8523719 -0.7079464787856827 0.7054080197395645
8525463 -0.7070892577298451 0.7051208521843856
8527207 -0.7071506402437114 0.7059146904992724
8528950 -0.7064854918645967 0.7065535445519611
8530694 -0.7061037533154152 0.7067870763932607
8532438 -0.7061579865411554 0.7066448055784955
8534182 -0.7060577876444512 0.706736892934318
8535926 -0.7057895063667508 0.7071302588835828
8537670 -0.7056866847231738 0.7066690037484249
8539413 -0.7045958364294642 0.7070243373655845
8541157 -0.7048594577761544 0.7067482274396428
8542901 -0.7051282888001029 0.7066052770640636
8544645 -0.7052085279141684 0.706707049219922
8546389 -0.7057181100359616 0.7069152073607045
8548132 -0.7054426213628204 0.7071624532580022
8549876 -0.7052323010486528 0.7077170494544649
8551620 -0.7056867725583017 0.7074603005850121
8553364 -0.7046956699912903 0.7082273944987794
8555108 -0.7047197940698391 0.7075515776579505
8556852 -0.7045272443156099 0.707991353084434
8558595 -0.7046253825431275 0.707419255508208
8560339 -0.7043045406887345 0.7078261223014296
8562083 -0.704647827731232 0.7082016538873481
8563827 -0.7038260208279652 0.7084914924572367
8565571 -0.7042046256422654 0.7087584393542532
8567314 -0.7029304693471814 0.7097111082535351
8569058 -0.7033536930558071 0.7097865431266683
8570802 -0.7028353847009071 0.7098436401779099
8572546 -0.7033873099642652 0.7093941343178639
8574290 -0.703717740453363 0.7091065095896173
8576034 -0.7036196835325692 0.7091674464262585
8577777 -0.703352377654975 0.7087711592122198
8579521 -0.703433362025834 0.7094641376922536
8581265 -0.7029266923401889 0.7091536309703493
8583009 -0.7031797990866534 0.7103141440061165
8584753 -0.7035461415201021 0.7094284758805591
8586496 -0.7030246318107777 0.7097454595662902
8588240 -0.7030193093087327 0.7103709358763887
8589984 -0.7028721607705795 0.7098761013946809
8591728 -0.7020809779305012 0.7100576537923732
8593472 -0.700791832270527 0.7105395049919919
8595216 -0.7013242519276418 0.7109691335368211
8596959 -0.7007274418855445 0.7112525996427623
8598703 -0.7008735535863443 0.7108116705543973
8600447 -0.7015420681052145 0.7106305057208782
8602191 -0.7022861950020057 0.7114727989974099
8603935 -0.7026047526782196 0.7114433633789877
8605679 -0.7015430711088301 0.7118942010372096
8605679 -0.7017904049914899 0.7111294285367907
8607458 -0.7017947285791101 0.7105744890938944
8609238 -0.7009651472408014 0.7103236647299356
8611018 -0.7017362817741803 0.710528934263525
8612798 -0.7003633646922688 0.7105851249417138
8614578 -0.7004675794590697 0.7110054332573238
8616358 -0.6996479160620664 0.7121216224163512
8618138 -0.7001037076981056 0.7121664283470203
8619918 -0.699779547153696 0.7122018036088579
8621697 -0.6996434929974236 0.7132622469866364
8623477 -0.6983096774725742 0.7130459437765173
8625257 -0.6980974631358791 0.7124256331967607
8627037 -0.6979421743223587 0.7127509183607519
8628817 -0.6992252744040864 0.7123515314843888
8630597 -0.6994155761107832 0.7124977043127128
8632377 -0.7002502582096614 0.7118544863694295
8634157 -0.7001416117738857 0.7119194432095107
8635936 -0.7001228650210085 0.7125090264064282
8637716 -0.6993159120598892 0.712250418955393
8639496 -0.6996288402046439 0.7128990347886205
8641276 -0.6991498377270685 0.712684414057316
8643056 -0.6994069329649326 0.7138107873514945
8644836 -0.6983896019275944 0.7137919425972261
8646616 -0.6976824790284231 0.7138686791901852
8648396 -0.6972657637311482 0.713938491681909
8650176 -0.6970775844571079 0.7149475295886035
8651955 -0.6972496552690884 0.7146482173937261
8653735 -0.6969811949678778 0.714622691770134
8655515 -0.6971505736856055 0.7144554643406364
8657295 -0.6975698757185419 0.7144858669750785
8659075 -0.6981991242719832 0.7142908300734686
8660855 -0.698077141616246 0.7138786803257432
8662635 -0.6983434275046716 0.7141994169621969
8664415 -0.6978350941670874 0.7146892911793348
8666194 -0.6977765667489711 0.7142239796768832
8667974 -0.697130280240278 0.715324731684917
8669754 -0.6969927193572192 0.7152246474820381
8671534 -0.6962455385122803 0.7152078905279899
8673314 -0.6964686009924618 0.7154561807310861
8675094 -0.6958221663026772 0.7164074646120119
8676874 -0.6956447185099747 0.7167980427281148
8678654 -0.695021855940928 0.7160135209829435
8680433 -0.6956361491209294 0.7157552715453355
8682213 -0.6955063887323671 0.7156989561723087
8683993 -0.6956531597347143 0.7155277399181487
8685773 -0.6954960403145349 0.7162873282378504
8687553 -0.6953939475909416 0.7171749053894062
8689333 -0.6961108404180606 0.7164841769840748
8691113 -0.6949213896113824 0.7163181885347877
8692893 -0.6957980852043771 0.7158864468628912
8694673 -0.6953223499753636 0.7161465600318251
8696452 -0.6956338826235859 0.7162638639148943
8698232 -0.6943463350554584 0.7164640957945452
8700012 -0.6941429838134494 0.716889593226466
8701792 -0.6931416803204122 0.7181840913974529
8703572 -0.6939441726135482 0.7178656946933458
8705352 -0.6935025843607435 0.7185413467266554
8707132 -0.6939105705494565 0.717585687876874
8708912 -0.69345388321936 0.7173574703655835
8710691 -0.6944915252273621 0.7169371132683723
8712471 -0.694712876858227 0.7173197111960361
8714251 -0.6950715967979068 0.7174931546145643
8716031 -0.694771079942492 0.7174872082491323
8717811 -0.694375863887223 0.7176946584289949
8719591 -0.6939383632896595 0.71762122212832
8721371 -0.6935449480072137 0.7186213312730383
8723151 -0.6933413553053844 0.7185714568240761
8724930 -0.693121883062244 0.7187766859911219
8726710 -0.6933213369928161 0.7184082935337931
8728490 -0.6930834038632829 0.7185720203212403
8730270 -0.6930446389211151 0.7186816929751516
8732050 -0.6929990758109859 0.7188790202773766
8733830 -0.6928029191722799 0.7186716335930141
8735610 -0.6920499104906733 0.7187999136454337
8737390 -0.6918779148847626 0.7194568230488312
8739170 -0.6915560082815656 0.7198126280907476
8740949 -0.6920525007216415 0.7202864128588311
8742729 -0.6921514244093201 0.7199258793333159
8744509 -0.6923319357628999 0.7197032939823054
8746289 -0.691817818989941 0.7195006409977699
8748069 -0.6926445917146078 0.7193556174653112
8749849 -0.6919754003106532 0.7195801355431933
8751629 -0.691718280294431 0.7191522434569951
8753409 -0.6913471178582771 0.7191066383908367
8755188 -0.6910692140548181 0.7198692378793984
8756968 -0.6900380812472025 0.7203220826276387
8758748 -0.6899300874192683 0.7213018127707497
8760528 -0.6900147037666094 0.7215736868743117
8762308 -0.6899890574493835 0.7213484853350851
8764088 -0.6901472637727458 0.7206058767635053
8765868 -0.6898213791165851 0.7213627027999969
8767648 -0.6903511669259025 0.7207842145890084
8769427 -0.6908144966175038 0.7206381181814218
8771207 -0.6905369151113153 0.7207995370711006
8772987 -0.6903649127587971 0.7209081758624248
8774767 -0.6904606626424552 0.721238959951623
8776547 -0.6891949579281705 0.7215702859617631
8778327 -0.6892593648480927 0.7217785737993633
8780107 -0.6893299925339552 0.7216089505350539
8781887 -0.6893064878795004 0.7220257905165138
8783667 -0.6886876011570207 0.7217981193542926
8783667 -0.6889393097131056 0.7221381372885141
8785483 -0.6885918413535685 0.7228338780558263
8787300 -0.6881688251586433 0.723277722683221
8789117 -0.6881205944583206 0.7230485454751369
8790933 -0.6882856774274998 0.7239038906030044
8792750 -0.6883605044135236 0.7231105032557092
8794567 -0.6879279156746151 0.7236912515329433
8796383 -0.6881557940997391 0.7233098538918241
8798200 -0.6883715998454195 0.7230419089063586
8800017 -0.6885125169434574 0.7220123759920587
8801834 -0.6889142081733898 0.7223381443259935
8803650 -0.6888875695125294 0.7230215748380359
8805467 -0.6883292309512189 0.7231545700834794
8807284 -0.6881773629107296 0.7226660424621058
8809100 -0.6879837455881184 0.7233218706421026
8810917 -0.6870164642554594 0.7234322973582356
8812734 -0.686679397176114 0.7244687946941948
8814550 -0.6865771600120979 0.7242999727135366
8816367 -0.6866877681791397 0.7246387615736594
8818184 -0.6863931710674311 0.723991810268649
8820001 -0.6862127275226646 0.7251316042332188
8821817 -0.6863422943692763 0.7248657777186762
8823634 -0.686536679188809 0.7252335228968656
8825451 -0.6862037266333386 0.725124254664507
8827267 -0.6847363758562479 0.7252425854116595
8829084 -0.6852356695166549 0.7249568014455725
8830901 -0.6849711821413794 0.7249239636556275
8832717 -0.6859234008420457 0.7248775482981366
8834534 -0.6864134558675927 0.7246669911181409
8836351 -0.6870771099731249 0.7241008824499418
8838168 -0.6862146755226013 0.7248258438123372
8839984 -0.6862646327785603 0.7248388053827373
8841801 -0.6856768758580943 0.7257523961103424
8843618 -0.6853823831383596 0.7261831301582663
8845434 -0.6849497647989257 0.7263384232455792
8847251 -0.6843875421346749 0.72615499215443
8849068 -0.6841628596628333 0.7262519447414333
8850884 -0.6847114433678476 0.7263697972530198
8852701 -0.6841564271381448 0.7261424882137856
8854518 -0.6840384050100489 0.7261956739370965
8856335 -0.6837722192612339 0.7263621963233797
8858151 -0.6838905117627886 0.7262058662563216
8859968 -0.6834945283464106 0.7259866211122468
8861785 -0.6841136015510769 0.7256353474157866
8863601 -0.6837195796205802 0.7262473420190065
8865418 -0.6841717038341177 0.7258346921659116
8867235 -0.6835946787000833 0.7262252435406573
8869051 -0.6838892649286046 0.7264265844871461
8870868 -0.6838205363822123 0.7264404924900297
8872685 -0.6841264880822381 0.7269685362265511
8874502 -0.6836815093525694 0.7275867277533421
8876318 -0.6826584761502489 0.7272314277526377
8878135 -0.6827085459985117 0.7273779356906551
8879952 -0.682239921938177 0.7270053173589539
8881768 -0.6825561791246654 0.7268396945403861
8883585 -0.6824823013455255 0.727759809816825
8885402 -0.6828169544280966 0.7279524989958108
8887218 -0.6822516701537028 0.7288030539641986
8889035 -0.6823208648205621 0.7278951923105906
8890852 -0.6817801786842141 0.7289321746189196
8892669 -0.6821972092947952 0.7284244463412924
8894485 -0.6814838678293583 0.7293007157529382
8896302 -0.6809705364192387 0.7293938109757356
8898119 -0.6800753962728836 0.7299123914655125
8899935 -0.6804155951258734 0.7295577760301477
8901752 -0.6805067009633184 0.7287783134984036
8903569 -0.6813303572377534 0.7289287393117286
8905385 -0.681279857434606 0.7284488495497751
8907202 -0.6811987286244825 0.7288635114724846
8909019 -0.6800036566122963 0.7289402899623513
8910836 -0.6810131685312629 0.7282141994185574
8912652 -0.6802069925305929 0.7291514878083389
8914469 -0.6802040516682117 0.7297171492469576
8916286 -0.6798852659426599 0.72993995364332
8918102 -0.6793712734611784 0.7307275979009888
8919919 -0.6796856973957046 0.7306859553837216
8921736 -0.679537713502485 0.7306602822904699
8923552 -0.6797655761739496 0.7301877656351736
8925369 -0.6795965026979801 0.730479479011646
8927186 -0.6785234961206005 0.7303961301547065
8929003 -0.6788260524949893 0.7305162239996118
8930819 -0.6781781951450111 0.730472523730292
8932636 -0.6793251024834212 0.7307920178159794
8934453 -0.6791935420817966 0.7310068304906174
8936269 -0.6793462103252608 0.731295585808521
8938086 -0.679499263865187 0.7303476194077119
8939903 -0.6796023766045994 0.7309781368406796
8941719 -0.6796448971082134 0.7305315579693025
8943536 -0.6796473398580961 0.7313152943819744
8945353 -0.6791337810974484 0.7314868418928959
8947170 -0.6785237353806536 0.7322912813753042
8948986 -0.6779832257078875 0.7325094576591158
8950803 -0.6777279018832688 0.7325363013037066
8952620 -0.6775210587752197 0.7323816595006875
8954436 -0.6772475949527399 0.7328334751141541
8956253 -0.6775975045718854 0.7325655335779101
8958070 -0.6777282723172691 0.73255371274674
8959886 -0.6770021502676852 0.7323862313864281
8961703 -0.6767865838562946 0.7327904332570431
8963520 -0.6768091478700239 0.7328804846695584
8965337 -0.6768196233215946 0.733085933309221
8965337 -0.6760528085550037 0.7333018671118955
8967191 -0.6761981599393667 0.7338535563926991
8969045 -0.676106578488376 0.7337076059528814
8970899 -0.67616617867308 0.73365045127111
8972754 -0.6756738011753066 0.7336377513181405
8974608 -0.6763425614750957 0.7341518712064858
8976462 -0.6756338459626264 0.7335914131200417
8978316 -0.675574207312255 0.7338021017942477
8980171 -0.6754779165708872 0.7334608455871551
8982025 -0.6756409581384869 0.7336357509819283
8983879 -0.675233994250108 0.7337799435321452
8985734 -0.6753015397081232 0.7346611693475414
8987588 -0.675083166274444 0.7342757501517123
8989442 -0.675282323758179 0.7347422341479016
8991296 -0.674834961223234 0.7351251209255588
8993151 -0.6744009071219694 0.734843410043106
8995005 -0.6740726793990701 0.734762625102513
8996859 -0.6739549172943331 0.7342514195251907
8998714 -0.6736843662110252 0.7341624199328382
9000568 -0.67414269452429 0.7342366984363654
9002422 -0.6742590657845964 0.7345644443212258
9004276 -0.6748064165066047 0.7351381144374836
9006131 -0.6743911506492836 0.734770219402542
9007985 -0.6746944393368388 0.7348415816590091
9009839 -0.674276214779291 0.7353122632395536
9011694 -0.6741974816479386 0.7357235840404
9013548 -0.6738559564207219 0.7353058065716408
9015402 -0.6738195523304634 0.7357313653781329
9017256 -0.6732867896055261 0.7352778785368399
9019111 -0.6733083810824683 0.7359231380597506
9020965 -0.6734284569100146 0.7355286523214588
9022819 -0.673885784056145 0.7356036783662309
9024673 -0.6737594815061615 0.7360876187775306
9026528 -0.6737088548640371 0.7368614174728715
9028382 -0.6734570024940211 0.7368914165027147
9030236 -0.6730322294259165 0.7369594083359806
9032091 -0.6726011362778115 0.7364344846023864
9033945 -0.6726267372803123 0.7363521567300335
9035799 -0.6718663121569661 0.7361298419424845
9037653 -0.6724290374850127 0.7365927211002495
9039508 -0.67239495252842 0.736899354939429
9041362 -0.6728482412015753 0.7370204412324739
9043216 -0.671679206671743 0.7370811908806215
9045071 -0.6712972174306449 0.7372908241912252
9046925 -0.6707145939530659 0.7375745023722955
9048779 -0.6707974426041656 0.7369174152286515
9050633 -0.6710123366034573 0.7372759178286
9052488 -0.6710482261805569 0.7369634049531407
9054342 -0.6709448853471205 0.7375883902611525
9056196 -0.6711362504676736 0.7376534552008944
9058051 -0.670857134731804 0.7383591520095434
9059905 -0.6708281448864017 0.7383052546885575
9061759 -0.6710791357816591 0.7383287388048162
9063613 -0.6704755276144848 0.7388546185099152
9065468 -0.670580913939628 0.7390477660201865
9067322 -0.6698902669592103 0.7388901435597186
9069176 -0.6693400613782796 0.7390645059929486
9071030 -0.6693085600852663 0.7392558595100256
9072885 -0.669522637048414 0.739584684754584
9074739 -0.6687570658934159 0.7390538171591112
9076593 -0.669215364628576 0.7394142662599675
9078448 -0.6689764262926827 0.7395579794961777
9080302 -0.6688143456570955 0.7392497983470406
9082156 -0.6684905289785436 0.7396842481815761
9084010 -0.6683525084024806 0.7396821414515378
9085865 -0.6676304743461162 0.7399744167646515
9087719 -0.6681425707858754 0.74006884412992
9089573 -0.6675063329687055 0.7396798748560611
9091428 -0.6677767821715648 0.7402101726124554
9093282 -0.6674644769237359 0.7399686484604292
9095136 -0.6676623012926107 0.7406007771303346
9096990 -0.6675129739616521 0.7411226859758933
9098845 -0.6677994656995234 0.7408663458310187
9100699 -0.6674970891409104 0.7409678573367678
9102553 -0.6681084841946431 0.741385776497621
9104408 -0.6675287051421614 0.740700295802294
9106262 -0.6671858758671244 0.7407518118670492
9108116 -0.6666246970438422 0.7403116658258421
9109970 -0.6668990693907773 0.7405541894093056
9111825 -0.6666912843057945 0.7409607366381551
9113679 -0.6669839220919198 0.7416254807797886
9115533 -0.6664568563577291 0.7417551911775342
9117387 -0.6667548453898063 0.7418059020944575
9119242 -0.666510661517364 0.742165581054011
9121096 -0.6671117697468113 0.7424366126847128
9122950 -0.666207358795084 0.7420992805319488
9124805 -0.6661624852867337 0.741888226713706
9126659 -0.6660498859333597 0.7419481712356083
9128513 -0.6662157351648117 0.7420663643406281
9130367 -0.6658918823655523 0.7419473927747618
9132222 -0.6659658003781133 0.7426644655956481
9134076 -0.6654933654026269 0.7426476421595763
9135930 -0.6653158491754066 0.7428338703712754
9137785 -0.6653692813263905 0.7426814124529476
9139639 -0.6655522286020435 0.7427724862399699
9141493 -0.6657010573477186 0.7428742188904678
9143347 -0.6655067729908057 0.7430584221552214
9145202 -0.6652036024572797 0.742920682465419
9147056 -0.6654613782368725 0.742994708563278
9148910 -0.6651128477582763 0.7436844073239756
9150765 -0.6654150324002689 0.7435551828444632
9150765 -0.6641745886687968 0.7431718785360718
9152657 -0.6642279844410285 0.7432420308418751
9154550 -0.6638712789609383 0.7438530028184456
9156442 -0.6631247848022654 0.7438287517226067
9158335 -0.6632110612595804 0.7440783804244495
9160228 -0.6630427747819562 0.7442756933351335
9162120 -0.6636097655582667 0.744472504341725
9164013 -0.6629935514518942 0.7442325571275379
9165905 -0.663766362023348 0.7445337464695195
9167798 -0.663421364485603 0.7448947056814144
9169691 -0.6631912080450745 0.745241100998952
9171583 -0.6626388738114806 0.7449554238227517
9173476 -0.6629114681852133 0.7452829840048166
9175369 -0.6626995022084 0.7449206390318323
9177261 -0.6624595876009187 0.7444914728930546
9179154 -0.6624329905837303 0.7447049939799016
9181046 -0.6625098939815568 0.744856763656359
9182939 -0.6620972631674287 0.7453641183137621
9184832 -0.6626989367799603 0.7453713410498092
9186724 -0.6620666656845521 0.7452864890941769
9188617 -0.6623554315687772 0.7452519298255468
9190510 -0.6619170831911199 0.7456243545786246
9192402 -0.6621489232386499 0.7457271263149675
9194295 -0.6617115076908637 0.7455163082753316
9196187 -0.6619590137025222 0.7455383792086068
9198080 -0.6618675887876888 0.7453860545026515
9199973 -0.6614008391138413 0.7458363794144831
9201865 -0.6613916359358403 0.7462147462814256
9203758 -0.6614137375766499 0.7459985746904715
9205650 -0.6607393902686884 0.7468875842117946
9207543 -0.661258938536524 0.7469053421346109
9209436 -0.661184045451918 0.7468284501378558
9211328 -0.6606384373089564 0.7462625180950749
9213221 -0.6595310148043716 0.746957830387426
9215114 -0.6590527360423482 0.7467744719558198
9217006 -0.6586021128651245 0.7469712323777179
9218899 -0.6588867547487163 0.7472115711082014
9220791 -0.6590627899250178 0.7483727592521767
9222684 -0.6589603566638579 0.7477227770483105
9224577 -0.6588080052702419 0.7475271998412064
9226469 -0.6589416962405281 0.7472099698392379
9228362 -0.6590973911151983 0.7476087131089449
9230255 -0.6585853278174393 0.7479646795363493
9232147 -0.6582274746938815 0.7484787268044413
9234040 -0.6582405903267662 0.7485997516227251
9235932 -0.6580011479305431 0.7489380806494254
9237825 -0.6581703264592342 0.7487428505301926
9239718 -0.6579119071000118 0.7490057169770811
9241610 -0.6580241509168967 0.7489079817895725
9243503 -0.6582735264192351 0.7489114761962167
9245396 -0.6585945431268216 0.7489726945007349
9247288 -0.6583853894841609 0.7489633957090203
9249181 -0.6580928165673452 0.749387168665933
9251073 -0.6578181065055106 0.7495128224148236
9252966 -0.6577450812803187 0.7492762132353649
9254859 -0.6569051046943651 0.7492960154416715
9256751 -0.6563217231975665 0.7496186466546105
9258644 -0.6560762037607623 0.7496110726343387
9260536 -0.6561266423235496 0.749332623637566
9262429 -0.656597150988468 0.7496001974974237
9264322 -0.6567810810783151 0.7494568085145015
9266214 -0.6569537700409709 0.7494948579565898
9268107 -0.656378919606168 0.7502185606208222
9270000 -0.6571916089908897 0.7503061593456734
9271892 -0.6564711775813977 0.7502301338785012
9273785 -0.6565086460017691 0.7505142732908207
9275677 -0.6563965471349479 0.7503107423260291
9277570 -0.6562629453184043 0.7502500000892227
9279463 -0.6558093888971157 0.7505336569574059
9281355 -0.6559551627789287 0.7505413665069063
9283248 -0.6562087609972628 0.7507007019068567
9285141 -0.6559060400086832 0.7507668905120306
9287033 -0.655133813199685 0.7508881270777464
9288926 -0.6549806786644853 0.7515014650823518
9290818 -0.6547634200911717 0.7513892785906033
9292711 -0.6543892577938001 0.751872459609372
9294604 -0.6546337434244761 0.7520198689226782
9296496 -0.6545114230447205 0.7515725565725309
9298389 -0.6545985260937798 0.7515667247834432
9300281 -0.6539257564302616 0.7511087731227284
9302174 -0.653814675444932 0.7512599740287945
9304067 -0.6538603685304225 0.751619788815139
9305959 -0.6531363170464185 0.7522178613322709
9307852 -0.6532045559098159 0.75209685017313
9309745 -0.6528584083469945 0.7523632357385256
9311637 -0.6533255381318473 0.7527613340242972
9313530 -0.6532877839051631 0.7528994294462868
9315422 -0.653316667230347 0.7528456943770347
9317315 -0.6533709125041747 0.7526237962309137
9319208 -0.6530922089644176 0.7522831724596584
9321100 -0.6528503276034087 0.7528166990184438
9322993 -0.6521801657249604 0.7531430350803957
9324886 -0.6512631442352564 0.7536993640706077
9326778 -0.6512018907855662 0.7540980678975259
9328671 -0.6517116881434014 0.7544164596322848
9330563 -0.6518519981907513 0.754024998867721
9332456 -0.6522344111610197 0.7533967050525753
9334349 -0.651967384370882 0.7530347178422129
9336241 -0.6517405958311021 0.7532045605118391
9338134 -0.6516727106852274 0.7535283039008374
9340027 -0.6510051451411086 0.7537463918657002
9340027 -0.6511166301418831 0.7537674078620252
9341958 -0.6517999004565916 0.754386901121565
9343890 -0.6510438784934185 0.754594315869086
9345822 -0.6512869961549103 0.7560903717360349
9347754 -0.6504882333632581 0.7549609511016215
9349685 -0.6507109315223812 0.754314617864898
9351617 -0.6506788195272776 0.753928392511464
9353549 -0.6508176398737258 0.7543734193623646
9355481 -0.6506747462461945 0.7545108582780948
9357412 -0.6502562070402887 0.7548458263453132
9359344 -0.6501506024069251 0.7550773826219735
9361276 -0.6504977149719955 0.7555855210960571
9363208 -0.6497661216096223 0.755637006134238
9365140 -0.6500274146939775 0.7556200449031903
9367071 -0.6503586656741817 0.755298844118236
9369003 -0.6498336336242632 0.755231918548834
9370935 -0.6494249912907115 0.7552008284144991
9372867 -0.6495436751271516 0.7550166115203644
9374798 -0.6490915569029838 0.7560793085563405
9376730 -0.6487706018248269 0.7566750566253466
9378662 -0.6487298339959455 0.7563724486074589
9380594 -0.6485311748387282 0.7555751083492029
9382525 -0.6485636029920022 0.7560859969612393
9384457 -0.6492017572221918 0.7561442507404743
9386389 -0.6490523836050853 0.7566163359361052
9388321 -0.648399112730562 0.7566021291820618
9390253 -0.6483881344146055 0.7572532419366471
9392184 -0.6481659501054308 0.757131418272499
9394116 -0.6482811244111252 0.7580490169261599
9396048 -0.6479320535887485 0.7576132717681527
9397980 -0.6473046109430738 0.7577817394632728
9399911 -0.6472762251286921 0.7576103842536588
9401843 -0.646536657803778 0.7576242342719074
9403775 -0.64654060464843 0.7572314207455395
9405707 -0.6470342162624559 0.7576412787882949
9407638 -0.6472466450794575 0.757645286819029
9409570 -0.6471371338950949 0.7578050493720797
9411502 -0.6469593133741521 0.7581165869401932
9413434 -0.647172692439116 0.7588006481796444
9415366 -0.6468372578065235 0.758809147340454
9417297 -0.6466215830712363 0.7587171332700691
9419229 -0.6461529768941894 0.7585263898152923
9421161 -0.6461804387556699 0.7588821160492698
9423093 -0.6456440094753974 0.7590208747212607
9425024 -0.6462277104421531 0.7585423072459769
9426956 -0.6456183078890669 0.7587346399390253
9428888 -0.6454430664629818 0.7586762530133518
9430820 -0.6457716572178918 0.7594599050191069
9432751 -0.6452511842245361 0.7596610200780318
9434683 -0.6453538404004758 0.7601025689318505
9436615 -0.6450610940939651 0.7600672931917468
9438547 -0.6451873256654111 0.7598608669715641
9440479 -0.6445251986680849 0.7602364213742503
9442410 -0.6444765527236791 0.760589766461847
9444342 -0.644581485933083 0.7606965754722085
9446274 -0.6449980712753092 0.7606959278352197
9448206 -0.6439142782431404 0.7602260973009921
9450137 -0.6438353829516777 0.760077692065612
9452069 -0.6437409925381427 0.7598410110850989
9454001 -0.6438174357967728 0.759848979472041
9455933 -0.6438303246624835 0.7595987141458359
9457864 -0.6438693082574692 0.7593495042122125
9459796 -0.6436247041395188 0.7597607091310071
9461728 -0.6433102718982038 0.7597409148230871
9463660 -0.6432199699854569 0.7604674271409049
9465592 -0.642974997557908 0.7605988672086648
9467523 -0.6430442574224512 0.7608319751897684
9469455 -0.6431169305025678 0.7609607087949792
9471387 -0.6425835243426425 0.7616251962069187
9473319 -0.6429969625941884 0.7615378537167545
9475250 -0.6424785619455532 0.7623443203043122
9477182 -0.6419222310866137 0.7620543059232998
9479114 -0.6416977577758548 0.7622169822276075
9481046 -0.6414149391184714 0.7616578429555833
9482977 -0.6419245135624415 0.7620644711925398
9484909 -0.6417584030243261 0.7616490782441928
9486841 -0.641703611719287 0.762111274392858
9488773 -0.6417078777020633 0.7618319081756425
9490705 -0.6416269199583498 0.7619814480267257
9492636 -0.641183745725457 0.7620663468030222
9494568 -0.6412605992021122 0.7622673693723592
9496500 -0.6409863104342378 0.7618290163870648
9498432 -0.6414497079855364 0.7617882610055187
9500363 -0.6406291016781808 0.7617247041802759
9502295 -0.6410382567682645 0.7628346890881244
9504227 -0.6405294605572017 0.7626639395719348
9506159 -0.6407337061333239 0.7631406875912594
9508090 -0.6404831174088987 0.7627121735841209
9510022 -0.6402538598183375 0.7628239921444359
9511954 -0.6398055772635848 0.763227224107519
9513886 -0.6397889947712547 0.7632897407719546
9515818 -0.6396156726772051 0.7634696006144579
9517749 -0.639764341322247 0.763449425238303
9519681 -0.6392574300716661 0.7640270623501568
9521613 -0.6391107217571008 0.7641261896560771
9523545 -0.6390349719514271 0.7642415273738877
9525476 -0.6390184170404466 0.7646287880668607
9527408 -0.6392884701953575 0.7647285341697174
9529340 -0.6390384975606394 0.7645388127121558
9531272 -0.6392182999479238 0.7651653998073055
9533204 -0.6387292816681535 0.7646924745916096
9533204 -0.6389469911701905 0.7646857964728152
9535175 -0.6380170266440209 0.7653238378101905
9537147 -0.6384411330083658 0.7648705422362272
9539119 -0.6377053615270621 0.765116860144469
9541090 -0.638093152897493 0.7646195115125618
9543062 -0.6379025027716975 0.7644379867334953
9545034 -0.6380881309569064 0.7643737765387763
9547006 -0.6380864329641969 0.7649496908170863
9548977 -0.6372178675047029 0.7651314698278855
9550949 -0.637284758217331 0.7652607862292709
9552921 -0.6370655132215679 0.7649928104873283
9554893 -0.6373349209235938 0.7652260615925273
9556864 -0.6374695535858409 0.7654605447352987
9558836 -0.637872811797653 0.7657683789672484
9560808 -0.6372904238907504 0.7656833404254864
9562779 -0.6366481287702378 0.7664445282322634
9564751 -0.6361160375800688 0.7663756745578942
9566723 -0.635865381952548 0.7668338602650673
9568695 -0.6357553180573602 0.7672111825964981
9570666 -0.6359659564396892 0.7668707242767423
9572638 -0.635700659245223 0.7674930097790049
9574610 -0.6350637629205488 0.7672856102269048
9576582 -0.6346747496478681 0.7677973300547087
9578553 -0.634827532685253 0.7672759958960994
9580525 -0.634812275260508 0.767004125473061
9582497 -0.6350814219187565 0.7666520189501438
9584468 -0.6355791577840255 0.7666226128978508
9586440 -0.634816077012235 0.7672114007420746
9588412 -0.6348837061065797 0.7672905690903813
9590384 -0.6342779195640605 0.768010911284635
9592355 -0.6342053574931333 0.7676239101362919
9594327 -0.634042088815312 0.7680092582912833
9596299 -0.6342188357980023 0.7676158505076822
9598271 -0.6341568290701268 0.7682103205223667
9600242 -0.6338826296056553 0.7683442685958557
9602214 -0.6336954240792857 0.7690130183616626
9604186 -0.6333288493695962 0.769316321278078
9606158 -0.6331304592789095 0.7694159990116427
9608129 -0.6330958351564131 0.7692380562797144
9610101 -0.6335647120217535 0.7688493923239778
9612073 -0.6331595811169446 0.7688439766458695
9614044 -0.6332318577828681 0.7689853287687167
9616016 -0.6323084142266318 0.7690109833298321
9617988 -0.6324183362614693 0.7693217649965046
9619960 -0.6321774167501178 0.7694022894501615
9621931 -0.6326578241461988 0.7697943215909475
9623903 -0.632826816561265 0.7699486636743944
9625875 -0.6322504814800476 0.7696265148619394
9627847 -0.6323773662507982 0.7701615795117369
9629818 -0.6315958845974693 0.7702612714204314
9631790 -0.6317042396158732 0.7702012922005478
9633762 -0.6316083808660384 0.7700995279188106
9635733 -0.6306888589890811 0.7709387424609634
9637705 -0.6306521185800933 0.7705108561134791
9639677 -0.6305357221753941 0.770539996526922
9641649 -0.6311371539420494 0.770138822226713
9643620 -0.6312877284140203 0.7701857416204464
9645592 -0.6311862942131092 0.7699736349033911
9647564 -0.6307498084101217 0.7702419809345457
9649536 -0.6303536011563793 0.7705041437118066
9651507 -0.6301663898206441 0.7710357884138185
9653479 -0.6298087902113477 0.7709948178656862
9655451 -0.6296910246573092 0.7716073283092683
9657422 -0.6293655695748723 0.7717405906106694
9659394 -0.6298894324216048 0.7716422937776983
9661366 -0.6298427004051752 0.7710639316783218
9663338 -0.6302992123996126 0.7715330917932913
9665309 -0.6297363315683958 0.7713897455844703
9667281 -0.6300206168468561 0.77172979119419
9669253 -0.6297099374213475 0.7718092390303377
9671225 -0.6295739284851192 0.7719816432286797
9673196 -0.6291739180351867 0.7723578743616364
9675168 -0.6290873553893785 0.7726424355769255
9677140 -0.6288542455482568 0.7729800597801033
9679112 -0.6287893375270042 0.7726440981558601
9681083 -0.6280983274023916 0.7726682540161735
9683055 -0.6276138969468986 0.7723683649837684
9685027 -0.6275061425029412 0.7727015185039668
9686998 -0.6274975936634039 0.7726215551866817
9688970 -0.6272158538081576 0.7731454999354306
9690942 -0.6273645186381807 0.7726058392246344
9692914 -0.6274305524283155 0.7732295672043671
9694885 -0.6270941403985211 0.7735046642960853
9696857 -0.6266585693309398 0.7732272345712308
9698829 -0.6270489402859349 0.7737541370351458
9700801 -0.6270909448110388 0.773607213225227
9702772 -0.6265966907826672 0.7734549658817765
9704744 -0.6265093380367068 0.77402414131129
9706716 -0.6261610952732319 0.7741854852736922
9708687 -0.6256485796193537 0.7745986643846953
9710659 -0.6259665609891356 0.7744606712539462
9712631 -0.6260952011339853 0.7743383620776001
9714603 -0.6262634597131838 0.7747137577319546
9716574 -0.6263021548045171 0.7745919561314247
9718546 -0.6260118867467942 0.7741884367270563
9720518 -0.6258629247194891 0.7741786213469464
9722490 -0.6255906992156623 0.7750125791378712
9724461 -0.625139647118127 0.7749611964240589
9726433 -0.6255912386265351 0.775518368651893
9728405 -0.6244022043621059 0.7752980077181137
9730377 -0.6251159952393989 0.7751991398943837
9730377 -0.6246984036362468 0.775206577074351
9732389 -0.6248235363335723 0.7753143308845037
9734402 -0.6243340624250677 0.7757472092984702
9736414 -0.6243853586922685 0.7754535772840798
9738427 -0.6246340727103828 0.7746261209889679
9740439 -0.6245979327545552 0.774591756856429
9742452 -0.6242007989892915 0.7746643243463956
9744464 -0.6238417842406752 0.7750077354058403
9746477 -0.6237683754843174 0.775802332491293
9748489 -0.6239508397071417 0.775738042097934
9750502 -0.6240269904479793 0.7755837327170804
9752514 -0.6240077817810731 0.7765800569160756
9754527 -0.6238576975976186 0.7767224989574777
9756539 -0.6229781813095084 0.777273815558421
9758552 -0.622521887745498 0.778049591932007
9760564 -0.6223550156287128 0.7776520150853441
9762577 -0.6221546770425346 0.7778268724727456
9764589 -0.6224345549256645 0.7770880510026194
9766602 -0.6228079397082821 0.7770154151931343
9768614 -0.6220853936087422 0.7767926940859899
9770627 -0.6219739878764606 0.7773770541823778
9772639 -0.6219481919740848 0.7772437083666189
9774652 -0.6215153683430413 0.7775564171705412
9776664 -0.6217280034998848 0.7777321622185478
9778677 -0.6221878877719142 0.7773888103866302
9780689 -0.6217394399021404 0.7775003086099528
9782702 -0.6223552554707628 0.7772173984711805
9784714 -0.6221629761760662 0.7776629904713019
9786727 -0.6213552566289277 0.7777903617680196
9788739 -0.6210018317462715 0.7782677252458434
9790752 -0.6208099630157804 0.7776961696393188
9792764 -0.6209829021766812 0.7776383777589536
9794777 -0.6209923740638994 0.7775692394751199
9796789 -0.6207083951777667 0.7781931297080552
9798802 -0.6204226452433412 0.7786192803703623
9800814 -0.6203623540508634 0.7787196025289267
9802827 -0.6205116448958062 0.7791596812095793
9804839 -0.6206525391401573 0.7787552279123424
9806852 -0.6203701685841078 0.7784944386195518
9808864 -0.6201228592248264 0.7787254257996895
9810877 -0.6197836056806726 0.7792254220291751
9812889 -0.6197010149399471 0.7793253665641862
9814902 -0.6193669858378452 0.7797744277097103
9816914 -0.6197113143435543 0.7794255119995169
9818927 -0.6193921010699132 0.7795442345703214
9820939 -0.6191916199690132 0.7798443869729492
9822952 -0.6184856893082421 0.7801438774568822
9824964 -0.617742949941371 0.7798848950504957
9826977 -0.6180868075100231 0.7807880982953359
9828989 -0.6182835770323979 0.7805251041649782
9831002 -0.6176227375750565 0.7813136104641659
9833014 -0.618530327346846 0.7803404207925859
9835027 -0.6177023958607485 0.7810789939733537
9837039 -0.617443556966443 0.7808316336189023
9839052 -0.616945361678439 0.7812675373058988
9841064 -0.6173710599564525 0.781330742953577
9843077 -0.6168735119692008 0.7812283516022039
9845089 -0.6175749214354662 0.7812358915418232
9847102 -0.6174975514421135 0.7807682000744883
9849114 -0.6172114242323583 0.7807038832311041
9851127 -0.6165832126294996 0.7808146555743352
9853139 -0.6169482701785103 0.7809778109392304
9855152 -0.6164598701520146 0.7809754437839473
9857164 -0.6162127336511292 0.7813406322732795
9859177 -0.6165730905684004 0.781065201032112
9861189 -0.6161021912931719 0.7816434026252903
9863202 -0.6161550712916951 0.7817595434528215
9865214 -0.6156552902975508 0.7820496797146207
9867227 -0.6157779015767828 0.7824431598433917
9869239 -0.6157146681693281 0.7822961140124091
9871252 -0.6158959522350371 0.782210515181503
9873264 -0.6162814872311456 0.7824312452666728
9875277 -0.615881772824659 0.7821009250330231
9877289 -0.6150219859432124 0.7828758364632415
9879302 -0.6145963631119402 0.7834687608060559
9881314 -0.6138911053780586 0.7835154327318294
9883327 -0.6136775192910731 0.7829093161881732
9885339 -0.6142047558206947 0.7828474495788148
9887352 -0.6142625164586287 0.7831186358213498
9889364 -0.6141116140526857 0.7834505858925099
9891377 -0.6137251573729092 0.7844053338873432
9893389 -0.6134222467111496 0.7839273224218875
9895402 -0.613949265345803 0.7846231112181351
9897414 -0.6138169298747889 0.7837803878594495
9899427 -0.6137525331740339 0.7840993628180382
9901439 -0.6133130752934978 0.7836485279460871
9903452 -0.6128546711070203 0.7841867209304997
9905464 -0.6130439072882085 0.7845974375429341
9907477 -0.6135386163183641 0.7847291678179699
9909489 -0.6132515164770324 0.7846196274766162
9911502 -0.6132620739724554 0.7841503658597296
9913514 -0.61298289541628 0.7845076319608385
9915527 -0.6119955915922453 0.7845106626936922
9917539 -0.6119909703270182 0.7849449599297441
9919552 -0.6120128598536047 0.784894878309296
9921564 -0.6122771352936048 0.7851500970355523
9923577 -0.6122822734923984 0.7844688992234475
9925589 -0.6124659186823082 0.7848098048288593
9927602 -0.6113553246230039 0.7853722782693845
9929614 -0.611258710204382 0.7852440059940327
9931627 -0.6114042612056347 0.7852193957720056
9931627 -0.6114476653182015 0.7853503552249106
9933681 -0.611380730547089 0.7855245899084538
9935735 -0.6112219265070308 0.7856207136321512
9937789 -0.6105159023216963 0.786012774826346
9939843 -0.6102600746842098 0.7862571643247265
9941897 -0.6107160991242822 0.7863756998582525
9943951 -0.6107481921815678 0.7864562979359432
9946005 -0.6108110980898317 0.7864535941881828
9948060 -0.6095020548129205 0.7863109749287351
9950114 -0.6101109421232784 0.7868547006983427
9952168 -0.6099432711602021 0.7870656939041282
9954222 -0.6099729459981071 0.7866389760005872
9956276 -0.609713818646347 0.7865788931233777
9958330 -0.6089916169936925 0.7867164815434443
9960384 -0.6090439106153087 0.7870106733116733
9962438 -0.6090444262187871 0.7871952116942972
9964493 -0.6089680573728453 0.7870150666600831
9966547 -0.6086862323097189 0.787005717382219
9968601 -0.6082414590837061 0.7871012169092875
9970655 -0.6077732288041925 0.7876317544349289
9972709 -0.6079449228801996 0.7880343592566375
9974763 -0.6077898303793006 0.787658924731156
9976817 -0.6076933385410276 0.7874167161289813
9978871 -0.6073735220826946 0.7880635911688335
9980926 -0.607375586289032 0.7879880378738126
9982980 -0.6074182846538142 0.7883647559338678
9985034 -0.6074918070535461 0.787812498437072
9987088 -0.6080167911429231 0.7883257608456864
9989142 -0.607049268983531 0.7888991029425736
9991196 -0.6071005479166731 0.7887230619074197
9993250 -0.6063808359454734 0.7894369514094304
9995305 -0.6068422408540285 0.7892662447024942
9997359 -0.6062734298643139 0.7888235093593114
9999413 -0.6063233129757145 0.78977542295389
10001467 -0.6060023713384494 0.7896523017993576
10003521 -0.6059199836288086 0.7897780113082606
10005575 -0.6054581873304677 0.789501583450354
10007629 -0.6050690194605147 0.7894399913623092
10009683 -0.6050206593439508 0.7897932612488848
10011738 -0.6048055742848173 0.7897146793704442
10013792 -0.6051615590083673 0.7898826217224645
10015846 -0.6050016350933017 0.7898616111461079
10017900 -0.6053247948483731 0.789698434415909
10019954 -0.6046588109915736 0.7898896123585397
10022008 -0.6043831175042857 0.7900187623321692
10024062 -0.604441367962152 0.7904662423575233
10026116 -0.6043773488429561 0.7905527641443009
10028171 -0.604745367375724 0.790501852426486
10030225 -0.60378822903351 0.7906873535205002
10032279 -0.6040678832647711 0.7911994167588402
10034333 -0.6043460137393992 0.7907023662779394
10036387 -0.604159118607897 0.7910472129751508
10038441 -0.6037515369636925 0.7909125785401502
10040495 -0.6035267481749506 0.7911960745689568
10042550 -0.6038073769838684 0.7911787035570013
10044604 -0.6032614309010007 0.791269885977945
10046658 -0.6026284978443153 0.7915617524273252
10048712 -0.6031368155425697 0.7922235864442004
10050766 -0.6032066802705344 0.7920041257222591
10052820 -0.6032514330548332 0.7923415840407886
10054874 -0.6025081933780557 0.7924823237472883
10056928 -0.6022513815871567 0.7924564162399634
10058983 -0.6024713448035753 0.7922822742688468
10061037 -0.6028082064560414 0.7916976030980022
10063091 -0.6024634078834006 0.7922720819702725
10065145 -0.6017434889350861 0.791950085689884
10067199 -0.6022940544995756 0.7917417006522347
10069253 -0.6017609807969417 0.7912703919116548
10071307 -0.6014935016790042 0.7922946729583343
10073361 -0.6013136586986252 0.7920560747691217
10075416 -0.6016242779496422 0.7928367680253917
10077470 -0.6013083835331192 0.7931203257782058
10079524 -0.6006236684397895 0.7935053354969342
10081578 -0.6004763032688736 0.7929183610528711
10083632 -0.6005612110896229 0.7931824843440844
10085686 -0.6010968892718109 0.793720661221383
10087740 -0.601405888765625 0.7928958075145353
10089795 -0.6012044371204741 0.7934729517618586
10091849 -0.6004710119009148 0.7939235331088921
10093903 -0.6005437526717331 0.7941262758681096
10095957 -0.600144849005871 0.7938547538524098
10098011 -0.5992561904466022 0.7940963756512075
10100065 -0.5987401699149789 0.7942655165574718
10102119 -0.598854285653088 0.7940365082964634
10104173 -0.5985990415355944 0.7945302119023395
10106228 -0.5980301125777223 0.7940594464545638
10108282 -0.5983495073268641 0.794068396452035
10110336 -0.5982441258045216 0.7949499547207923
10112390 -0.5983596965799631 0.7949332039915193
10114444 -0.598590855251098 0.7946178642434023
10116498 -0.5985968632069449 0.7949138317838904
10118552 -0.5980606506123768 0.7951970120381913
10120606 -0.5981875505494584 0.7949847858275303
10122661 -0.5985331655852855 0.79503742868039
10124715 -0.5974244016565385 0.7943966739608875
10126769 -0.5976447810160538 0.795572383278926
10128823 -0.5978021652180286 0.7957809038659117
10130877 -0.5980134895843812 0.7959188816344386
10132931 -0.5974435271823842 0.7955248932962743
10134985 -0.5972367732049172 0.796830464700155
10137040 -0.5972772130109469 0.7965138938425527
10137040 -0.5965078139131927 0.7960401544410391
10139136 -0.5965536274586546 0.7959591779929108
10141233 -0.5968192496009508 0.796072720941358
10143329 -0.5963230083876782 0.7966534020996964
10145426 -0.59580112346752 0.7968424792722798
10147523 -0.5965877512064078 0.7966863759572038
10149619 -0.5965193878488656 0.7971477571207203
10151716 -0.5965064718504305 0.7968861329923308
10153812 -0.5958007965536367 0.7974003176260873
10155909 -0.5958554243278643 0.797207477668718
10158006 -0.5955950342551048 0.797311016720874
10160102 -0.5947780447464376 0.7969380205977993
10162199 -0.5944439430548475 0.7976489418776025
10164296 -0.594679442729192 0.7975369530840268
10166392 -0.5952271067419564 0.7981816676474309
10168489 -0.5947400569172065 0.7978121560527387
10170585 -0.5946613142511596 0.7979744015505973
10172682 -0.5946105674066581 0.7978427942852018
10174779 -0.5944643611375496 0.7980389509981533
10176875 -0.5943269437115455 0.7976722323432963
10178972 -0.5937837426692004 0.7975872549222079
10181069 -0.5941809106860998 0.7977822937868492
10183165 -0.5937570472970911 0.7979193772579216
10185262 -0.5937832138369096 0.7981922889419558
10187358 -0.5934734491171113 0.7980933119268074
10189455 -0.5939959637069941 0.7984041285436544
10191552 -0.5935396209653406 0.79895882310658
10193648 -0.5929704434160338 0.7987837383329703
10195745 -0.593062224566981 0.799404108222125
10197841 -0.5931421083650982 0.7987158389963469
10199938 -0.592791517728349 0.7991655575727525
10202035 -0.592794868287944 0.7982541495860743
10204131 -0.5925215911193937 0.7990775911385285
10206228 -0.592871051327994 0.7994317448787632
10208325 -0.5929263640146413 0.7999557896116763
10210421 -0.5924888984209203 0.8001921810588661
10212518 -0.5926583974618146 0.7999077449555937
10214614 -0.5922857592381131 0.7999432186879156
10216711 -0.5920627090109573 0.799466933719288
10218808 -0.5918879391686037 0.7998900019191516
10220904 -0.5918457139760007 0.8002390392917517
10223001 -0.5916888565686055 0.8006654534039509
10225098 -0.5917880241932285 0.8008538559499306
10227194 -0.5912943089323057 0.8010602684721467
10229291 -0.5911111119265982 0.8011701370158029
10231387 -0.591259756137486 0.8013757403918592
10233484 -0.5912591447004251 0.8010307491735619
10235581 -0.5909208854647278 0.8008833447916834
10237677 -0.5908728402105181 0.8013593040150712
10239774 -0.5906978353223284 0.8016644758185169
10241871 -0.589936375273188 0.8019340361115638
10243967 -0.5902465455757835 0.8024095323023888
10246064 -0.5898612794712558 0.8025506669016637
10248160 -0.5895727133278273 0.8025333400648155
10250257 -0.5892390737349706 0.8018932988251681
10252354 -0.5888866506628516 0.8022809441684938
10254450 -0.5889997754030009 0.8020908619957369
10256547 -0.5887502171858596 0.8015655495476851
10258643 -0.5881719107979826 0.8024062806447042
10260740 -0.5885270142461015 0.8024532460992988
10262837 -0.5884867974807246 0.8028140015260237
10264933 -0.5878094749337138 0.8022306414644841
10267030 -0.5875505372806088 0.8025920793646502
10269127 -0.5878784445902046 0.8025590593290585
10271223 -0.5878173671902509 0.8027183402346555
10273320 -0.5870274350330134 0.802027052482619
10275416 -0.5873114659167312 0.8024808945173304
10277513 -0.5878270995841387 0.803038797892107
10279610 -0.5879914520468664 0.8035010178468729
10281706 -0.5873636449718223 0.8033536534299536
10283803 -0.5869578663632758 0.8037762822749801
10285900 -0.5868556226424477 0.8031181983427939
10287996 -0.586695399435106 0.803229417775687
10290093 -0.5868398588544077 0.8028270992734439
10292189 -0.5863890901138864 0.80390213334567
10294286 -0.5866197052835281 0.8037952681023444
10296383 -0.5865199745152225 0.804022675101631
10298479 -0.5859899359432874 0.8041034895305044
10300576 -0.5858146969186506 0.8052246923510122
10302672 -0.5855883490060118 0.8048649534223243
10304769 -0.5854266717557092 0.8046713638836345
10306866 -0.5852393751623812 0.8042875446195162
10308962 -0.5848973036899806 0.8043383750920775
10311059 -0.5856038839734693 0.80434322121561
10313156 -0.5853706036839766 0.8051871163450454
10315252 -0.585531475301749 0.8053010812877648
10317349 -0.5852842627029771 0.8049793208385273
10319445 -0.5849305116931519 0.8050346820881705
10321542 -0.584602890046841 0.8053344455960729
10323639 -0.5840654910342146 0.8053275770546485
10325735 -0.5836415500789358 0.8050802870957035
10327832 -0.5839085613357897 0.805268402546575
10329929 -0.5838641934403207 0.8053320105642755
10332025 -0.5834731521854092 0.8054974919044123
10334122 -0.5835169934677443 0.8057028682659964
10336218 -0.5836702814227668 0.8060373416728606
10338315 -0.5837908469370722 0.8062081226246918
10340412 -0.583114072537662 0.8061550764128658
10342508 -0.5832924580150072 0.805347050834853
10344605 -0.5831865416621134 0.8055803641596433
10346702 -0.5831951589498681 0.8056653715236568
10346702 -0.5828269034254904 0.8054266481033332
10348841 -0.5830368843641403 0.8062704487197777
10350981 -0.5826547556328224 0.8063980934554422
10353121 -0.5825014457384051 0.8069594592943251
10355261 -0.5823600640746618 0.8068754334471389
10357401 -0.5822237274152934 0.807129898436913
10359541 -0.5825156979273622 0.8079389755715324
10361681 -0.5825532005196142 0.8070776456409644
10363821 -0.5823964128883548 0.8074798392773481
10365961 -0.5822767051592017 0.8069731586979942
10368101 -0.5817361515897428 0.8074857683025486
10370241 -0.5818537367921954 0.8077107123305557
10372381 -0.5817162867480721 0.8079245704329558
10374521 -0.5814866481782619 0.8085961659534369
10376661 -0.5812090147908711 0.8081580338199752
10378801 -0.5815894976377219 0.8087794132234558
10380941 -0.5806560775734738 0.8087962804775348
10383081 -0.5803124149381539 0.808954003996653
10385221 -0.5798472148573931 0.8089945746709961
10387361 -0.5794569122236166 0.8081963091939308
10389501 -0.579740627144234 0.8087781476888796
10391641 -0.5794755111557269 0.8086221887203846
10393781 -0.5799123804828705 0.8086033349262148
10395921 -0.5794225084307318 0.8087907529518726
10398061 -0.5790134086317233 0.8091132490593907
10400201 -0.5791958475266454 0.8098102456707119
10402341 -0.5789423003223986 0.8093895596737813
10404481 -0.5785274536670715 0.8097696892692138
10406621 -0.5789703821375203 0.8097609904547504
10408761 -0.5791658293935653 0.808992908054212
10410901 -0.5787100377440911 0.8094206204580534
10413041 -0.5782961602738809 0.8095579199335023
10415181 -0.5785461476173467 0.8099896908415601
10417321 -0.5784561895229791 0.8099476350848815
10419461 -0.5781348969279839 0.8099893666982602
10421601 -0.5784321138695947 0.8101120595134755
10423741 -0.5780268895153868 0.8100377829387685
10425881 -0.5776588495776144 0.8100718218503712
10428021 -0.5775769633104785 0.8104594830344961
10430161 -0.5775475148619804 0.8097887950780598
10432301 -0.5775946610940617 0.8098284701795379
10434441 -0.576934645917737 0.8104529488644208
10436581 -0.5774174733303213 0.8110132973188057
10438721 -0.576965147947755 0.81085443763757
10440861 -0.5767298354258 0.8108043951700168
10443001 -0.5765623759071475 0.8114184735769694
10445141 -0.5762406566046451 0.8106711041805648
10447281 -0.5765418293854379 0.8115470323604788
10449421 -0.5770029054994427 0.8116357346379371
10451561 -0.5773110821244064 0.8122678437095923
10453701 -0.5767531379483404 0.8120851804796563
10455840 -0.5754299595366239 0.8121129136299305
10457980 -0.5757386101616271 0.8124822145408949
10460120 -0.5753638096249138 0.8117783147828797
10462260 -0.5749768733691976 0.8122651955924551
10464400 -0.5755804231741187 0.812134016863994
10466540 -0.5754908866646232 0.812219912011009
10468680 -0.5746630801978299 0.8126024854084039
10470820 -0.5751269652437877 0.8128950359547814
10472960 -0.5746166244002515 0.8132266992282734
10475100 -0.5740155163502697 0.8132802655913968
10477240 -0.574228683578828 0.8128883487685691
10479380 -0.5738298100282307 0.8128645487661268
10481520 -0.5733365925678939 0.8135007845427835
10483660 -0.5727150851963022 0.813320603396686
10485800 -0.5729390520101171 0.813090877215381
10487940 -0.5725992441387586 0.8128527502094713
10490080 -0.572909001203205 0.8133831900450483
10492220 -0.5729856694073112 0.813243343517355
10494360 -0.5733670022119658 0.812847682827999
10496500 -0.5735239376440611 0.8134723901482281
10498640 -0.5724049356107546 0.8136606897559007
10500780 -0.5729086472981486 0.8131926800193687
10502920 -0.5724816984074087 0.8132812039494968
10505060 -0.5723388409905034 0.8139638448169642
10507200 -0.5723586586113039 0.8142957806281028
10509340 -0.5722309958947696 0.8144519445584814
10511480 -0.5724923792823309 0.8146932960434313
10513620 -0.5715768682454437 0.815096072222086
10515760 -0.5721647975519517 0.8150956489087308
10517900 -0.5716547356413471 0.8148096731565724
10520040 -0.5713395651989471 0.8148077348394372
10522180 -0.5714301162681217 0.8150863194943662
10524320 -0.5711071845932849 0.814509887623769
10526460 -0.5711054503322938 0.81511801641143
10528600 -0.5706985339783122 0.8151400735578167
10530740 -0.5709011675741231 0.8154438152196845
10532880 -0.571050487997337 0.8155330769309035
10535020 -0.5705029399357002 0.8158787822290801
10537160 -0.5706168581752155 0.8163145512854115
10539300 -0.5704425290400938 0.8158917272286581
10541440 -0.5704215810195225 0.8164312617616034
10543580 -0.5694928940591808 0.816814175525475
10545720 -0.5702289855695957 0.8165735706997761
10547860 -0.5698000314200032 0.8162390201987135
10550000 -0.5699959087008996 0.8161438707920088
10552140 -0.569798680037968 0.8167508432472044
10554280 -0.5692289650047988 0.8166123025366933
10556420 -0.5692687762022202 0.8167092674807613
10558560 -0.568394301663571 0.8172594992024457
10560700 -0.5693148968089368 0.8168243521945946
10560700 -0.568405876032261 0.8165532215939744
10562884 -0.5687438974466255 0.8171878199670687
10565068 -0.5692219990297698 0.8174047045384923
10567252 -0.5690537766224931 0.8173265004818322
10569436 -0.5681174908071813 0.8176745248229781
10571621 -0.5681387676282614 0.8171970127938427
10573805 -0.5679552612401416 0.81720866407942
10575989 -0.5673504332503883 0.8174478760108205
10578173 -0.5669933992700177 0.8172415035331213
10580358 -0.5666887531802578 0.8176884202517944
10582542 -0.5668992440964146 0.8179264362048599
10584726 -0.5668588566602912 0.8182733647157503
10586910 -0.5665325925884809 0.8185300974831498
10589094 -0.5668794654660998 0.8180283630495176
10591279 -0.5666456497497391 0.8178100641788282
10593463 -0.5668425526522124 0.8183312032109322
10595647 -0.5661787025035958 0.8182254022599869
10597831 -0.566095593696128 0.8187641643322352
10600016 -0.56633761240028 0.8191423796638123
10602200 -0.5657834763036728 0.819054720986657
10604384 -0.5650232732617175 0.8191337271423345
10606568 -0.5656005235215141 0.8188502238425316
10608753 -0.5651814350714696 0.8191213185335604
10610937 -0.5654952915455346 0.8193316582795421
10613121 -0.5651227689098887 0.8193157032162175
10615305 -0.5646806952743528 0.8198085495808014
10617489 -0.5648694812203431 0.8190550279502563
10619674 -0.5645175845958744 0.8189223601888278
10621858 -0.5638885757593094 0.8194012510819464
10624042 -0.5639823692916387 0.8187993921278742
10626226 -0.5637534989605112 0.8197580921978674
10628411 -0.564291597384734 0.8200730125371927
10630595 -0.5635043203314614 0.819632669241927
10632779 -0.5634556053853986 0.8207490957346354
10634963 -0.5633502790646491 0.8200488781792123
10637148 -0.5631903800099329 0.8202607412792999
10639332 -0.5634530851609004 0.8202224445009814
10641516 -0.5633099643522304 0.8193823204089998
10643700 -0.5630033282926372 0.8200329656056218
10645884 -0.5635058888697446 0.819969071784298
10648069 -0.5632198264747336 0.8204150121818441
10650253 -0.56266322770434 0.821552899066648
10652437 -0.5630358712542808 0.8208560303706807
10654621 -0.5630697019617646 0.8213124757686535
10656806 -0.5627831838982433 0.8221661133335681
10658990 -0.562520226793749 0.8220343202767789
10661174 -0.5619372928924061 0.8220326260493265
10663358 -0.5622771448600586 0.8219231794312203
10665543 -0.5615883106854077 0.8219326972700473
10667727 -0.5611815700087545 0.8224731579906683
10669911 -0.5616629135685869 0.8224655592956043
10672095 -0.5615211711235649 0.8224471111634868
10674279 -0.5612265797653606 0.822885931232619
10676464 -0.5611886543014861 0.8224348498837213
10678648 -0.5610350123812131 0.821990624949142
10680832 -0.5602304211255782 0.8218392639193549
10683016 -0.5608416063620466 0.8217199720967806
10685201 -0.5606837574849315 0.822119775935378
10687385 -0.5600271941263621 0.8221836959590876
10689569 -0.5602961023628249 0.8222111701403738
10691753 -0.5599406520945689 0.8223871241021474
10693938 -0.5593228868042394 0.8227329705291796
10696122 -0.5600453032043374 0.8228819760878299
10698306 -0.5599772757147713 0.8229812583550586
10700490 -0.559479054225531 0.8236024360042412
10702674 -0.5594315586761776 0.8233349248284924
10704859 -0.5592829662983533 0.8232385606913171
10707043 -0.5583312242670506 0.8233662068396539
10709227 -0.5591871557688539 0.8235318762289436
10711411 -0.5589843440959048 0.8232472277172569
10713596 -0.5586217751172503 0.823967266658488
10715780 -0.5584229055179463 0.8233682273752257
10717964 -0.5581882880411576 0.8235562671799417
10720148 -0.5579855491291382 0.8246696925689847
10722333 -0.5580566005211482 0.8245414772494617
10724517 -0.5577337287782368 0.8244424832198429
10726701 -0.5580884762474112 0.8254643404460482
10728885 -0.5589803433261862 0.8256363892515037
10731069 -0.5579561651939077 0.8247680468143638
10733254 -0.5572992773358986 0.8252431274640504
10735438 -0.5577168221115708 0.8242158796980728
10737622 -0.5572536454083675 0.824585928766175
10739806 -0.5570242556799669 0.8255525447452068
10741991 -0.5572554769599497 0.8251420624392483
10744175 -0.5565255560091105 0.8254582302361203
10746359 -0.5562949203501114 0.826280460414252
10748543 -0.5563088639064276 0.8253238372880299
10750728 -0.5562376350783336 0.8255273974212297
10752912 -0.555893459603908 0.8267771054045875
10755096 -0.5558439812310496 0.8262166036762303
10757280 -0.5554706368206513 0.8265874628751182
10759464 -0.5550513219818801 0.827253887762813
10761649 -0.555269671542315 0.8263367773840069
10763833 -0.5550516365805207 0.8258561099506648
10766017 -0.554706225988613 0.8270137035762011
10768201 -0.5546833141203362 0.8266529275558457
10770386 -0.5543548800563953 0.8267671533150301
10772570 -0.5544887452400514 0.8277003850923239
10774754 -0.5540204197930404 0.8276628267503454
10776938 -0.5536293716540072 0.8268423433582862
10779123 -0.5536875582698841 0.8279028318113112
10779123 -0.5535383170581533 0.8269806149228047
10781352 -0.5529394758146774 0.8269525744482947
10783581 -0.5536418816945169 0.8273528311191106
10785811 -0.5532755625919326 0.8267770262130006
10788040 -0.5530047528584511 0.8275750533903496
10790270 -0.5536988518838271 0.8279198155597199
10792499 -0.5525523807190011 0.8281720355572624
10794728 -0.5528247997627844 0.8288954154006578
10796958 -0.5525972473316051 0.8277682916314312
10799187 -0.5521504976825542 0.8286053290466414
10801417 -0.5525486518349833 0.8287871694556356
10803646 -0.5520569228844864 0.8283480786227579
10805876 -0.5516095191907684 0.8292206632585964
10808105 -0.5516261219217394 0.8286110359769455
10810334 -0.5517781355830523 0.8286837864716344
10812564 -0.5519948055144688 0.829156560929156
10814793 -0.5519460476194024 0.8287534949165424
10817023 -0.5511987320631934 0.8290354967185134
10819252 -0.5511605327670542 0.8288563756595592
10821481 -0.5506938141140842 0.8283308489739569
10823711 -0.550721647987404 0.82960465549505
10825940 -0.5507770798802736 0.829305408633871
10828170 -0.5504266899393726 0.829070538177413
10830399 -0.5501936625810165 0.8290374575174206
10832629 -0.5502731984409657 0.8297404867154705
10834858 -0.550175344339045 0.8300703447063758
10837087 -0.5505027645402657 0.8296004153403896
10839317 -0.5498343345231835 0.8294953978963585
10841546 -0.5497675082374814 0.8301682808396756
10843776 -0.5494210588989636 0.8295103618530311
10846005 -0.5492122447078429 0.8307352902185248
10848235 -0.548996453510461 0.8300619444338588
10850464 -0.548949722540724 0.8306758845325511
10852693 -0.5489015476108651 0.8315038138092488
10854923 -0.5485991208353025 0.8303785074384827
10857152 -0.5483339741919808 0.8307482959080411
10859382 -0.5479966962999847 0.8299902939528822
10861611 -0.5477430039367915 0.8298898980376865
10863840 -0.5477914452856596 0.8312252531357008
10866070 -0.548340297110247 0.831036141305767
10868299 -0.5475315228708474 0.8318328034816466
10870529 -0.5476460901602127 0.8315764021653667
10872758 -0.5481162003254334 0.8311717678998993
10874988 -0.5474018862395501 0.8321166947201186
10877217 -0.5477700344922254 0.8318706866038881
10879446 -0.5473732711116512 0.832315526986121
10881676 -0.5472726838467461 0.8325201844908778
10883905 -0.5472672385069647 0.8325267137351158
10886135 -0.5467841817208984 0.8325268376153262
10888364 -0.5465876719236996 0.8321424144077296
10890594 -0.5459279281344145 0.8324156890748104
10892823 -0.5462175037636188 0.8329761347657727
10895052 -0.54572391067955 0.8328377898023527
10897282 -0.5458625409366334 0.8328658738162917
10899511 -0.5459251271514614 0.8331657058305165
10901741 -0.545552418500613 0.8332148348229093
10903970 -0.5452204921616239 0.8332515640768313
10906199 -0.5445930033194413 0.8336437529770581
10908429 -0.545156652860597 0.8337132778468468
10910658 -0.5442955578308615 0.8329990528075255
10912888 -0.5444077268979541 0.83380660353774
10915117 -0.5445926736646022 0.8333262524458261
10917347 -0.5441938820714711 0.8336855810008118
10919576 -0.5448458259440306 0.8341968810720937
10921805 -0.5445057335614928 0.8343918413047153
10924035 -0.543846509160233 0.8344142420126113
10926264 -0.5441545222667336 0.834455557035931
10928494 -0.5442246002367559 0.834083399876649
10930723 -0.5436721001725037 0.8343921888655789
10932952 -0.543582332062027 0.8343537275845625
10935182 -0.542713638272896 0.8340700244519987
10937411 -0.5429418201833662 0.8349813904545912
10939641 -0.5434645502851855 0.8347339953391614
10941870 -0.5427768293540347 0.8349433802690839
10944100 -0.5430727271603997 0.8347548254591521
10946329 -0.542702663902374 0.834446580614397
10948558 -0.5426565028024494 0.8350913099990095
10950788 -0.5426134550881863 0.8347928300390334
10953017 -0.5422303224004437 0.8356403339898519
10955247 -0.5419749427263776 0.8356816984311543
10957476 -0.5418573063594118 0.8354930457622268
10959706 -0.5420242012699122 0.8361715104122689
10961935 -0.542041246575005 0.8355137233428637
10964164 -0.5412582625698843 0.835219138060585
10966394 -0.5412752657344008 0.8363048540584834
10968623 -0.5411574298396074 0.8361841424441372
10970853 -0.5403867962165084 0.836952341793618
10973082 -0.540548411568168 0.836400028495592
10975311 -0.5404115254679521 0.8364061786911741
10977541 -0.5404361016839021 0.8364587812124091
10979770 -0.5406435140208298 0.8364821260978251
10982000 -0.5399653745497693 0.8367673422646399
10984229 -0.5403636575795329 0.836871017033274
10986459 -0.5400986832023937 0.836254211367536
10988688 -0.5404342137731146 0.8373423309169588
10990917 -0.5402531424432754 0.8368352342714863
10993147 -0.5397848237275511 0.8369107712387507
10995376 -0.5391431802346192 0.8371715747057562
10997606 -0.5391961431927963 0.8373005273462034
10999835 -0.5387257172576432 0.8375731072776559
11002065 -0.5390024080594658 0.8369121998935594
11002065 -0.5387191242663507 0.8369048574073578
11004340 -0.5381551001245377 0.836574819097579
11006616 -0.5383088059724906 0.8376199081487851
11008891 -0.5389362796551224 0.837853892024127
11011167 -0.5383014244696461 0.838166148686152
11013442 -0.5380853779410526 0.8386861071598499
11015718 -0.5381332803656226 0.8381467813547375
11017993 -0.5383413334038354 0.8388217109469464
11020269 -0.5381029833406966 0.83832232480964
11022544 -0.538387995496261 0.8391594934654552
11024820 -0.5376232589578063 0.8387414699632996
11027095 -0.5369447137072 0.8389321307276367
11029371 -0.5370504133740199 0.8389915077995969
11031646 -0.5365660929251241 0.8389905636288828
11033922 -0.536659199588388 0.8385672240109882
11036197 -0.5362457119515297 0.8387446107188997
11038473 -0.5366590025960681 0.838808561042084
11040748 -0.5364966466343799 0.8387583213010347
11043024 -0.5364202465924437 0.8394474215985729
11045299 -0.5366100658842412 0.8388210002287286
11047575 -0.535451289931489 0.8390793272119832
11049850 -0.535637607187818 0.8387690322859477
11052126 -0.5358242822005294 0.8390435126003183
11054401 -0.5352444967496246 0.8393229484697368
11056677 -0.534735478322249 0.8396868035149019
11058953 -0.5349245480685351 0.8404072350704369
11061228 -0.5346500087683895 0.8405412918174594
11063504 -0.5339155544614387 0.8408689861376415
11065779 -0.5341815452748285 0.8411002721956417
11068055 -0.533904216489623 0.841493654961579
11070330 -0.5339549029827158 0.841063816505189
11072606 -0.5335696647075515 0.8407906339062889
11074881 -0.5341919293065677 0.841329811395644
11077157 -0.5334920524836163 0.8410507278595059
11079432 -0.5332922225075241 0.8413410747348078
11081708 -0.5334972778729197 0.8415346822437875
11083983 -0.5330010560626686 0.8421807409750554
11086259 -0.5331949084207251 0.8416859245832378
11088534 -0.532593468396572 0.841217240115033
11090810 -0.5326438030319431 0.8417634641563327
11093085 -0.5322532980372745 0.8417169371268207
11095361 -0.5320170899397852 0.8419697181153698
11097636 -0.5317859036371015 0.8418829392467738
11099912 -0.5318092831221419 0.8422025662381203
11102187 -0.5316896447762532 0.8413578850655525
11104463 -0.5314697202075436 0.8410293311815136
11106738 -0.531353938654023 0.8421539815771458
11109014 -0.5305987582732954 0.8421914108495021
11111289 -0.5310383639077789 0.842581516416025
11113565 -0.5303508527457625 0.8429006724254237
11115841 -0.5308088241560084 0.8434720577683321
11118116 -0.5299167021958844 0.8431107804322001
11120392 -0.5304337953365343 0.8432383159787558
11122667 -0.5300541466858611 0.8424037503820725
11124943 -0.5304561175270707 0.8423435941318818
11127218 -0.5304370579474588 0.842347197180184
11129494 -0.5301220240539196 0.8424780697477368
11131769 -0.5294798614141544 0.8426500251368055
11134045 -0.5293608574388631 0.8428709929802759
11136320 -0.5291096291186893 0.8426217078845191
11138596 -0.5292406753517139 0.8432861949925149
11140871 -0.52895125987262 0.8424766003679248
11143147 -0.529225339201858 0.8430882181057289
11145422 -0.528969025671873 0.8436671505317166
11147698 -0.5287539503672943 0.8433717891645592
11149973 -0.5286655776053251 0.8435190002328061
11152249 -0.5282805059841056 0.8437285893454262
11154524 -0.5282495037727444 0.8438678545364487
11156800 -0.5281815677075323 0.8439308922108744
11159075 -0.5280679603452222 0.8439365186597959
11161351 -0.5278566121372993 0.8443393269692162
11163626 -0.5280667186129481 0.8440559995645224
11165902 -0.5280319221398594 0.8447052235345521
11168177 -0.5278403866338947 0.8450354062615447
11170453 -0.5271437694192982 0.8447955931720362
11172729 -0.5275038884777952 0.8454357184324445
11175004 -0.52683952811053 0.8455035344286042
11177280 -0.5270078975885424 0.8455385734291242
11179555 -0.5266228297732153 0.8457598798938888
11181831 -0.5261217838793953 0.8458555520862818
11184106 -0.5263502067309159 0.8456320896177206
11186382 -0.5264678669621963 0.8461188640031229
11188657 -0.5259803793100576 0.845597452889833
11190933 -0.5255832167115175 0.8462766059485103
11193208 -0.5255596666125443 0.84629665211863
11195484 -0.525528487838515 0.8465135261995466
11197759 -0.5254665987872539 0.8462036564095327
11200035 -0.5250874763962737 0.846241575366052
11202310 -0.5252823016198561 0.846320981489253
11204586 -0.5248627929867236 0.8467950608322161
11206861 -0.5243000002367432 0.8468024653395487
11209137 -0.5244878136157769 0.846500409624003
11211412 -0.5240065792558793 0.8473700114024012
11213688 -0.5242739845904969 0.8472628420278137
11215963 -0.5244141958812106 0.8474139865025235
11218239 -0.5241860049432878 0.8478048130860486
11220514 -0.5240690558371419 0.8475319064829262
11222790 -0.5235706187732603 0.8476941930268731
11225065 -0.5236493970444445 0.8474619044824075
11227341 -0.5227855691396133 0.8475391272149846
11229617 -0.52293550816303 0.8483810495715474
11229617 -0.5228134005986904 0.8479273660872509
11231939 -0.5228239006006701 0.8483920585442266
11234262 -0.5227006464192758 0.8485135251613833
11236584 -0.5225106366347114 0.8481043086991785
11238907 -0.5223010858799545 0.8480242116068138
11241229 -0.5221351338359488 0.8476288290404769
11243552 -0.5222169345589929 0.8486473667498657
11245875 -0.5224235684088137 0.8485442245452312
11248197 -0.5221215984721512 0.8486826378915254
11250520 -0.5222188521676362 0.848447881204264
11252842 -0.5217811947495534 0.8494938429636316
11255165 -0.5220280034947486 0.8496273301670372
11257488 -0.5213323740356054 0.8498384989125132
11259810 -0.5214675482494934 0.8494870117170474
11262133 -0.520906146098119 0.849788240659953
11264455 -0.520405205280843 0.8496080164435815
11266778 -0.5205933625199987 0.8494684836042208
11269101 -0.5202045631860427 0.849436979272038
11271423 -0.5200853656558252 0.8494058644892021
11273746 -0.5203045584378029 0.8495074260676977
11276068 -0.5200583959040983 0.8498792650031656
11278391 -0.519274477870122 0.8499170967794852
11280713 -0.5197915259382885 0.8501679277294397
11283036 -0.5188616247456302 0.8506871450478585
11285359 -0.5191235095209771 0.8506584488351923
11287681 -0.518855619963589 0.850633094727408
11290004 -0.5189594462690484 0.8508159951939799
11292326 -0.5188252118584744 0.8510979843306112
11294649 -0.5185490856346823 0.851012337188267
11296972 -0.5181155738387716 0.8507894340083323
11299294 -0.5181726185716036 0.8505542323263701
11301617 -0.5178571555364923 0.8505655176690755
11303939 -0.5182706557544935 0.8501580772497521
11306262 -0.5177134413797679 0.8507035395873314
11308585 -0.5181756160518302 0.8506251067348949
11310907 -0.518023445554391 0.851022320954326
11313230 -0.5179894411953841 0.8512919941781727
11315552 -0.517351909128211 0.8516939982188734
11317875 -0.5173880924797853 0.8518545389750557
11320198 -0.5168603682481199 0.8524260021082375
11322520 -0.5169045767518058 0.8518980962689399
11324843 -0.5164598177443916 0.8528672167964938
11327165 -0.5163047247363989 0.8522926187687897
11329488 -0.5164143126006864 0.8527036106027851
11331810 -0.5161653825381998 0.8529492275499243
11334133 -0.5158799728916194 0.852837448135972
11336456 -0.5155253648590506 0.8527160972980352
11338778 -0.5149976255221845 0.8528612702089033
11341101 -0.5151485165875487 0.8526728975417965
11343423 -0.5152759616682985 0.8529696222855521
11345746 -0.5150297097093007 0.8531644557705396
11348069 -0.5154692316567173 0.8532376332333177
11350391 -0.5144690344277598 0.8535291510519589
11352714 -0.5142677698914371 0.8536636112732743
11355036 -0.5145165820323313 0.8540025881126103
11357359 -0.5138801466714358 0.8539935986147724
11359682 -0.5141616647657132 0.8533197977419138
11362004 -0.5140624477520271 0.8539026327211711
11364327 -0.513163145641894 0.8536179068923672
11366649 -0.5134318295009335 0.8538732839860388
11368972 -0.5133718940301969 0.8539795455273927
11371294 -0.5130487231931746 0.8541075522241258
11373617 -0.5130866677598174 0.85439603696468
11375940 -0.5125048023847285 0.8545498606499637
11378262 -0.5125437289986449 0.8542911992663509
11380585 -0.5119518554638834 0.8547809084425655
11382907 -0.5114914543642782 0.8547068693987541
11385230 -0.5110841913227783 0.854763179433056
11387553 -0.5110251251420868 0.8551539111546428
11389875 -0.5112732129850138 0.855078224461819
11392198 -0.5117254466101308 0.8553805205994018
11394520 -0.5114800216936793 0.8556349481526829
11396843 -0.5113067627578995 0.8552616371752809
11399166 -0.5110416853032725 0.8559472786865382
11401488 -0.5107729545763502 0.8558302879633596
11403811 -0.5107445735538281 0.8558088593904047
11406133 -0.5103914566004788 0.8555522948907502
11408456 -0.5101096410691892 0.8560054355966111
11410779 -0.5096304846769072 0.8559673657123517
11413101 -0.5090912141780755 0.8563959146986718
11415424 -0.5089284915969322 0.8563409779529633
11417746 -0.5089429578404934 0.8564796583911748
11420069 -0.5087367934935438 0.8565743523347558
11422391 -0.5088731851770263 0.856931675457448
11424714 -0.5086159161732903 0.8570986340153519
11427037 -0.5091480936680983 0.8569577639218492
11429359 -0.5082758368480261 0.8573135878512093
11431682 -0.508591995156818 0.8572216710923504
11434004 -0.5081218889624596 0.8572094090695661
11436327 -0.5083181260550794 0.8570198273194458
11438650 -0.507261714561406 0.8574262384779896
11440972 -0.5080378434587747 0.857002326564524
11443295 -0.5065624476807061 0.8576918162266758
11445617 -0.5073647455506449 0.85715897886075
11447940 -0.5066510434849669 0.8579450088469981
11450263 -0.5069778692047829 0.8580665624210921
11452585 -0.5065896831139949 0.8581406108238389
11454908 -0.5067775964663769 0.8580781591792912
11457230 -0.5065539957992151 0.8585889691374765
11459553 -0.5064907467042978 0.8586390105146479
11461876 -0.5063190668121073 0.8587904779999505
11461876 -0.5065003054388776 0.8589421969920972
11464246 -0.5059057801889782 0.8589610110450878
11466617 -0.5065096571095542 0.8592254195451784
11468987 -0.5052976733283582 0.8597204405227817
11471358 -0.505634400456314 0.8590383950822347
11473729 -0.5048598308756521 0.8598901994880324
11476099 -0.5049920964711597 0.8590785560598839
11478470 -0.5050847716637547 0.8595608441894141
11480841 -0.5048526938979037 0.8594651732005161
11483211 -0.5047679059490131 0.8590782561918117
11485582 -0.50456385506695 0.8598311446507407
11487952 -0.5042214889515416 0.8598218593459979
11490323 -0.5042021852451061 0.8600649818389549
11492694 -0.5044782757195395 0.8602196450709967
11495064 -0.5038853896617521 0.8601387401363042
11497435 -0.5044442001056532 0.8600327509501436
11499806 -0.5035417701223714 0.8607768453597701
11502176 -0.503704462952487 0.8604101085970642
11504547 -0.5027553929598909 0.8608531508353945
11506917 -0.5028978370058851 0.8606432874045262
11509288 -0.5026766235548696 0.8607207213399812
11511659 -0.5026140968074919 0.8612821280467763
11514029 -0.5025820741745537 0.86141146188931
11516400 -0.5025212345513537 0.8609863535774315
11518771 -0.502206721937151 0.8618864144709727
11521141 -0.5019142604530237 0.8623121654214027
11523512 -0.5021440647162678 0.8617910146359627
11525883 -0.5020825586461239 0.8622659516610293
11528253 -0.5025926745117361 0.8621442558593974
11530624 -0.5016183269953933 0.8619824755039042
11532994 -0.5018375795488947 0.8614806952009239
11535365 -0.5013442700915114 0.8615313516668265
11537736 -0.5010117761488565 0.8613962890420573
11540106 -0.5010431864635166 0.8615735633290262
11542477 -0.500626763801382 0.8612521829001019
11544848 -0.5005878677914821 0.8620088339268487
11547218 -0.5003659960172817 0.8623562729731301
11549589 -0.5008656750647237 0.862404162171129
11551959 -0.5002574060638288 0.862852894745988
11554330 -0.5001695016059866 0.8625254713277135
11556701 -0.4994215688741254 0.8629595436611855
11559071 -0.4998019499115694 0.8628167473605739
11561442 -0.4988975788218205 0.8630375157441045
11563813 -0.49966663746671885 0.86330891279954
11566183 -0.49974583061505823 0.8633815657873377
11568554 -0.49879294637441535 0.8640784988583932
11570924 -0.4995922304379142 0.8631835133490419
11573295 -0.4986481592305887 0.8639197997321497
11575666 -0.4984060363136156 0.8635016425476181
11578036 -0.498270453904564 0.8640760492281394
11580407 -0.49766545139558344 0.8637514715313879
11582778 -0.49779671682218396 0.8645601068557852
11585148 -0.49722329289809936 0.8639635940799862
11587519 -0.4973071461188071 0.8642221346002023
11589890 -0.4966662051903888 0.8640318017263405
11592260 -0.49659212648362966 0.864135200735128
11594631 -0.49650402689653306 0.8647044652567506
11597001 -0.49692830167757446 0.8648269960140472
11599372 -0.49586015395369837 0.8649006377078635
11601743 -0.49628913648320944 0.8650621703884467
11604113 -0.49557338349423136 0.8654062636855651
11606484 -0.49602278956869994 0.8651403345130898
11608855 -0.49522226525615765 0.8659853811487155
11611225 -0.4956689473628848 0.8657976887455232
11613596 -0.4950198088084351 0.866207405770093
11615966 -0.49492982325196516 0.8660404056872902
11618337 -0.49506448959214433 0.8661267338419487
11620708 -0.494584712075576 0.8661464941161785
11623078 -0.4948005735903697 0.86630531166978
11625449 -0.4949918104089647 0.8659214950738051
11627820 -0.49481619575011826 0.8667174510749425
11630190 -0.4945616013322794 0.8662782676052766
11632561 -0.4950261358438776 0.8667067828020748
11634931 -0.4942105246433126 0.8664348955483939
11637302 -0.494167538476696 0.8663695485965448
11639673 -0.4937421113367075 0.8665084105571786
11642043 -0.4933394099843818 0.8661049394299246
11644414 -0.4926338446469079 0.8665460845350611
11646785 -0.4934444171035427 0.8669981175826676
11649155 -0.4919932454149706 0.867061304671619
11651526 -0.4928396210976391 0.8669166288500556
11653897 -0.49261026604655644 0.8677546177223922
11656267 -0.4925313122446242 0.8673082686221941
11658638 -0.49260151294324966 0.8678315818266116
11661008 -0.4924623151528771 0.8676779395828592
11663379 -0.49258320824778323 0.8678298176805546
11665750 -0.49224323311921386 0.8679945942853534
11668120 -0.4923667139780117 0.8681580978822301
11670491 -0.49221780804090853 0.8682573601164543
11672862 -0.492242783231323 0.8683256122832904
11675232 -0.4913588337879342 0.8683126507502892
11677603 -0.4913648020442939 0.868245090832824
11679973 -0.49078490930375324 0.8685815609414247
11682344 -0.49079921765709056 0.8681696728909504
11684715 -0.490562484303213 0.8687767362842062
11687085 -0.49064449658214065 0.8682370381760699
11689456 -0.4903257038085431 0.868779170858345
11691827 -0.4901351622879851 0.8685675438757516
11694197 -0.4898406409020583 0.8693557546886957
11696568 -0.48993957650198466 0.8695768407050091
11698939 -0.49023223563344825 0.8700129178843833
11698939 -0.4903070854440973 0.8693408907985424
11701358 -0.4896260043919105 0.8700435978751142
11703778 -0.4895557064268143 0.8695653767632995
11706197 -0.4894057704340961 0.8700106758986682
11708617 -0.48901661537443136 0.8700743600755956
11711037 -0.488686384981959 0.8704933763010558
11713456 -0.488977084590152 0.8701447235647176
11715876 -0.4881381824679875 0.8702715168294246
11718296 -0.4880414307273037 0.8695846202729349
11720715 -0.48785250140673764 0.8705736836011009
11723135 -0.48737937550414 0.8703208189412447
11725555 -0.48795951155616796 0.870411174363895
11727974 -0.4876010631875329 0.8703346407601238
11730394 -0.48726292447286956 0.8704002471120008
11732814 -0.4871322039914433 0.8705921296010697
11735233 -0.48648790962489824 0.8707182439906102
11737653 -0.4864192265693484 0.8705829502318762
11740073 -0.48614517400482843 0.871049238884334
11742492 -0.48608346944970415 0.8705477919755813
11744912 -0.48628986110720435 0.8708402847822061
11747332 -0.48578567091623825 0.8713210933693103
11749751 -0.4858540842277309 0.8712627681397612
11752171 -0.48660483974422425 0.8723854188363935
11754590 -0.48576515980876667 0.8726107611273093
11757010 -0.48573244008468996 0.872179474023726
11759430 -0.48582592899687976 0.872446138138305
11761849 -0.485084794079788 0.8723046128877655
11764269 -0.485420923610591 0.8718867229192341
11766689 -0.48514907191367007 0.8720404491212254
11769108 -0.4846884738642097 0.8719913116897247
11771528 -0.48481947682076976 0.8719392795662951
11773948 -0.4845944135581891 0.8724869042516143
11776367 -0.4840713505106625 0.8720154277116987
11778787 -0.4844107434848789 0.8727568174077469
11781207 -0.4839030133971084 0.8730678760757682
11783626 -0.4841713147138851 0.8730068667575821
11786046 -0.4840841091194779 0.8737389831168708
11788466 -0.48323504839400905 0.8736002941173824
11790885 -0.48360725410549965 0.8732992913668542
11793305 -0.48348567639059536 0.8737454380670435
11795725 -0.4823959035660799 0.8730228377454283
11798144 -0.4828937699678448 0.8730175055869495
11800564 -0.48287726288958505 0.8737976628006889
11802983 -0.4823650671502366 0.8734545966736929
11805403 -0.48260031879468057 0.873997855570907
11807823 -0.4820779271516091 0.8744833093373947
11810242 -0.48220858248749254 0.8743175844721662
11812662 -0.4819281080827969 0.8744903646652391
11815082 -0.48129445846455865 0.8739821393762189
11817501 -0.4816134701803097 0.873745003152513
11819921 -0.4812497761306849 0.8738317053490543
11822341 -0.4815311691918034 0.8738260332742522
11824760 -0.4811536161063942 0.8743660271469206
11827180 -0.48066941292217863 0.8742067123694156
11829600 -0.4810842673771412 0.8749072689840752
11832019 -0.48092827194203064 0.8748281265217298
11834439 -0.4805406001180243 0.8757294856825557
11836859 -0.4804794705889928 0.8758968710513256
11839278 -0.48036726337346664 0.8760757668334768
11841698 -0.47966633162821143 0.8760182313193438
11844118 -0.48006231342581557 0.8762088383182521
11846537 -0.4797145879246915 0.8763152752979958
11848957 -0.47908860095640127 0.8760803998545907
11851376 -0.4797933692432326 0.8755337071945759
11853796 -0.4789555898349814 0.8758566098815848
11856216 -0.47894078034412874 0.8760003600485207
11858635 -0.4790769535505772 0.8757557474875094
11861055 -0.4791071026891662 0.8766903873586781
11863475 -0.4781750721726869 0.8764339753792153
11865894 -0.47742644473561796 0.8763426352137522
11868314 -0.4776553274890648 0.8765145177055204
11870734 -0.478105990126535 0.8768559002213362
11873153 -0.47819881330149505 0.8767744369717753
11875573 -0.47810884440907714 0.8770171186228451
11877993 -0.4777139095976227 0.876842028719016
11880412 -0.47824789627150294 0.8768712700854145
11882832 -0.47761828457591526 0.8768127822977383
11885252 -0.47740689049189683 0.8766316719488854
11887671 -0.4774248861297525 0.8777170041591763
11890091 -0.47698090252861397 0.877850087782212
11892511 -0.47764068242884444 0.8781750378756753
11894930 -0.4766202070989299 0.8781341651668617
11897350 -0.4768674051132382 0.8775655608266236
11899769 -0.47643551921759947 0.8779823740695167
11902189 -0.4760603405417028 0.8777467363338666
11904609 -0.47577437059041305 0.8782924027674475
11907028 -0.4753190262067112 0.8783697104532513
11909448 -0.47562512246533706 0.8784900399157127
11911868 -0.4752304657830304 0.8781174564264026
11914287 -0.4752718328932611 0.8779259382792383
11916707 -0.4754537322550165 0.8781716151990948
11919127 -0.47487977506579765 0.8782434159383277
11921546 -0.4749099813385396 0.8787646473974037
11923966 -0.4741628309272725 0.8782406727663962
11926386 -0.47460690931201893 0.8782943969947226
11928805 -0.47463977079625397 0.8793847257618184
11931225 -0.4745729871848441 0.8788109484509415
11933645 -0.4747890734156528 0.8796230321305955
11936064 -0.47406107175200896 0.8796290625953816
11938484 -0.47421402549782343 0.8797570463216373
11940904 -0.47382613754335895 0.8794371322543466
11940904 -0.4736861184307831 0.8794643690682451
11943373 -0.4734080209905725 0.879564229518344
11945843 -0.47327991215744114 0.8796978150725555
11948313 -0.47305761256209333 0.8795575068830912
11950782 -0.472792291274432 0.8794890875289931
11953252 -0.4728938555164424 0.8797650386154011
11955722 -0.47318273897648955 0.8792328176982034
11958191 -0.4726258582055945 0.8783510455128486
11960661 -0.472647892947509 0.8799472333760533
11963131 -0.47231100487164535 0.8799198596787519
11965601 -0.4728739037653951 0.8804753246306962
11968070 -0.472141724269867 0.8817675336037174
11970540 -0.4717983315560994 0.8812180517101236
11973010 -0.47226796679270555 0.8818891908776708
11975479 -0.4715146158391163 0.8819570462203304
11977949 -0.471246912228392 0.880958171418973
11980419 -0.4714490723227282 0.8809191993510838
11982889 -0.471393438145167 0.8808520535519119
11985358 -0.4707367886116126 0.880936061644283
11987828 -0.47108391466985416 0.8818981382159686
11990298 -0.4708913850827093 0.8817771829822654
11992767 -0.4706678644121499 0.881557846400027
11995237 -0.4708758617180035 0.8824633248931009
11997707 -0.47049421523601775 0.8822148819738085
12000177 -0.46940674295502166 0.8826735448825815
12002646 -0.46993128694927816 0.8826463908459183
12005116 -0.46911112287436935 0.8823785040391394
12007586 -0.46944281369572044 0.8824566422265927
12010055 -0.46957791047247793 0.8826268729057642
12012525 -0.46900287418966385 0.8827597929528294
12014995 -0.46914570735246613 0.8828659509280061
12017465 -0.46912747315809417 0.8832974887963914
12019934 -0.46844173664990946 0.8824065485521693
12022404 -0.4689710320938588 0.8833417986695586
12024874 -0.46832422924817607 0.883249749718426
12027343 -0.4678622366677151 0.88339178210505
12029813 -0.46831470981865225 0.8840970078304833
12032283 -0.46775501786446744 0.8836383320357359
12034752 -0.46735223689118993 0.8834045148561094
12037222 -0.46799367315464496 0.8830966657587433
12039692 -0.46781857029426915 0.8825274549200118
12042162 -0.4675895793816157 0.8830978550889821
12044631 -0.4680471122257073 0.8839263602251388
12047101 -0.46816667741292034 0.8836366126540599
12049571 -0.4675214563434834 0.8836672210893052
12052040 -0.46774408232238707 0.8843301142589544
12054510 -0.466453739428607 0.8844858826244918
12056980 -0.4663152251608464 0.8844839337629199
12059450 -0.466521425778064 0.8853895117590751
12061919 -0.46567305617251314 0.8850841035519238
12064389 -0.4658132086692039 0.885389471258453
12066859 -0.4660600399222146 0.8851773000724013
12069328 -0.46592874477693036 0.884810739475779
12071798 -0.4657768053345482 0.8845734755159541
12074268 -0.46534695635359974 0.8842042425559307
12076738 -0.4650770113515867 0.8844252379398044
12079207 -0.4654120879244715 0.8852723128528859
12081677 -0.46480346246994564 0.8847643262317911
12084147 -0.4642787753547058 0.8849870123476699
12086616 -0.4649708546135569 0.8856158435407856
12089086 -0.4645108618343883 0.8852255131606509
12091556 -0.4637401966566384 0.8854429285476996
12094026 -0.4639365861487385 0.8859827120533019
12096495 -0.462931696192637 0.8861453761281508
12098965 -0.462561350476491 0.8857373480542753
12101435 -0.46347928996122495 0.8855846987581517
12103904 -0.46331115971653214 0.8854396036369183
12106374 -0.4631669996385733 0.88592120399311
12108844 -0.4634057911320057 0.8858314840307914
12111313 -0.463293813173097 0.8863265415559981
12113783 -0.4630569345427344 0.8870418519926314
12116253 -0.4633743084398061 0.8871879061058358
12118723 -0.4624445724857563 0.8879726382289986
12121192 -0.4622729368526847 0.888633800073172
12123662 -0.46179834347121756 0.8877572175433406
12126132 -0.4609243412566388 0.8881451456559233
12128601 -0.46050325609549264 0.8881476366069951
12131071 -0.4609562522481263 0.8876457793820973
12133541 -0.459960591286796 0.8875595509342202
12136011 -0.4605289690389442 0.8876172385565184
12138480 -0.46063134830583746 0.8869438814818038
12140950 -0.4604328612207572 0.8879591932084412
12143420 -0.46034663746009125 0.8878529216908587
12145889 -0.4607984739757303 0.8883911879248076
12148359 -0.46049667754269497 0.8885341547395561
12150829 -0.46010980465282264 0.888523511834037
12153299 -0.45966800585681034 0.8883833966027121
12155768 -0.45965207923914947 0.8888968307736561
12158238 -0.4605134893038733 0.8883677971524101
12160708 -0.460117370308974 0.8879645919783221
12163177 -0.4599709586301327 0.8884866479724134
12165647 -0.45965200346890334 0.8884235631502259
12168117 -0.45913923303366116 0.8891711136694365
12170587 -0.4584194069454447 0.8887815082036225
12173056 -0.4581606500217327 0.8887629992370275
12175526 -0.45882886866946876 0.8889839697541363
12177996 -0.4582961440754337 0.8889059050791431
12180465 -0.4576069051926709 0.8888901023416915
12182935 -0.4575908290443643 0.8893315207174347
12185405 -0.4569297865895231 0.8890031268065867
12187875 -0.4563161120815654 0.8894525981734799
12187875 -0.4570756482810341 0.8893937022558063
12190395 -0.45703623702706925 0.889756600599291
12192916 -0.45696996767918374 0.8891341214969822
12195437 -0.4570079937274949 0.8898413238655591
12197958 -0.4571790271364094 0.8895228269283244
12200478 -0.4572504934994985 0.8896818826385312
12202999 -0.4569447034211361 0.8899604196380206
12205520 -0.4568559895263117 0.8905649035160604
12208041 -0.4565427769535532 0.8901281701323267
12210562 -0.45628799041591644 0.8905860862289456
12213082 -0.4561775393615713 0.8908749670507244
12215603 -0.4558969233666545 0.8903381008277849
12218124 -0.4554456333202155 0.8898744737391846
12220645 -0.455246781722518 0.8904072016892595
12223165 -0.45556480880612676 0.8896795563609771
12225686 -0.45512983425873194 0.889452753853584
12228207 -0.45449756488828547 0.8904768595256473
12230728 -0.4547847365886642 0.8902973904552409
12233249 -0.4549771277409842 0.8910608902177887
12235769 -0.45422453856581874 0.8916403590257779
12238290 -0.4544173508006737 0.8915999271863859
12240811 -0.45473783967084846 0.8924681586727536
12243332 -0.45420157675659645 0.8928554661651011
12245852 -0.4533286825619704 0.8923652994821437
12248373 -0.45354211198267114 0.8918620445522385
12250894 -0.4531158188189734 0.8914000597994441
12253415 -0.452402052257991 0.8911393670127384
12255936 -0.4531199806832381 0.8914470104809354
12258456 -0.45344524040112705 0.8913581108333158
12260977 -0.45317499180829346 0.8915311249335883
12263498 -0.4529447385841451 0.8920568757755778
12266019 -0.45282907916545634 0.892274492537276
12268539 -0.4526169974241393 0.892424822483285
12271060 -0.4519217035493273 0.8924144448801057
12273581 -0.45234120259654853 0.8928860629048021
12276102 -0.4516500552600858 0.8926373083194463
12278623 -0.451319005180414 0.8926140492857355
12281143 -0.45161995295265067 0.8932372652860961
12283664 -0.45122092212075976 0.8932741685605409
12286185 -0.45095447545978745 0.8928551839495655
12288706 -0.45108271384702364 0.8930971933964832
12291226 -0.45075186746373924 0.8929267005826801
12293747 -0.45109038488550607 0.8927742916449444
12296268 -0.45050995196201427 0.8939180325604755
12298789 -0.4505011945015526 0.8938747738422503
12301310 -0.45084468579370574 0.8937093060644401
12303830 -0.45079180103440913 0.8935641177889074
12306351 -0.4504150145319988 0.8941184255805891
12308872 -0.4509418835530386 0.8939872105827781
12311393 -0.4505083987669934 0.8939592703122515
12313914 -0.4495748616468157 0.8938472278566213
12316434 -0.4491325348094299 0.8940503705342598
12318955 -0.4490169260457092 0.8935128288762363
12321476 -0.44973775543566075 0.8935234650579603
12323997 -0.448153949793412 0.8937717637740137
12326517 -0.4483371285340268 0.8940244392568159
12329038 -0.44890446073351975 0.8945002443920962
12331559 -0.4487725674201969 0.8954930654222659
12334080 -0.44779727700933186 0.8954840611377206
12336601 -0.4477694141164566 0.8951777630556519
12339121 -0.4476208061791931 0.8949085963352122
12341642 -0.4474444728184165 0.8949841072532395
12344163 -0.4469060350910639 0.8946611529349876
12346684 -0.4474660479290828 0.8945367307554905
12349204 -0.44751527306585187 0.8948618115544602
12351725 -0.4478343325687462 0.8947173954987281
12354246 -0.4462726068743227 0.8954915244742595
12356767 -0.44618997122208354 0.8959192919787033
12359288 -0.4465853523160504 0.8952565107523308
12361808 -0.446412794746516 0.8955264046499104
12364329 -0.4451629831329158 0.8963887220495163
12366850 -0.4453241424473009 0.8960381006313574
12369371 -0.44622186225843113 0.895704332999624
12371891 -0.4460377708567753 0.8958170689603445
12374412 -0.44508133310908604 0.8957395354427736
12376933 -0.44574184439516323 0.8958049180017104
12379454 -0.4460418138746309 0.8966021991646422
12381975 -0.44540909773318405 0.8963800650392254
12384495 -0.444775458566781 0.8963832166871288
12387016 -0.4446292280614302 0.8960719087753842
12389537 -0.4450466215354976 0.8960934948453705
12392058 -0.4442284286899791 0.896187984283303
12394578 -0.44397815541541835 0.8969777465416635
12397099 -0.44376152902507293 0.8976919386231874
12399620 -0.4442137510474993 0.8981950348956399
12402141 -0.444028867723568 0.897645823338143
12404662 -0.44373121895871204 0.8970737300040819
12407182 -0.44372394909447005 0.8962959984971787
12409703 -0.4441319571522143 0.8972604133096415
12412224 -0.44300464149522195 0.8979491572307673
12414745 -0.44307462565190464 0.8972234114653045
12417265 -0.4430464595600923 0.8979625098022386
12419786 -0.44345193350883516 0.8984440028635426
12422307 -0.4426738771030426 0.8984695451274822
12424828 -0.44295234794595945 0.8982347462174078
12427349 -0.4427793765581366 0.8982002965574737
12429869 -0.4426056670818978 0.8978215238457231
12432390 -0.44204575338552393 0.8980432796597987
12434911 -0.44206885097127124 0.8975680609945033
12437432 -0.4421444868431223 0.8979733980430439
12439953 -0.44200462075531155 0.8978810731973119
12439953 -0.44114939226390565 0.8977824373611848
12442525 -0.4407462227427047 0.8981891044489663
12445098 -0.44196296328146073 0.8986630355625108
12447671 -0.4415604954935069 0.898568631044164
12450244 -0.4400064745837321 0.8992326610775115
12452817 -0.44048468380698597 0.8994668085846619
12455390 -0.44094673064867834 0.8992074635961573
12457963 -0.44064393850332695 0.8990513327750203
12460536 -0.43973911338456356 0.8994748117719648
12463109 -0.43990819653366414 0.8991594012614937
12465682 -0.4401129759877646 0.8993124055121025
12468255 -0.4402786272850081 0.8996480319197357
12470828 -0.43939983251375525 0.9001115716429581
12473400 -0.4392394769354468 0.9000552970823797
12475973 -0.4398937873897453 0.9002435671294476
12478546 -0.4393965466274628 0.9004175938035043
12481119 -0.438457947159066 0.9003234291324347
12483692 -0.43892914487282214 0.9001759020152037
12486265 -0.4384722301414974 0.900036467988535
12488838 -0.4386423892898313 0.9003668290045332
12491411 -0.4379968451118986 0.9004367495321134
12493984 -0.43817443487552377 0.9003291267611889
12496557 -0.4378420225455633 0.9005395402950935
12499130 -0.4380049228092797 0.9009781329653147
12501703 -0.4373152663522252 0.9010165717960864
12504276 -0.4369075483750577 0.901072020467089
12506848 -0.4371868527277204 0.9003727046415206
12509421 -0.4372878979581164 0.9005747906323058
12511994 -0.43674603515944516 0.9007832816501977
12514567 -0.4364881854871882 0.9002436063099887
12517140 -0.4365330391506936 0.9003041070638993
12519713 -0.43678664699230435 0.9011423744320078
12522286 -0.43597900445417603 0.9007166853247227
12524859 -0.4358550910841894 0.9008903721498843
12527432 -0.436426175651356 0.9016559973476186
12530005 -0.4362521080347398 0.9014843035428713
12532578 -0.4354852495320861 0.9012623930415928
12535151 -0.4350279409292463 0.9014704806937759
12537723 -0.435612610131228 0.9015013039983932
12540296 -0.4354017450384871 0.9018664050190782
12542869 -0.43504134225610686 0.902287525057945
12545442 -0.4342625710832782 0.9024807077531731
12548015 -0.4343578405722226 0.9023912037218955
12550588 -0.43488779277561534 0.9027043711921472
12553161 -0.4342692534594427 0.9026187525507456
12555734 -0.4335950082903314 0.9015351615617462
12558307 -0.43382756795873084 0.9017048863048743
12560880 -0.43430028491453776 0.9023638581123212
12563453 -0.4333848421750892 0.902705439942096
12566026 -0.4329447071191946 0.902859145886627
12568599 -0.4332778699279616 0.9031287998025672
12571171 -0.43359435283612346 0.9024527261060759
12573744 -0.4335210284966768 0.9028124964258274
12576317 -0.43266060985689814 0.9033391793751527
12578890 -0.43272172317710694 0.9034405199408032
12581463 -0.4329645147802044 0.903245852348617
12584036 -0.4330168557012977 0.9039144431774464
12586609 -0.43185118767563613 0.9045097241496085
12589182 -0.43235894350791987 0.9045114598886785
12591755 -0.4324547814888534 0.9044710100227932
12594328 -0.4321556295732192 0.9045746366937849
12596901 -0.4311261385822452 0.9037039898673276
12599474 -0.4312917508258001 0.903279424639049
12602046 -0.43159346110374314 0.9034646304004764
12604619 -0.43089609803162005 0.9039260395136184
12607192 -0.43028075845102326 0.9042127963009705
12609765 -0.43050903962137865 0.9043215960839548
12612338 -0.43028358878591294 0.9040470015546715
12614911 -0.43046562807072347 0.9043099108233523
12617484 -0.4302109617425151 0.9040623529391392
12620057 -0.4296126364904256 0.9045084043098939
12622630 -0.42950243345077416 0.9043084903037141
12625203 -0.42961910136779385 0.9058411422762483
12627776 -0.4287471397306796 0.9056302879990703
12630349 -0.4286856065736833 0.9057262890135346
12632922 -0.4290798712235108 0.9059425560979545
12635494 -0.42907598331716834 0.9060326111471088
12638067 -0.428662216417473 0.905392922482726
12640640 -0.42876960462312735 0.9052857921529157
12643213 -0.42904647069035035 0.9052870844020051
12645786 -0.42883064367802587 0.9060375144673147
12648359 -0.428470014456224 0.906030975524952
12650932 -0.4276020149304225 0.9064032940350241
12653505 -0.4272408951063322 0.9062210284680676
12656078 -0.42753373272848055 0.9066196832027568
12658651 -0.42740658023537037 0.906323330787718
12661224 -0.4267543554388818 0.9064353909433068
12663797 -0.4274461394931562 0.9058114983795189
12666369 -0.42716638380658756 0.9063046949392193
12668942 -0.4270006595029643 0.9065914087613011
12671515 -0.4268245318888396 0.9062931480900818
12674088 -0.4264283878722062 0.9064918842493624
12676661 -0.4259628286953492 0.9072971168842385
12679234 -0.4257156426846392 0.9071686807629681
12681807 -0.42464929751800423 0.9068813689914549
12684380 -0.42578914005809865 0.9077852034754955
12686953 -0.4258374220529769 0.9072365179311778
12689526 -0.4254049554443216 0.907365784809645
12692099 -0.4247278892789066 0.9073552837370481
12694672 -0.4245005469642089 0.9069518681701114
12697245 -0.4247871633664814 0.9070625743610328
12697245 -0.4246135388562635 0.9073639270835488
12699871 -0.42442774931196736 0.9078474954106371
12702497 -0.42455150580110756 0.9077962450916718
12705123 -0.42440899970580964 0.9077205043084662
12707749 -0.4244480974187365 0.9076228853886201
12710375 -0.42406291701485044 0.9074694160008995
12713001 -0.42362472091064257 0.9073451790479877
12715627 -0.4241130991509855 0.9079541555882107
12718254 -0.4236545648201379 0.9078109459329146
12720880 -0.4234896953901074 0.9083628131932221
12723506 -0.4235251381038307 0.9080026678723119
12726132 -0.42259341294031455 0.9081861670054304
12728758 -0.4227780966795503 0.9086742077923742
12731384 -0.42280292684472676 0.9088387693292527
12734010 -0.42305412124674563 0.9089738059108158
12736636 -0.4227913304848627 0.9087188172192358
12739263 -0.4218372913915045 0.9082496450646259
12741889 -0.4224499658346575 0.9083674292877703
12744515 -0.42227964419807046 0.9090404402993985
12747141 -0.4220560555964978 0.9096246655546729
12749767 -0.42175314762273536 0.909188650233403
12752393 -0.4210091474391797 0.9092232777524978
12755019 -0.4207481495763271 0.9089069550222957
12757645 -0.42116349386901797 0.9088879025319937
12760272 -0.42129085882833994 0.9097967415860947
12762898 -0.4203915771694615 0.9097999716989807
12765524 -0.420188498285522 0.9098667253721247
12768150 -0.42032966684103423 0.909705267583407
12770776 -0.4207184359454498 0.9102282938661617
12773402 -0.42025338071580776 0.9098906508647622
12776028 -0.42037521794290234 0.9098257935259609
12778655 -0.42007020682856805 0.9102102593513013
12781281 -0.4190740532619563 0.9105188010450265
12783907 -0.41945341337221964 0.9102891116594014
12786533 -0.4196434260792478 0.9103421772918626
12789159 -0.4193090223059803 0.9109469667326204
12791785 -0.4183056017414156 0.9106725753229243
12794411 -0.4180217142843725 0.910113109251875
12797037 -0.4185604439146162 0.9106083721686433
12799664 -0.41815854726279245 0.9106339687850965
12802290 -0.41856765016975717 0.910777551969393
12804916 -0.4185204238234548 0.9106056792984852
12807542 -0.41799078468908935 0.9108516287572197
12810168 -0.41815944435631247 0.9108399654356056
12812794 -0.4187633556992878 0.9117039795954722
12815420 -0.41821304924787167 0.9118631993677561
12818046 -0.41779774092605404 0.9111348100186625
12820673 -0.4172922149773386 0.9111078808714292
12823299 -0.416881035997939 0.9116528287879728
12825925 -0.41652593239517066 0.9111707788677401
12828551 -0.41669356688968306 0.9115092792916573
12831177 -0.4163540155262362 0.9114854203105585
12833803 -0.415528978563168 0.9119721208701737
12836429 -0.4153352381793759 0.9118906048742407
12839056 -0.41592527712476896 0.9117039874839075
12841682 -0.4153361854778458 0.9120737073198476
12844308 -0.4154713377553816 0.9119107965839403
12846934 -0.41555414609007213 0.9124858619260049
12849560 -0.415286807504877 0.9123436275485531
12852186 -0.41521139141407637 0.912714610029276
12854812 -0.41451705531084154 0.9123347739940841
12857438 -0.41416627820434976 0.912028929613899
12860065 -0.4141556066288408 0.9123423513630714
12862691 -0.4143473750527901 0.9128298546789891
12865317 -0.4143548872051089 0.9129443240805155
12867943 -0.41446019975809684 0.913369771987202
12870569 -0.41381693912484524 0.9125364395262853
12873195 -0.4136355016048893 0.913149608064237
12875821 -0.4136654981752499 0.9127603789370664
12878447 -0.4131175734208758 0.9135131441228643
12881074 -0.4129664267538501 0.9130187630511881
12883700 -0.41279551642914253 0.9131658707433689
12886326 -0.41211527417714305 0.9129502335496088
12888952 -0.411905574934411 0.9135415870672783
12891578 -0.41226351632724056 0.9132598971204104
12894204 -0.4123274756813313 0.9139017866394957
12896830 -0.4119874122019007 0.9138451226750747
12899457 -0.41212797083374136 0.9129078249072984
12902083 -0.41227566180236425 0.9135553949733541
12904709 -0.41190314106743503 0.9136685326635559
12907335 -0.411508248294198 0.9135707075126789
12909961 -0.41134952061796703 0.9141217048595238
12912587 -0.41092862350496534 0.9137289441076686
12915213 -0.41064575528290737 0.9141138605921468
12917839 -0.41082841644531615 0.9142602003497005
12920466 -0.41098968191931196 0.9151716759133773
12923092 -0.4107410577426598 0.9152118022935604
12925718 -0.4101202425796978 0.9143974350261035
12928344 -0.4108565028560253 0.9141236373154265
12930970 -0.4097522140572192 0.9146101788674916
12933596 -0.4102135115533544 0.9149831389901972
12936222 -0.40976428075862503 0.915329981009857
12938848 -0.4095920470585674 0.9156882723993778
12941475 -0.4092012722535061 0.9153123260731538
12944101 -0.40887926240007066 0.9148534004905969
12946727 -0.40861540351377157 0.9151947118083835
12949353 -0.40857267125662816 0.9158823682388457
12951979 -0.40793713427770084 0.9155975695323462
12954605 -0.4085294401151787 0.915375033552987
12957231 -0.40830323437086957 0.9154444930640289
12959858 -0.40759710500551943 0.9158567022077587
12959858 -0.407626968269071 0.9163291584997963
12962538 -0.40738005367715885 0.9169187329262283
12965218 -0.40729642628080115 0.9167006391183079
12967899 -0.40713180205816957 0.9165956355540762
12970579 -0.40745745243826015 0.9163031261892385
12973260 -0.4065054732032873 0.916116797221981
12975940 -0.40708064407894756 0.9159236420457936
12978621 -0.407436796850347 0.9152146169230827
12981301 -0.40667902875294276 0.9153474450281631
12983982 -0.4066253526057983 0.9154616427395145
12986662 -0.40633353624573776 0.9160573917651453
12989342 -0.40638447581811477 0.9171767484082157
12992023 -0.4059923903833132 0.918030690459397
12994703 -0.40598000636358184 0.917749205742697
12997384 -0.40608824921025116 0.9171225790096449
13000064 -0.40563040833945607 0.9171653408849287
13002745 -0.405440713031593 0.9169976624636091
13005425 -0.4049062165741724 0.9163167149305497
13008106 -0.4051754897383688 0.9160519848064199
13010786 -0.40435721344033076 0.916012525944926
13013467 -0.40439750283790493 0.9173285084022598
13016147 -0.4044141002940789 0.9168281722342059
13018827 -0.4040025091752441 0.9177910369278935
13021508 -0.40413292374683346 0.9180021235180149
13024188 -0.4042292710237364 0.9180110879433795
13026869 -0.40396462602406336 0.9176357968398828
13029549 -0.40420481951908355 0.917568208533041
13032230 -0.4034180376438456 0.9174626785658583
13034910 -0.4030102878014624 0.9168348886608007
13037591 -0.4037004550591727 0.91729245222436
13040271 -0.4034014060909131 0.9172888468417042
13042951 -0.4030183589497562 0.9178829594433162
13045632 -0.4034954640161117 0.9181094051700418
13048312 -0.40294603688047353 0.9177905015098772
13050993 -0.4028466270663555 0.9187568883540059
13053673 -0.4023967395402539 0.9187995556302894
13056354 -0.40195343170797854 0.9189943602330557
13059034 -0.4021157531836802 0.9186168989227028
13061715 -0.4012665687813329 0.9188389379348079
13064395 -0.40121187093559313 0.919211513082887
13067076 -0.4011852854271931 0.9194462696597083
13069756 -0.4006809710496041 0.919381318068251
13072436 -0.4011949866782927 0.9198068078153943
13075117 -0.40138892848705265 0.9188248367435579
13077797 -0.40106975463248795 0.9191964941487286
13080478 -0.40031243129202326 0.9188009486572284
13083158 -0.40033895376603856 0.9188467625856926
13085839 -0.3993509404861484 0.9187962758066784
13088519 -0.4000916489917303 0.9193557000817748
13091200 -0.39949932414910566 0.91964837748987
13093880 -0.3995644169858084 0.9197797229252146
13096560 -0.39965145147290226 0.9198354737244913
13099241 -0.39895794074524377 0.9196866533569721
13101921 -0.39843496036368586 0.9195504557284209
13104602 -0.3984821938746889 0.9203834454016182
13107282 -0.3985534118409532 0.9201570831906652
13109963 -0.3982234746085558 0.920284120479414
13112643 -0.39806963807553175 0.9203338973241475
13115324 -0.3979046772308481 0.9199996863596817
13118004 -0.39841177060718586 0.9198089080065157
13120685 -0.3979145239198589 0.9199191655946725
13123365 -0.39796127049711016 0.9202177983914059
13126045 -0.39735293435092633 0.920961585915951
13128726 -0.39747071819554974 0.9206426544215884
13131406 -0.39771493236257943 0.9209047815041074
13134087 -0.39709648427358324 0.9209617552450767
13136767 -0.39707979385432396 0.9210653516765184
13139448 -0.397108539437147 0.9206029636565825
13142128 -0.3969445613133827 0.9207450534186243
13144809 -0.39636025366814487 0.9204659254687435
13147489 -0.39570712421737025 0.9214384427489614
13150169 -0.3962112983690265 0.921343547627919
13152850 -0.39621412096107467 0.9216912590139712
13155530 -0.39528809798155906 0.921782544123148
13158211 -0.3958361721710742 0.9217917924566281
13160891 -0.39606184895471647 0.9211885971685229
13163572 -0.39523614622580283 0.922081774797686
13166252 -0.3945796128441862 0.9224504745078029
13168933 -0.3938861016113658 0.9225967774342686
13171613 -0.39428710526836996 0.9224432624703629
13174294 -0.3938790096998307 0.9221741789011066
13176974 -0.3932189868181293 0.9219680576341195
13179654 -0.39403858417832743 0.9219922502315455
13182335 -0.3940955075196624 0.9220100461523209
13185015 -0.39368455881179293 0.9219712439099059
13187696 -0.39333049033742107 0.9227066190051232
13190376 -0.393353932616648 0.9227532120084923
13193057 -0.3931223202226384 0.9231161692977838
13195737 -0.3928935540595431 0.9228739808961048
13198418 -0.39287414074118965 0.9226022080349802
13201098 -0.3929909971914471 0.9222282304888897
13203778 -0.39331198482542773 0.9222975351197702
13206459 -0.39249256922809345 0.9225832398842286
13209139 -0.39237179260333294 0.922707409955151
13211820 -0.3922042783468341 0.9230253122639147
13214500 -0.39175379000567556 0.9232882393056996
13217181 -0.39156584121945925 0.9230471708388234
13219861 -0.39217597486135897 0.9235955488427263
13222542 -0.3919512611558024 0.923148394721784
13225222 -0.39138170963860314 0.9228379630626246
13227903 -0.3906415265295703 0.9233567458205215
13227903 -0.39131784463093294 0.9233519950625277
13230638 -0.39173760950943415 0.9227835744513603
13233374 -0.39122111670311893 0.9228216743899001
13236110 -0.39120076034671003 0.9231157090981654
13238846 -0.3907516470637009 0.9231353544371474
13241582 -0.38953102986661065 0.924336336494173
13244318 -0.39006135645482237 0.923366047501765
13247054 -0.3899646810047697 0.9239431195811991
13249790 -0.3894097041590523 0.9243001907488775
13252526 -0.38896674678760657 0.9245600602996442
13255261 -0.38902051975223173 0.924521000156992
13257997 -0.3894555293236074 0.9240153846591952
13260733 -0.38881166710527687 0.9235251873746795
13263469 -0.3891767815954344 0.9236555443234942
13266205 -0.38902700098066617 0.9236480798742145
13268941 -0.38892106833249723 0.9240246572139276
13271677 -0.3884410559748763 0.924409322018305
13274413 -0.3882344962075106 0.9247697046852238
13277149 -0.3872743971043756 0.9244888576798639
13279884 -0.38735582174119104 0.9239436752982263
13282620 -0.3872958206263911 0.9242464814697072
13285356 -0.3868141825273726 0.9246617936574029
13288092 -0.3869641727188633 0.9247473841713619
13290828 -0.38676857105040796 0.9247098610054811
13293564 -0.3868118571139422 0.9246482832840369
13296300 -0.38726614385544506 0.9246407986731271
13299036 -0.38661098073076966 0.9240755722899994
13301772 -0.3867756618325616 0.9248758017303769
13304507 -0.38682167149953306 0.9247871661666506
13307243 -0.3865644770861001 0.924256786489433
13309979 -0.38656314808813513 0.9244854240155657
13312715 -0.38570909308966655 0.925287135585917
13315451 -0.38524797745036815 0.9256572011693985
13318187 -0.3849861169822437 0.9261363451591559
13320923 -0.38511241008582275 0.9257558459951681
13323659 -0.38498701064718016 0.9264298370657025
13326395 -0.38474410336906056 0.9262293063082023
13329130 -0.384452402545662 0.9259981778582664
13331866 -0.38456101957871947 0.9265193270623655
13334602 -0.38427281705736355 0.9267474716105651
13337338 -0.38419640243223124 0.9268193310321488
13340074 -0.38469266547076847 0.9264081772954902
13342810 -0.3842244131803321 0.9264272373568563
13345546 -0.38442856505018463 0.927193599537704
13348282 -0.38376271211995366 0.9267421350352181
13351018 -0.38427014279585525 0.9268099322176327
13353753 -0.3835488176241165 0.9268730249200048
13356489 -0.38312443268698804 0.9272086737107057
13359225 -0.3831153506176092 0.9270170283702052
13361961 -0.383070643787686 0.9270423748614103
13364697 -0.3831771089834989 0.9273597788562271
13367433 -0.3831280650560171 0.9268021615914006
13370169 -0.38277574809471526 0.9270066687371622
13372905 -0.382404277501936 0.9271409442476025
13375641 -0.38220301203354445 0.9270090223916261
13378376 -0.381977802189883 0.9276473129294867
13381112 -0.3816338432071047 0.927651007565352
13383848 -0.3811881007050491 0.9278150903139442
13386584 -0.38116530990407144 0.9278871777033723
13389320 -0.38094363420781086 0.9278127660175041
13392056 -0.38070992512767704 0.9278403445808308
13394792 -0.38056952778788433 0.9277384616917834
13397528 -0.3807041167362077 0.9278204980614301
13400264 -0.38092816729204976 0.9285115536930331
13402999 -0.3804770327345623 0.9288999984132335
13405735 -0.3801304701184839 0.9275777832811578
13408471 -0.37983090625404153 0.927783612131204
13411207 -0.380198956340294 0.9275245042267585
13413943 -0.37935281529382936 0.9282986648031215
13416679 -0.3793172653222423 0.9285869161148003
13419415 -0.3787283010097224 0.928926872378459
13422151 -0.37776704276644 0.9292944770130751
13424887 -0.37792760404877224 0.9292700417709465
13427622 -0.377884429370084 0.9281045447706866
13430358 -0.37767947562364107 0.9286593679638968
13433094 -0.3782360113317479 0.9290998174890525
13435830 -0.37867241273286484 0.9293903222483576
13438566 -0.3783424093146027 0.9294385550508357
13441302 -0.3781215514827393 0.9295589086381513
13444038 -0.3774331789796965 0.9297002819120613
13446774 -0.37712910644809894 0.929862645861062
13449510 -0.37703308357447346 0.929581497216434
13452245 -0.37655379616787504 0.9297871721964576
13454981 -0.377066100278905 0.9296789849985374
13457717 -0.3767023780581595 0.9302335739758373
13460453 -0.3764216313927947 0.9300827500938856
13463189 -0.3761897062099785 0.9299660160037282
13465925 -0.3759124958952873 0.9298634387448023
13468661 -0.37635942495633967 0.9301264222718452
13471397 -0.3763300012232644 0.9304650879083712
13474133 -0.37648658082632547 0.9307335976825062
13476868 -0.3761575564543739 0.931325626021972
13479604 -0.3762738270440828 0.9307012701059908
13482340 -0.3757584151774871 0.9310198424074769
13485076 -0.37516334351033553 0.9313645151225411
13487812 -0.3747455518468998 0.9310191607523144
13490548 -0.37467937980355137 0.9308290851131403
13493284 -0.3743489273405212 0.9313422767431798
13496020 -0.37389912193796554 0.9313288564498097
13498756 -0.37418294054163925 0.931359930413416
13501492 -0.3742802267544185 0.9304453472835786
13501492 -0.3736253994190022 0.9307537762504213
13504284 -0.37385208971173983 0.9309423736873773
13507076 -0.373985815676781 0.931301154030958
13509869 -0.3740836235631986 0.931549198553831
13512661 -0.3744066366282678 0.9313010180413815
13515454 -0.37406525347192066 0.93139080725907
13518246 -0.3734935250278352 0.9315331631645046
13521039 -0.3726516651381229 0.9319711388623659
13523831 -0.3724034345754561 0.9317147008315596
13526624 -0.37262335233618155 0.9321589001500112
13529416 -0.37268189857476614 0.9321676040702412
13532209 -0.3718669326897277 0.9323899885308741
13535001 -0.37154391968590994 0.932439212360229
13537794 -0.3714523709427674 0.9322385158352695
13540586 -0.37119739884173925 0.9323202522260796
13543379 -0.37093624680731824 0.9324414651640938
13546171 -0.37127068702301796 0.9320539543488678
13548963 -0.37133355037665733 0.9320851081923427
13551756 -0.3712306037042902 0.932250462396003
13554548 -0.370601433537365 0.9324292129748133
13557341 -0.37030335907665374 0.9322098681452318
13560133 -0.3699752856592508 0.9324153818806143
13562926 -0.3699175451436146 0.9328885321860719
13565718 -0.369431856077441 0.9327042997104782
13568511 -0.3695340253086075 0.9330515206218272
13571303 -0.3695268140449278 0.9331907691717155
13574096 -0.3695753389768851 0.9335595201478288
13576888 -0.369074313386151 0.9338123715338837
13579681 -0.36904320264068513 0.9336505478391228
13582473 -0.36843673388009907 0.9334855596458882
13585266 -0.3686986115576396 0.9332583637394
13588058 -0.3683325037464595 0.9331335875186698
13590851 -0.3682850357068138 0.933270542660843
13593643 -0.3680421241330336 0.9337791520355152
13596435 -0.3676546652757183 0.9339339741814003
13599228 -0.3672353486487558 0.9341475332372718
13602020 -0.36694334012677343 0.9339971387433658
13604813 -0.3672334108198002 0.9333875202353633
13607605 -0.3672085483962719 0.9338206745678588
13610398 -0.36672386442833427 0.9335299324401993
13613190 -0.3664988434795838 0.9336419187508656
13615983 -0.36674255393792327 0.93441334777413
13618775 -0.3664365926911432 0.934155802066
13621568 -0.36577636294205795 0.9341759062869156
13624360 -0.3653079481006692 0.9338091547554873
13627153 -0.36547804674899387 0.9341192027867395
13629945 -0.36486177359489774 0.9342991604566512
13632738 -0.36437655273085445 0.9345502357908914
13635530 -0.36460598177246295 0.9347861703267168
13638323 -0.3643100386042135 0.9347098256371854
13641115 -0.36469468375532094 0.9344482236417125
13643907 -0.364910036997055 0.9350922557433522
13646700 -0.3647421864289379 0.9349140202770356
13649492 -0.36427652216697903 0.9353358411370015
13652285 -0.36388041942076416 0.9348735104320536
13655077 -0.3638037531781308 0.934437514853318
13657870 -0.36403559803923957 0.9344966662703131
13660662 -0.3639364121945401 0.9350030481748965
13663455 -0.3639743267079384 0.9352192360504274
13666247 -0.36439430060105543 0.9350704102018425
13669040 -0.364069105511852 0.9350282045848377
13671832 -0.364018061544042 0.9347858125302418
13674625 -0.36381377106660967 0.9349439353505209
13677417 -0.36303375315422537 0.9352704685729912
13680210 -0.36295958008527235 0.9356354848782501
13683002 -0.3631583583314022 0.9353118449566681
13685795 -0.3627499677194246 0.935699712400344
13688587 -0.36277560667888514 0.93618590647574
13691379 -0.3628830225179721 0.9361925859695357
13694172 -0.3623626703258062 0.9362857035565461
13696964 -0.36199301833668546 0.9359028885931536
13699757 -0.3620711896788549 0.9359820038795067
13702549 -0.3619294023774685 0.9358386538303972
13705342 -0.3615840370580283 0.9360806834723269
13708134 -0.3610923675358919 0.9359532943266815
13710927 -0.36113703830796345 0.9362757790658243
13713719 -0.3611980336974408 0.9361811860368356
13716512 -0.3606975993168468 0.9359497373650185
13719304 -0.36042000163177923 0.9365393310222329
13722097 -0.36010244786491785 0.9367403146055657
13724889 -0.3605499069837839 0.9369484227190172
13727682 -0.3598786916826939 0.9366288071563164
13730474 -0.35973345573048043 0.9371961470343506
13733267 -0.3598401058437793 0.936795196288025
13736059 -0.35943007706300806 0.9372423649638423
13738851 -0.3597733912619305 0.9374794837852799
13741644 -0.3591171186131037 0.9380338310915957
13744436 -0.3587764514485721 0.937507326393901
13747229 -0.35864817138330973 0.9376820737834778
13750021 -0.3591302873587808 0.9379113445297589
13752814 -0.358784929069322 0.9378590824256541
13755606 -0.3589148479663171 0.9376076802221589
13758399 -0.35869695377701855 0.9378119942834906
13761191 -0.35847886871605966 0.9375692963187486
13763984 -0.35786413100615244 0.9374956597909265
13766776 -0.35760728752746984 0.9378894120959463
13769569 -0.3573595475090195 0.9378782241365069
13772361 -0.35775113626219296 0.9374778224288747
13775154 -0.3572991435494159 0.9378286623200741
13777946 -0.3572161122946265 0.938222419583199
13780739 -0.35640656451390484 0.9380470564916243
13780739 -0.3563609388592862 0.9385830956160295
13783589 -0.3566566506803747 0.9377607349908706
13786439 -0.3563925298943032 0.9382660450293117
13789289 -0.35609578880479653 0.93864001807965
13792139 -0.3556727719444885 0.9389313824798233
13794990 -0.3552347049837286 0.938784967512284
13797840 -0.355337211734839 0.9383836896855404
13800690 -0.35482324873641213 0.938754273630556
13803540 -0.3547287831228966 0.9380594476980154
13806391 -0.35489569476477045 0.9380425034342619
13809241 -0.3544705190068654 0.9385083314567996
13812091 -0.35525590897165815 0.9385228557957285
13814941 -0.3547920938949903 0.9388732323131193
13817791 -0.35468713883655983 0.938947965455648
13820642 -0.35399477902578425 0.9393342291109537
13823492 -0.35376623114241884 0.9390146517111737
13826342 -0.3531896456755325 0.9392028097096663
13829192 -0.3540427897360617 0.9392092373915797
13832043 -0.35384708449231966 0.939204713632313
13834893 -0.35354098341053913 0.9390707360549414
13837743 -0.35334433311036656 0.9399069385421293
13840593 -0.35265677290568737 0.9399560515065482
13843444 -0.35287065114927074 0.9395717035346567
13846294 -0.35231746081438486 0.9393909880344891
13849144 -0.35261322747243073 0.9401312023335099
13851994 -0.3526209021702079 0.9398588207261238
13854844 -0.3518150224383894 0.9395200612703244
13857695 -0.351942144015768 0.9397198311092636
13860545 -0.35188982094488774 0.9396232046581848
13863395 -0.3516586219234389 0.9403109575932507
13866245 -0.3510106117969891 0.9403701169211841
13869096 -0.3502978123388567 0.9405335949558812
13871946 -0.3509528317649908 0.9402763826835601
13874796 -0.35008944438354667 0.9409625255323405
13877646 -0.3503056843798894 0.9409448706024001
13880497 -0.34971635028111026 0.9408966269894765
13883347 -0.3496368599187245 0.940706898382253
13886197 -0.35059887851261146 0.9406226598065955
13889047 -0.3502627872709419 0.9409673416308357
13891897 -0.34970759291845105 0.940854270382837
13894748 -0.3494292709729743 0.9401933645485842
13897598 -0.34922529453815176 0.9403855676079532
13900448 -0.349638908093957 0.9405324965832552
13903298 -0.34914203069154126 0.9403264570888461
13906149 -0.3491780731064742 0.9408113632624132
13908999 -0.34905848401815465 0.9407036110874682
13911849 -0.3479772349046123 0.9410752085013694
13914699 -0.34802850484826026 0.9411918060208359
13917550 -0.3479835236116739 0.9412523597931146
13920400 -0.34808506683145923 0.9414851714414804
13923250 -0.34734487382168816 0.9419331109817508
13926100 -0.3470648132417397 0.9417456596519712
13928950 -0.3467686492394029 0.9421745429745638
13931801 -0.3470300951564718 0.9426799562253885
13934651 -0.34663862019435815 0.9424652095810752
13937501 -0.34655686570012495 0.9422645905268908
13940351 -0.3459176880012871 0.9419579079151207
13943202 -0.3458579873319848 0.9422214218080439
13946052 -0.3459788764558572 0.9426080099628853
13948902 -0.3454993580040326 0.9419753540502754
13951752 -0.345331394516617 0.942583423309289
13954603 -0.3452804055894006 0.9422972249053104
13957453 -0.3456326407294138 0.9424343971890898
13960303 -0.34568505979645375 0.9429949159510237
13963153 -0.34581190621076696 0.9429413182755699
13966003 -0.345556336313183 0.9421246469500527
13968854 -0.3454397487324559 0.9430607441444322
13971704 -0.34472921597120876 0.9421932532150622
13974554 -0.34461386489988666 0.9419985332809591
13977404 -0.34403179076078044 0.9421137933988821
13980255 -0.3440910333823364 0.9421161553153917
13983105 -0.3439197534397317 0.942350614540644
13985955 -0.34385170319066843 0.9420740523522793
13988805 -0.34309916776531063 0.9427051937077038
13991656 -0.3425816145533262 0.9430122977277723
13994506 -0.3424273176756437 0.9432079168958449
13997356 -0.34286492250577927 0.9430041511978374
14000206 -0.3429173169330305 0.9431696527196598
14003056 -0.34223020010389493 0.944211356867842
14005907 -0.34145390691257255 0.944674232758808
14008757 -0.3416562938404429 0.9442975177446108
14011607 -0.34235422508953667 0.943969604246895
14014457 -0.34218615183653733 0.9438211581752771
14017308 -0.3419324342590288 0.9439435062228017
14020158 -0.34169020475276884 0.9436516584932727
14023008 -0.34167903688336004 0.9430060496749034
14025858 -0.34152235122631747 0.9437592353044896
14028709 -0.34064876077636996 0.9445113382799234
14031559 -0.3403216012319189 0.9437760005888643
14034409 -0.3400387120150131 0.9445555421710699
14037259 -0.3397710777333189 0.9448492888496434
14040109 -0.3386853888400671 0.9450014524044661
14042960 -0.33892792138071753 0.9444625849852745
14045810 -0.3387354706061788 0.9444193627450305
14048660 -0.3389940752656671 0.9445936812950108
14051510 -0.3390664983108069 0.9453007231156652
14054361 -0.3384743679959572 0.945437537046907
14057211 -0.33898446893941725 0.9452851606826824
14060061 -0.3391218377182068 0.9451876696917493
14062911 -0.3388816108503842 0.9450154082058895
14065762 -0.3391455450467477 0.944768091221567
14065762 -0.3390383960477008 0.9452741659030258
14068671 -0.33833026335952526 0.9453736424264305
14071580 -0.33829803554784005 0.945483326711891
14074489 -0.33826986233484596 0.9455925747120091
14077398 -0.33740404790253975 0.9456919125039197
14080307 -0.3372724391529469 0.9456305030274048
14083217 -0.3367556259457726 0.9459948167856883
14086126 -0.3374044026006502 0.9452818086118752
14089035 -0.33736561562779277 0.9450232662080746
14091944 -0.3375340025791599 0.9455549403800023
14094853 -0.33713960314157887 0.9448932617663026
14097762 -0.3364689079059541 0.9455226747612582
14100672 -0.3358403561049663 0.9454515697619417
14103581 -0.33532110583821667 0.9453643832011582
14106490 -0.3355507494617395 0.9457688318381182
14109399 -0.3346320991765134 0.9459194821525861
14112308 -0.3344640488284702 0.9459910455864154
14115218 -0.3348091735507415 0.9459431458226183
14118127 -0.3348702868634908 0.9453343124376602
14121036 -0.3347067892741728 0.9452675489651204
14123945 -0.3340996960248102 0.9461921386669231
14126854 -0.33407753582544786 0.94609425652276
14129763 -0.333599207649875 0.9464956938321708
14132673 -0.3336987994922762 0.9465729830161643
14135582 -0.3334184815750186 0.9461342086629062
14138491 -0.33388652540241853 0.9455513467470346
14141400 -0.3340410424094931 0.9458179077569734
14144309 -0.33353424121383884 0.9463281350017898
14147219 -0.3333302558681725 0.9457863757110454
14150128 -0.33250335295230815 0.946575142116101
14153037 -0.3318986866421141 0.9462716089426111
14155946 -0.33172346166567585 0.9467447126358522
14158855 -0.3316649675842334 0.9471424216688772
14161764 -0.3314537746323891 0.9471388052039893
14164674 -0.33226796978791806 0.9469531816173063
14167583 -0.3328538978263917 0.9469941577127778
14170492 -0.33206982893087306 0.9471127046099088
14173401 -0.3315230733604892 0.9474248618102165
14176310 -0.33154484977255416 0.9477906350453911
14179220 -0.3307744626478849 0.9474627088733333
14182129 -0.330676159422551 0.9477808834020155
14185038 -0.3303231886693538 0.9479295163210907
14187947 -0.33017948218947546 0.9483035004643708
14190856 -0.33074044188809665 0.9477271061541696
14193765 -0.330929332242715 0.9480447592387172
14196675 -0.33091227067775464 0.9479911835571804
14199584 -0.33000470180988417 0.9478497901811515
14202493 -0.32975942567771965 0.9474704442549379
14205402 -0.3296251609883516 0.9485721710850674
14208311 -0.3287780902637915 0.9482123630496253
14211221 -0.3280946031355222 0.9488754847260579
14214130 -0.3284676892599726 0.9488282532925078
14217039 -0.3284684752093946 0.9486656202805782
14219948 -0.3281652147292527 0.9486125817950938
14222857 -0.3282488813360872 0.9492083860312883
14225766 -0.3283969273861171 0.9497392462713068
14228676 -0.32857047034183806 0.9491880350364926
14231585 -0.3286065799635272 0.9490686066521249
14234494 -0.3279596565706248 0.9487017181864931
14237403 -0.32775078635092975 0.9491334399721
14240312 -0.3271452559763984 0.9496502206329547
14243221 -0.32628092198601794 0.9493886700158978
14246131 -0.3265967311366045 0.9493253417077566
14249040 -0.3266313330815862 0.9492219553498162
14251949 -0.3266930632900184 0.9490179464823412
14254858 -0.3267849522951791 0.9494975405971545
14257767 -0.3267772267512546 0.9496007799719396
14260677 -0.3261605967367321 0.9492511879995534
14263586 -0.3259051110368586 0.9489582894662763
14266495 -0.32581938954419287 0.9500459353796544
14269404 -0.3254105439403181 0.9497708490407177
14272313 -0.32528299855964715 0.9503423588871286
14275222 -0.3259525801679712 0.9498502759117453
14278132 -0.3256488050579263 0.9500308133402268
14281041 -0.32536336784227676 0.9495499833774647
14283950 -0.32464688829413846 0.9495151456166655
14286859 -0.32439107776786263 0.9494481496459953
14289768 -0.3242596868484689 0.9493636963404571
14292678 -0.323926135055171 0.9495505599957287
14295587 -0.3240455069193508 0.9503897195255551
14298496 -0.32434798404387294 0.9499027028709555
14301405 -0.32398028008193286 0.9501692892495239
14304314 -0.32411460978365714 0.9498864896574032
14307223 -0.32378696335765167 0.949566367451301
14310133 -0.3234613705646379 0.9503225669764049
14313042 -0.32251552302756936 0.9504146645554945
14315951 -0.32239415164808305 0.9503309849923718
14318860 -0.3220562568075655 0.950990805807727
14321769 -0.32265646799444 0.9510207781680815
14324679 -0.32241369811627046 0.951151983763789
14327588 -0.32247237499751213 0.9507909794172122
14330497 -0.3224938837381688 0.9506280944398177
14333406 -0.32211192724601145 0.9512966107895815
14336315 -0.32182041695262487 0.9514526481436778
14339224 -0.32087018287923014 0.9515518424906315
14342134 -0.3207344314295133 0.9515321313850529
14345043 -0.32075782917188256 0.9510681510927713
14347952 -0.3207543953773716 0.9516274970311648
14350861 -0.32026951684673993 0.9510950481164517
14353770 -0.31990898611836266 0.9511636905002455
14356680 -0.31963771062832347 0.9516831752569834
14356680 -0.3194492138537558 0.9516530843246706
14359649 -0.31972476865223004 0.9515437733242741
14362618 -0.31907655305610144 0.9517252516892842
14365588 -0.31917416400314824 0.9518365340907559
14368557 -0.31989760493382235 0.9518831031983995
14371526 -0.319108184221385 0.9513043065315544
14374496 -0.3179403637115717 0.9518245563883566
14377465 -0.3174972448716553 0.9522567506321242
14380434 -0.31860272177437066 0.9519357174694976
14383404 -0.31797030191401426 0.9523418198019965
14386373 -0.31776692492178166 0.9524901053774273
14389342 -0.31766203621195716 0.9523584893672362
14392312 -0.31802672745935195 0.9520789061798989
14395281 -0.3181626823534817 0.9525781828220169
14398250 -0.31871890750863935 0.9520080010694497
14401220 -0.31761789594483175 0.952738865363347
14404189 -0.3165934337790619 0.953015220794625
14407158 -0.3169596389536134 0.9531167470421287
14410128 -0.31656205711739943 0.9522976878140506
14413097 -0.31601342554264183 0.951762987341984
14416067 -0.3156081672897991 0.9517925955149288
14419036 -0.31624950383828543 0.9522892762423105
14422005 -0.3159063899872752 0.951796171566661
14424975 -0.31628528126435324 0.9527856997133571
14427944 -0.3152914549214665 0.9534994660361099
14430913 -0.31592365327833344 0.9528570526989809
14433883 -0.31637915159510294 0.9530978677850148
14436852 -0.3156539477573343 0.9528869584721504
14439821 -0.3151439647381061 0.9527240872474322
14442791 -0.31416445854537367 0.9532769674588377
14445760 -0.31481064761016553 0.953051147893286
14448729 -0.3142124960973375 0.9530830937058635
14451699 -0.3146773505750895 0.9532116995593284
14454668 -0.3139651297575751 0.9534283349744305
14457637 -0.31424710651666476 0.9532500307150088
14460607 -0.31384092235255656 0.9533897567604714
14463576 -0.3133479832015028 0.9539272933149502
14466545 -0.3128668216963893 0.9532829788155038
14469515 -0.3124749032425299 0.9535104185373082
14472484 -0.312981200620856 0.9533326969331313
14475454 -0.3123197671713502 0.9535839118277765
14478423 -0.3120359241524059 0.953745867169947
14481392 -0.3120076124979169 0.9539503886395974
14484362 -0.31212475623180586 0.9537837409330944
14487331 -0.31216904467321066 0.9544554200563434
14490300 -0.3118411486442056 0.9545071737437375
14493270 -0.3121118072844137 0.9541948508787842
14496239 -0.3114819469590086 0.954615488371833
14499208 -0.3119585913286366 0.9549254272743403
14502178 -0.3110383406278093 0.954686097314145
14505147 -0.31074497360465547 0.9545648564779995
14508116 -0.31042097992032947 0.9551453977925078
14511086 -0.31071380858754083 0.954507302981871
14514055 -0.3103611099518945 0.954010274470689
14517024 -0.310515094288785 0.9539048705985622
14519994 -0.3103754124068577 0.9538851397347734
14522963 -0.3098441406275202 0.9545260562574799
14525932 -0.30967912822692406 0.9542371948454608
14528902 -0.30950566184953604 0.9549037256224486
14531871 -0.30907686495983516 0.9551237831230189
14534841 -0.3093772223186035 0.9554960607749692
14537810 -0.3088464161938655 0.9553356181244337
14540779 -0.3087756566909387 0.9553179732436876
14543749 -0.3082548462259548 0.9551091817540533
14546718 -0.30771682861784905 0.9546308625229301
14549687 -0.30836207474433747 0.9548127996187322
14552657 -0.30867279642472245 0.9557001746137777
14555626 -0.30804428748134777 0.956313681810959
14558595 -0.307260742956211 0.9559296679857355
14561565 -0.30719021910614347 0.9560561128660768
14564534 -0.30638705447011216 0.9554176707748842
14567503 -0.30696720655500553 0.9554106504569052
14570473 -0.3065212201334301 0.9555310155669663
14573442 -0.3061233539164426 0.9551563406017439
14576411 -0.3065376271243109 0.9551662230827945
14579381 -0.30600884673042966 0.9561254254086662
14582350 -0.3063289245086511 0.9555441457244614
14585319 -0.30570018128562615 0.9561110958261219
14588289 -0.30576843001238074 0.9562451676536377
14591258 -0.30594394330583263 0.9559698945334427
14594228 -0.3056330291834369 0.9566841083122463
14597197 -0.30548888211792585 0.9564144542039765
14600166 -0.30545814654436126 0.9564969796609573
14603136 -0.30486866433450105 0.9561668164245469
14606105 -0.303809898833778 0.955635072232988
14609074 -0.30420186789851994 0.9566165905458549
14612044 -0.3035443393622721 0.9561095020416263
14615013 -0.3033626126834279 0.9565455240746509
14617982 -0.30349190436502543 0.9566968564688528
14620952 -0.3032887426639433 0.9565105384435658
14623921 -0.3035745955044644 0.9568844999840777
14626890 -0.3034384183582894 0.956624887869991
14629860 -0.30372354502944243 0.9562361914647534
14632829 -0.30376374690568786 0.9575011164019696
14635798 -0.30320945411498496 0.9573869176087085
14638768 -0.30289440309771126 0.9573978633739506
14641737 -0.3019053449213386 0.9566393194663844
14644706 -0.30150905597474553 0.9573003373803423
14647676 -0.3017987181809169 0.9571051372991416
14650645 -0.3014295043794483 0.9575077571981071
14653615 -0.30200181702953904 0.9580405533664261
14653615 -0.30177804695445476 0.9573589611925508
14656645 -0.3018659494860172 0.9573550518408475
14659676 -0.3021612382818947 0.9574723909562509
14662707 -0.3019368684019898 0.9577798071042058
14665738 -0.3015744881418756 0.9578298780483799
14668768 -0.30126328521228934 0.9576117507219978
14671799 -0.30117639881608066 0.9580833770370504
14674830 -0.3001489479673169 0.9580625496902584
14677861 -0.2994007422253008 0.9580561689919401
14680891 -0.29952834780848603 0.9577420761316823
14683922 -0.2988201206924661 0.958094395414463
14686953 -0.29853310841395975 0.9580335404290456
14689984 -0.2993412734357015 0.95776831361791
14693015 -0.300429476826232 0.9577974966869762
14696045 -0.30027160219604504 0.9580025851808716
14699076 -0.2989174835468285 0.9587288471841015
14702107 -0.29845905911704446 0.9580945552589559
14705138 -0.29803682616734817 0.9575502056046851
14708168 -0.2986365886752665 0.9585784979150216
14711199 -0.2984199790106289 0.9591621355683737
14714230 -0.29863015988968794 0.9593349370809638
14717261 -0.2985285028505218 0.958827008380705
14720291 -0.29847814505700904 0.9590556519650486
14723322 -0.29815629152621786 0.9595357046535381
14726353 -0.2979839939993863 0.9593043168222011
14729384 -0.29711277747344994 0.9591814862862745
14732415 -0.29765634445748473 0.9588669706410644
14735445 -0.2975303979487793 0.9595368751318517
14738476 -0.297170222172891 0.9595274396077318
14741507 -0.29657919100751484 0.9593782646096763
14744538 -0.2967932286693481 0.9592481707543665
14747568 -0.29609581702033 0.9595580156469783
14750599 -0.2952010752432867 0.9590714592268567
14753630 -0.2954507191834274 0.9589744288786308
14756661 -0.2958780888305564 0.9587952568411976
14759691 -0.2956479316074667 0.9592542747602263
14762722 -0.2955003050656687 0.9597618410957709
14765753 -0.2947021091948982 0.9595696510396582
14768784 -0.29503802668038315 0.9593503275500078
14771815 -0.294853039210035 0.9589985879807373
14774845 -0.2945759631002809 0.9598178160623358
14777876 -0.29303899900976516 0.9595279089775827
14780907 -0.2932468350003466 0.958765499075312
14783938 -0.2930445594675937 0.959219560013199
14786968 -0.29295987216014724 0.959683857858438
14789999 -0.29307966265882934 0.9597774546118176
14793030 -0.2927740499421414 0.9604973369654031
14796061 -0.2925921024099441 0.9601321487083277
14799091 -0.29424730877249616 0.9597243699299893
14802122 -0.29332749516100665 0.9599282381021584
14805153 -0.2924795271528436 0.9605809725174216
14808184 -0.2923220876954502 0.9603107671332514
14811215 -0.2927546941804763 0.9602825042264287
14814245 -0.2924308797986573 0.9606012038092241
14817276 -0.29178433681324945 0.9602633195999004
14820307 -0.2916215730594128 0.9607054274665761
14823338 -0.29218809403476503 0.9604121497179438
14826368 -0.291198388368579 0.9606492655177392
14829399 -0.29069250692077897 0.9606829705474352
14832430 -0.2901620059611411 0.9602751386224203
14835461 -0.2911887562865684 0.9608720336372949
14838491 -0.29013368898306474 0.9607141619155967
14841522 -0.28981213944418066 0.9611678765613666
14844553 -0.2896329654474438 0.9608475948490582
14847584 -0.29023082650849175 0.9608068840176075
14850615 -0.29005897712971784 0.9608800484185005
14853645 -0.28982476286996184 0.9612803552626064
14856676 -0.2897759787116188 0.9612223686444216
14859707 -0.29042399911987743 0.9611043087111528
14862738 -0.28948590319448275 0.9617468741086681
14865768 -0.28957851136381685 0.9611678154074866
14868799 -0.2893161166560349 0.961472388012185
14871830 -0.28934931032212524 0.9614921232862741
14874861 -0.2883532780461327 0.9618165643908696
14877891 -0.28781710179051484 0.9618302617207054
14880922 -0.2879356450877916 0.9620596297302569
14883953 -0.28706377404496114 0.9613463779912965
14886984 -0.28694362764002446 0.9619405492934489
14890015 -0.2866019691871157 0.9615954504153881
14893045 -0.287077414919169 0.9607760005180823
14896076 -0.2872527593670792 0.9612944391193498
14899107 -0.2871697418304998 0.9613850771964916
14902138 -0.2867664422282722 0.961895944902513
14905168 -0.28776375017722755 0.9619197470680585
14908199 -0.28690776919559063 0.9619988267419682
14911230 -0.28612581282191474 0.9622794820494011
14914261 -0.2859455434382119 0.9623764489921172
14917291 -0.2854257564704792 0.9620217410155194
14920322 -0.28561652177742863 0.9621294720640643
14923353 -0.284074395162541 0.9622970573209665
14926384 -0.28390807893792286 0.9629227611211115
14929415 -0.2848078695619397 0.9625549685749778
14932445 -0.28449419475918714 0.962081031790897
14935476 -0.2848329764898351 0.9625614762106838
14938507 -0.28466019398907955 0.9623669101084604
14941538 -0.28447076025848095 0.9624091999414393
14944568 -0.284757705222968 0.9616773052018789
14947599 -0.28392649891282573 0.9623063688932555
14950630 -0.28404413081252866 0.962773868321858
14953661 -0.2837265119346761 0.9632066132504508
14956692 -0.28431492099128597 0.9637845495492469
14956692 -0.2837333164029152 0.9633088191989649
14959785 -0.2825336362819576 0.9631127370076523
14962878 -0.28273425391548096 0.9628359562236385
14965972 -0.2838058693772325 0.9627202600996729
14969065 -0.2828521175747459 0.9629948390510861
14972159 -0.2821783368315204 0.9636533248430573
14975252 -0.2831640627907343 0.9637983373492323
14978346 -0.2822743585324495 0.9633841605920707
14981439 -0.2817277434302623 0.9636807347406471
14984533 -0.2823355091550602 0.9633599292263858
14987626 -0.28131365635499717 0.9634353646620526
14990719 -0.2812242232753369 0.9641631983026966
14993813 -0.28116732834495906 0.9638933181581635
14996906 -0.2807760321719 0.963772404822197
15000000 -0.2807699158618999 0.9638556759297329
15003093 -0.2814054684329231 0.9630887400617955
15006187 -0.2812469693728722 0.9630021465384994
15009280 -0.28075215655632224 0.9643295215289739
15012374 -0.2798595471021585 0.9643244659466853
15015467 -0.28049464447973327 0.9640483142137746
15018561 -0.2796854549970549 0.9637964376144383
15021654 -0.2791799164708205 0.9639975823158502
15024747 -0.27971326072179375 0.9639440376859982
15027841 -0.2791381515991605 0.963775518988904
15030934 -0.27843019605485886 0.9643515015564816
15034028 -0.2796541207305789 0.9643764336985765
15037121 -0.27847507323108606 0.9640193835239583
15040215 -0.27806513798894933 0.9643850227077579
15043308 -0.27849854897969556 0.9646281252279021
15046402 -0.2782909798793947 0.9642864833693174
15049495 -0.27729445097292177 0.9648406375877553
15052588 -0.2775286892479951 0.9648573642074828
15055682 -0.278227766060041 0.9646389188204156
15058775 -0.27788638963522905 0.9652176310055866
15061869 -0.27732471807375464 0.9652621567364784
15064962 -0.27835284409550964 0.9646040508540282
15068056 -0.27692396561474125 0.9647663881889017
15071149 -0.27686744064885577 0.9652808727841838
15074243 -0.27686638468334873 0.9647011929025548
15077336 -0.27667788823999007 0.9651276131675538
15080430 -0.27568254875202153 0.9653199293188172
15083523 -0.2752610909465085 0.96557005181382
15086616 -0.2752755572253864 0.9652549049911063
15089710 -0.27523598390407467 0.9652159003280338
15092803 -0.27511666243991423 0.9651978767198031
15095897 -0.27541861571124926 0.9654442361179367
15098990 -0.2741181441229104 0.9653242297505548
15102084 -0.2746127512910068 0.965422211440048
15105177 -0.2751660632007956 0.9644034287341388
15108271 -0.2752947612926806 0.9654385692387487
15111364 -0.27455513850485086 0.9654119583843576
15114457 -0.27408196770712506 0.9660200877795025
15117551 -0.274716303663858 0.9655551566582871
15120644 -0.27398454027623775 0.9656695450441909
15123738 -0.27377512286984845 0.9654651672475886
15126831 -0.2732616602300411 0.9652809357859886
15129925 -0.27327495500642063 0.9657094462414506
15133018 -0.2733217561843444 0.9660466733680233
15136112 -0.2734461490916615 0.9659797512543699
15139205 -0.27273950093076366 0.9662436823309035
15142299 -0.2733006327205129 0.9664253576282444
15145392 -0.2724509012873404 0.9671196251116128
15148485 -0.2723200632332482 0.9669001524032889
15151579 -0.27295280634163055 0.967304109367825
15154672 -0.27238254368414216 0.9671160411377403
15157766 -0.27183704391718533 0.9671966082315199
15160859 -0.27168006133810574 0.9667470300502875
15163953 -0.270812169662502 0.9669220775705114
15167046 -0.27146408637874103 0.9666670305634917
15170140 -0.2710735327640684 0.9671230954051008
15173233 -0.2698334882215836 0.9663489305546784
15176326 -0.27091848647629796 0.9656048890579882
15179420 -0.27029644056989943 0.9658886686011275
15182513 -0.2710032952009152 0.9662108200473692
15185607 -0.27032697137625067 0.9661142565807022
15188700 -0.27039911624464086 0.9665900362563176
15191794 -0.27003903044642297 0.9668004476695917
15194887 -0.2696325224441562 0.967211874640197
15197981 -0.2691471912455208 0.9670961287145702
15201074 -0.27028887353536485 0.9669903500394705
15204168 -0.2684179644319401 0.967975061851496
15207261 -0.2687373733630982 0.9670221504842011
15210354 -0.2694972118417158 0.9670623197092155
15213448 -0.26894775537562626 0.9675406362955128
15216541 -0.2697265828376088 0.9678478904717635
15219635 -0.2692542458405049 0.9675549404986621
15222728 -0.2683339908330224 0.9679381250051511
15225822 -0.26867815218862884 0.9679923669979633
15228915 -0.268528028422843 0.968713292390999
15232009 -0.26665376697361 0.9684899211720434
15235102 -0.2681663533589379 0.9675949058405469
15238195 -0.2670686944353367 0.9684242714533144
15241289 -0.2672660507129621 0.9683265271631388
15244382 -0.26716981569566095 0.9681665047480383
15247476 -0.26615770481391676 0.9684137804030029
15250569 -0.2661443197675853 0.9683163714639643
15253663 -0.2662311512403329 0.9682098984378593
15256756 -0.2651928113220564 0.9684237174981752
15259850 -0.26552861099640795 0.9683882777445034
15262943 -0.2655441105504246 0.9685878818916533
15266037 -0.2648068294318829 0.9682554266235632
15266037 -0.26566276583139486 0.9679061708435939
15269194 -0.26517374533754595 0.968063978762146
15272351 -0.2649187115150138 0.9679773638413273
15275509 -0.26532990301277704 0.9679918267468428
15278666 -0.2645233939358733 0.9682841655574871
15281824 -0.2645698010523886 0.9682269460879473
15284981 -0.2641458863780804 0.9678683102003445
15288139 -0.2632731022486011 0.9676496145785062
15291296 -0.26425682003923884 0.9672617953439722
15294453 -0.2636327511170689 0.9678651665245048
15297611 -0.2644131292782265 0.9679385412404528
15300768 -0.26441238454682237 0.9683724773059396
15303926 -0.26347575421386826 0.9691998193311883
15307083 -0.2627754369040201 0.9686353313911715
15310241 -0.26282348544968187 0.9694867839503305
15313398 -0.26241675263252673 0.9690901623405708
15316555 -0.2628135709216533 0.9684421807503785
15319713 -0.26222513255831553 0.9690297964797006
15322870 -0.26205421409588114 0.9688526566222264
15326028 -0.26172969793062956 0.9688036323929646
15329185 -0.26034732387545584 0.9690088225708404
15332343 -0.2612376611549807 0.9695620536339358
15335500 -0.2609091412082979 0.9701500507580649
15338657 -0.26041609974548235 0.9697027960026294
15341815 -0.26073979372797434 0.9697069911176591
15344972 -0.26033296709099446 0.9698271108721904
15348130 -0.25978127340301593 0.9691001694262746
15351287 -0.2601809460792512 0.969411612950829
15354445 -0.259725287312425 0.9691507653168406
15357602 -0.2602406638973718 0.9691327683770088
15360759 -0.2600130943829272 0.9701451863661007
15363917 -0.25945323465215947 0.9694917960882429
15367074 -0.259442662095248 0.9700754904866423
15370232 -0.2589233706368527 0.9695943961766805
15373389 -0.2590173747494303 0.9696645639949524
15376547 -0.2590815684055469 0.9693677758471617
15379704 -0.258268450175719 0.9697715967991275
15382861 -0.2587502501762822 0.9698139267802929
15386019 -0.2577144206535217 0.9711454483965849
15389176 -0.25731877127042174 0.969856552407784
15392334 -0.2576391307364911 0.970013626021415
15395491 -0.257631468864568 0.9697929768158611
15398649 -0.2579196103516989 0.9695582907785669
15401806 -0.2570360437011172 0.9704083216160498
15404963 -0.2558530731421169 0.9697646732370538
15408121 -0.2563249146049971 0.9695318699191091
15411278 -0.25547960725187535 0.9701287407784405
15414436 -0.25571672536736434 0.9702853622121439
15417593 -0.2559988031935617 0.9697353893582872
15420751 -0.25567982645036097 0.9700840280981673
15423908 -0.2546116826722717 0.9695772464952958
15427065 -0.25566112496801907 0.9697486289867143
15430223 -0.25566865142209994 0.9700471758875131
15433380 -0.2555908161455092 0.9702297250036643
15436538 -0.25565954085192105 0.9708849448729163
15439695 -0.2544320575329833 0.971099645858199
15442853 -0.25547744044775955 0.9705410048086877
15446010 -0.25478978486504267 0.971464422873112
15449167 -0.25447202495413795 0.9706028097723215
15452325 -0.25385262394179264 0.9710267455539239
15455482 -0.25353437230259307 0.9715266423648042
15458640 -0.2541559433669327 0.9711454374206995
15461797 -0.25351934476427024 0.9722358879351505
15464955 -0.2528183095956991 0.9715411629942385
15468112 -0.25320934162606606 0.9713805045961973
15471269 -0.2530091485678448 0.971887719705375
15474427 -0.25303452427255135 0.9713985233010082
15477584 -0.25225109135183377 0.9720010589767383
15480742 -0.25181430156858076 0.9719655901226608
15483899 -0.2519036922174529 0.9716071442771635
15487057 -0.2516752599831653 0.9718823185217211
15490214 -0.2513529328374363 0.9708782536851918
15493371 -0.2511317115654374 0.9710881838502822
15496529 -0.25062239872901476 0.9715042649468759
15499686 -0.2513038625236338 0.9714105627864721
15502844 -0.2502324868921918 0.9718782534319443
15506001 -0.24960473010237927 0.9718997551336848
15509159 -0.25022511590189844 0.9722493466711
15512316 -0.2500070494085103 0.9717588399833319
15515473 -0.2507806370033528 0.9716553687556777
15518631 -0.2501465231411294 0.9721864263223774
15521788 -0.24891407076688069 0.9720636007506789
15524946 -0.24962249069354783 0.9721574845294852
15528103 -0.248732110158348 0.9719929588172498
15531261 -0.24964648091776384 0.9718683269326357
15534418 -0.2491199757310898 0.9715966680803854
15537575 -0.24908318063976076 0.9716623098589652
15540733 -0.24942960632366892 0.9718722081985636
15543890 -0.24818623253885366 0.9720814092733996
15547048 -0.2477964138758658 0.9717143626221909
15550205 -0.24707203519549373 0.9722626456812365
15553363 -0.2471976232042384 0.9732763350475375
15556520 -0.2476469167486747 0.9730749121848021
15559677 -0.24695658494643702 0.9735966838574159
15562835 -0.24694094865076435 0.973045367761597
15565992 -0.24712376620390883 0.9727902073815472
15569150 -0.2471480937807994 0.9724734038350858
15572307 -0.2467245847642207 0.9727248710294093
15575465 -0.24651925324763468 0.9730394550189138
15578622 -0.24593366701508887 0.9733641740890557
15581780 -0.24635159160108033 0.9729789780892747
15581780 -0.24548776873076414 0.9732105857990317
15585002 -0.24511637660838653 0.9733050775532955
15588225 -0.2454254408566888 0.9725424127862726
15591448 -0.24523323282752774 0.9728945408824532
15594670 -0.24524445419962468 0.97247708474775
15597893 -0.24417866545774408 0.973416207246723
15601116 -0.2441786530895309 0.9732612230754845
15604339 -0.24354254364988312 0.9737439451540124
15607561 -0.2436638538651978 0.9738858073343092
15610784 -0.24354561599760735 0.9732653304886161
15614007 -0.24323335938422394 0.9734067124658251
15617230 -0.24307603231654865 0.9734762004079829
15620452 -0.24303956557947537 0.9736146282660677
15623675 -0.24348819885957582 0.9733459600696057
15626898 -0.24269644441468133 0.974036967758331
15630120 -0.24305279193137913 0.9727681595391897
15633343 -0.24258341616038046 0.9736564479637596
15636566 -0.24191511667672858 0.9731881619229629
15639789 -0.24116712369946763 0.9738328966230001
15643011 -0.24117511526374805 0.9737441931323433
15646234 -0.24111643246891987 0.9736424299965678
15649457 -0.24103998775418578 0.9742550065006502
15652680 -0.24187426850300875 0.9736430361556521
15655902 -0.24076409679157293 0.9743360184193904
15659125 -0.24093888934442287 0.9741860813346583
15662348 -0.23934549791858006 0.9737917093290661
15665570 -0.239634342166859 0.9734018570118772
15668793 -0.2392701453103898 0.9734905911494629
15672016 -0.23950079841964309 0.9740362485997126
15675239 -0.23966557404546152 0.9746524339256104
15678461 -0.2398361121054686 0.974672380298191
15681684 -0.2396647746090532 0.9735539637455215
15684907 -0.2389814036826481 0.9736325297159261
15688130 -0.23905903883627602 0.9734581860011138
15691352 -0.23874483486595546 0.9741503407142995
15694575 -0.23943300708115275 0.9736999222748723
15697798 -0.23926185406807116 0.9743781942482388
15701021 -0.23844844384340005 0.9744016420488505
15704243 -0.23880812097373463 0.9745838877288665
15707466 -0.23792312526721618 0.9752335533044926
15710689 -0.23766215113570865 0.9750937949915817
15713911 -0.23616495937242743 0.9749302330501242
15717134 -0.23591738113423902 0.9749018038982624
15720357 -0.23554829497088967 0.9748680487246656
15723580 -0.23666336223900178 0.97479073333145
15726802 -0.2364005223705181 0.9748933932277454
15730025 -0.2369601539760246 0.974354181003133
15733248 -0.23628628979226257 0.9749875407524522
15736471 -0.23515927697120584 0.9749050219409069
15739693 -0.23564356538985842 0.9754561958219365
15742916 -0.23485632281734123 0.9746410554791073
15746139 -0.235173134435942 0.9751116812683698
15749361 -0.23424413977360886 0.9756469244699526
15752584 -0.23402481424130486 0.9756822263782153
15755807 -0.2340125296185523 0.9757284207817507
15759030 -0.23425062121273785 0.9750953787865723
15762252 -0.23420305740985156 0.9744119169444951
15765475 -0.2339903820529073 0.9751653448816813
15768698 -0.2339308773276215 0.9757062295122294
15771921 -0.23387405311829304 0.9757002997665267
15775143 -0.2330638348667514 0.9761418795186683
15778366 -0.23329556658370512 0.9758840792748562
15781589 -0.23186678310778333 0.9756804929039798
15784811 -0.2328382821991932 0.9747674561421119
15788034 -0.23221274270641593 0.975386836453572
15791257 -0.2327887559567938 0.9752866046258073
15794480 -0.23324853488941383 0.975475181550157
15797702 -0.2322414583056008 0.9751244934526592
15800925 -0.23161087194991611 0.9750420545290184
15804148 -0.2309777975741342 0.9744979589850092
15807371 -0.23051235814595705 0.9749610883907308
15810593 -0.23000132971229648 0.9752037708523
15813816 -0.2304841180962702 0.9754980574261336
15817039 -0.22997938120134967 0.9760790727473974
15820262 -0.23042131021577922 0.9757462853145464
15823484 -0.22917492237618753 0.9751674745986503
15826707 -0.2286111811630163 0.975430820775462
15829930 -0.22895477421652788 0.9752585948779494
15833152 -0.22826722910146485 0.9743741584232036
15836375 -0.22897691760282313 0.9747081909470714
15839598 -0.2283107738526823 0.9745668411130464
15842821 -0.22895337477606417 0.9750063145927342
15846043 -0.22833483491125395 0.9757861972278272
15849266 -0.22898052241172753 0.9756747218146213
15852489 -0.22804039910823143 0.975828604652231
15855712 -0.2281011584932343 0.9759535581798617
15858934 -0.22801823891753886 0.9757668539554485
15862157 -0.22780998410725317 0.9756687172622245
15865380 -0.22786701769764733 0.9757696914819817
15868602 -0.22740964246313894 0.9756861693685432
15871825 -0.2265764000771253 0.9758976235517242
15875048 -0.2259119198015526 0.9760977100604091
15878271 -0.22504325111236292 0.9761287514973859
15881493 -0.22494320597811127 0.9764654187162359
15884716 -0.22566985250269772 0.9768254331878516
15887939 -0.2254015362662651 0.97617178451111
15891162 -0.22648514045272702 0.9760692680258931
15894384 -0.22529509651493781 0.9759665578703401
15897607 -0.22488417003649255 0.9757295228459588
15900830 -0.22426854808836605 0.9756402806780615
15904053 -0.2238939684187358 0.9751556819457743
15904053 -0.2232931334050989 0.9762303120546242
15907342 -0.22342822994383735 0.9757169102460979
15910631 -0.22365969119547996 0.9758291546792218
15913921 -0.22355725526402606 0.9763191512016548
15917210 -0.22381661921671644 0.9758159839964594
15920499 -0.22338358241765577 0.975807890087134
15923789 -0.22346144813846197 0.9760245454552487
15927078 -0.22221220082681714 0.9759939144506268
15930368 -0.2224663191597264 0.9754528203348624
15933657 -0.2225753797671812 0.9755694319990893
15936946 -0.22246094236079075 0.9764916010399645
15940236 -0.22264595748557692 0.9760410284196258
15943525 -0.222107438016223 0.9766070943634687
15946815 -0.22175497050820714 0.9766843506909347
15950104 -0.22068332590134734 0.9761801719223344
15953393 -0.22101398649648896 0.975412861963373
15956683 -0.22119228744889044 0.9759350385023562
15959972 -0.22014218355428575 0.9764544842488863
15963262 -0.2207239542299804 0.9766783942403874
15966551 -0.22003607304213252 0.9769865184111614
15969840 -0.21971736619204432 0.9770277081536763
15973130 -0.2192688485457391 0.97649477994802
15976419 -0.2191694866558483 0.975842679968623
15979708 -0.2192428170852619 0.9764927440618627
15982998 -0.2187605993217342 0.9766311147183011
15986287 -0.21866504729202646 0.9767393581671583
15989577 -0.21844027788242557 0.9764494000525709
15992866 -0.21888581663715678 0.9768934355030392
15996155 -0.21784740244994968 0.9768910349064973
15999445 -0.21821723453023406 0.9765618427785602
16002734 -0.2177232769336441 0.9765101469512888
16006024 -0.2176233471309975 0.9761285674398135
16009313 -0.21790113925853355 0.9760969929171471
16012602 -0.21718819956699634 0.9761817288637136
16015892 -0.2176635386535289 0.9760586261838576
16019181 -0.21711532642802628 0.975956094884081
16022471 -0.21667971909911332 0.9768477446579912
16025760 -0.21655483353404567 0.9767101573130798
16029049 -0.21611294878095338 0.9772142759701276
16032339 -0.2165101705718231 0.9770914443068134
16035628 -0.21538644953079797 0.9773120680889941
16038917 -0.21573987566699893 0.9765021473338523
16042207 -0.21465920289832063 0.9760447516452458
16045496 -0.21521010393255988 0.9763415115838309
16048786 -0.21560747833828933 0.9763764146750412
16052075 -0.21490593023575266 0.9769187165142884
16055364 -0.21521030911577688 0.9764026232269157
16058654 -0.2138797748861286 0.9774482708658481
16061943 -0.21408188235945133 0.9766138446490387
16065233 -0.21363486670623869 0.9774004538527346
16068522 -0.2132906938953055 0.9774858624523539
16071811 -0.21285609746578704 0.9767212617415714
16075101 -0.21348267370563037 0.9780067603142424
16078390 -0.2123466048519644 0.976861059069141
16081680 -0.21298997008574252 0.9770018703631391
16084969 -0.21175917350748766 0.9771700660980719
16088258 -0.21198093615308425 0.976660047854674
16091548 -0.21128646309920315 0.9768722401984964
16094837 -0.21151056035372975 0.9763201430607791
16098127 -0.2116144720809851 0.9766499478283881
16101416 -0.21172119351365665 0.9765928616181939
16104705 -0.21220482067094434 0.9775895286553816
16107995 -0.21123406409718234 0.9776428946991987
16111284 -0.2113870145212626 0.9776404759109413
16114573 -0.21010863941556343 0.9776608721029679
16117863 -0.21070106703953884 0.9772170452251369
16121152 -0.2100615696073782 0.9780308932880759
16124442 -0.21040522237511852 0.9778712389249052
16127731 -0.21004415882615118 0.9768736887769286
16131020 -0.2098123063488995 0.9774627841482042
16134310 -0.20849835302723013 0.9770877309347646
16137599 -0.20829168628852196 0.9776445969430985
16140889 -0.2078106035054237 0.9768773189963254
16144178 -0.2085037424242915 0.9770972739465693
16147467 -0.20821283423965414 0.9767755168770001
16150757 -0.20785400593796438 0.97778569940083
16154046 -0.207903787524064 0.9771393447179618
16157336 -0.2077164036692716 0.9775629742513697
16160625 -0.20813474272668028 0.9774401740335505
16163914 -0.2076916352188782 0.9778056846087121
16167204 -0.20816885686445696 0.9774202763003099
16170493 -0.20722494449310902 0.977649434644665
16173782 -0.2075496589966535 0.978027917602319
16177072 -0.20647052823563644 0.9778834727834237
16180361 -0.2075898795151812 0.9781659615032657
16183651 -0.20629684471171336 0.9778407828351958
16186940 -0.20655045496494323 0.9780651591425056
16190229 -0.20584831539825138 0.97782265014743
16193519 -0.20582592335146477 0.9787472290122481
16196808 -0.20490982200388336 0.9780124579720126
16200098 -0.20460218028102248 0.979009524736472
16203387 -0.20453303644503762 0.9779785754880815
16206676 -0.2041666331820797 0.9783607237346218
16209966 -0.2037898024926141 0.9776555502942053
16213255 -0.20362751115558014 0.9780112777951084
16216545 -0.20336006248896324 0.9778720004157087
16219834 -0.20301080400629934 0.9782785227581089
16223123 -0.20332396039216669 0.9781584447237912
16226413 -0.20248806088754265 0.9774141760611711
16229702 -0.20275255476037107 0.9774854935018785
16232992 -0.20228767656779195 0.9770456942807447
16232992 -0.20292701764618798 0.9773705707313359
16236349 -0.20316226032267085 0.9774951567385441
16239706 -0.20271003294769496 0.9774514335660902
16243064 -0.20339306359661052 0.977999727018685
16246421 -0.2022112731118445 0.9780484056621708
16249779 -0.20198064468953222 0.9785310850938529
16253136 -0.20134781219808115 0.9784936803194114
16256493 -0.20089279829958703 0.9785547104976388
16259851 -0.2015024412160429 0.9783897100749424
16263208 -0.20046165999883117 0.9782549572927548
16266566 -0.2003853562737104 0.9782301958741473
16269923 -0.20094590947177848 0.9780441711230782
16273281 -0.20061048355214825 0.9786665634321807
16276638 -0.20105808090075977 0.9781437188916463
16279995 -0.19989516206305388 0.9782856842788303
16283353 -0.19970760498325069 0.9781657891355607
16286710 -0.1993723033788384 0.978007836104611
16290068 -0.19894288250399103 0.9783617787962045
16293425 -0.1986280154031193 0.9782791523187195
16296782 -0.1977622128789714 0.9778056435901324
16300140 -0.1978765321561941 0.9781457652284702
16303497 -0.19782044320630873 0.9780477775827618
16306855 -0.197738120990292 0.9783898738423716
16310212 -0.1977485278013477 0.9782982298564807
16313570 -0.19709064406629756 0.978870112933445
16316927 -0.19710351698836928 0.9792269986193872
16320284 -0.19695777664796515 0.979032704304429
16323642 -0.1969721105627657 0.9797412757869024
16326999 -0.19706671710257423 0.9786490925170162
16330357 -0.1967753904768998 0.9788153285070283
16333714 -0.196503108824754 0.9783982102512332
16337072 -0.19612705033869657 0.9781220643675111
16340429 -0.1966415872688641 0.978459090538631
16343786 -0.19570477288933996 0.9777648293347292
16347144 -0.19563631908380752 0.9790340753436787
16350501 -0.19544060541968958 0.9782793598285909
16353859 -0.19495032970961085 0.979202293059186
16357216 -0.194800052195784 0.9793470428604868
16360573 -0.19471874178466725 0.979762952537084
16363931 -0.19497357876668603 0.980041884775908
16367288 -0.19451536528277416 0.9795558728509058
16370646 -0.19449324304995275 0.9797704611934777
16374003 -0.19441639760972476 0.9801513027489542
16377361 -0.19349562736759957 0.9796025239841674
16380718 -0.19409166617394377 0.9801624460748605
16384075 -0.19355478923038746 0.9798915420417115
16387433 -0.19338684156023309 0.980052193670742
16390790 -0.19336839575972894 0.9794751031420942
16394148 -0.19291196244561373 0.9789740356411525
16397505 -0.19248858143537492 0.9792533396327522
16400863 -0.19146775229291502 0.9794105119586506
16404220 -0.19155212813214612 0.9794156354468406
16407577 -0.191252937758845 0.97869658963109
16410935 -0.1914614697281043 0.9797596067475716
16414292 -0.19201083428043453 0.9795648327834061
16417650 -0.191885580898667 0.9799376188067603
16421007 -0.19128010451026908 0.9801211425066909
16424364 -0.19071594625111646 0.9797764014748793
16427722 -0.19089274287314248 0.9806037673000574
16431079 -0.19046744301980129 0.9799792773328414
16434437 -0.19064561007436895 0.979607742727216
16437794 -0.19026657263143876 0.9801983110792856
16441152 -0.19023410977861985 0.9794741015735704
16444509 -0.1902012305047359 0.9804727913020687
16447866 -0.18987388240876696 0.979835838977199
16451224 -0.18919839827466897 0.979856057234955
16454581 -0.1890647698013168 0.9798909994899864
16457939 -0.18832362145214193 0.979919181644708
16461296 -0.1881856753261841 0.9796357581163057
16464653 -0.18862643941703625 0.9794797928967903
16468011 -0.18855710329031586 0.9801825517510115
16471368 -0.1878629687270483 0.9806989578718818
16474726 -0.18758522182090362 0.9795834079691924
16478083 -0.18700587638393706 0.980484707092376
16481441 -0.18713949352672216 0.9801194199581535
16484798 -0.18705433845162672 0.9800772417698876
16488155 -0.18635567681849685 0.9804716173070234
16491513 -0.1861712261437683 0.9793292952980414
16494870 -0.18634237397348005 0.9801657066225965
16498228 -0.186240285515653 0.9800968190146602
16501585 -0.18600541814392077 0.9808235363782265
16504943 -0.1849589309960201 0.9812731220486056
16508300 -0.18467969043453483 0.979760124520544
16511657 -0.18543722878788674 0.9805931015984868
16515015 -0.18535075076833935 0.9800328286650407
16518372 -0.18469493065639475 0.9810087909476805
16521730 -0.1850779140045428 0.9805256745267054
16525087 -0.1843563758271248 0.9800871021042693
16528444 -0.18429413386515772 0.9818198079331499
16531802 -0.18410831798492996 0.9811215320200887
16535159 -0.18350320315191318 0.9811599359123069
16538517 -0.18360103843206593 0.9806536675485523
16541874 -0.18381521331901404 0.9806123625661728
16545232 -0.1838619323545038 0.9816192885467286
16548589 -0.1838495748111735 0.9813357886485625
16551946 -0.18347371048716835 0.981780712062863
16555304 -0.18310972906196193 0.9815030824405216
16558661 -0.1834392098338802 0.980783018610221
16562019 -0.18316440058979636 0.9812230143905938
16565376 -0.18257287912556322 0.9804753510377583
16568734 -0.18213976129285886 0.9808837039883213
16568734 -0.18198645445894523 0.981235355008945
16572160 -0.1817551463976156 0.9810816373350832
16575587 -0.1807987710245196 0.9815213395845481
16579014 -0.18120631867211826 0.9810536108439838
16582441 -0.18042468723545182 0.9803299085650917
16585868 -0.18062235802307963 0.9812055630421882
16589295 -0.1802179588944144 0.9813325473528844
16592722 -0.1804857126091073 0.9806292286516122
16596148 -0.18060756107279632 0.9815722306869138
16599575 -0.18025410084171534 0.9811327277701976
16603002 -0.18017472797685424 0.9805718455677035
16606429 -0.18080862614142693 0.9809659180711444
16609856 -0.17990194244803778 0.9813964535227924
16613283 -0.17975968460100575 0.9811184034600058
16616710 -0.17909093467252576 0.9818948958547566
16620136 -0.17787657723402314 0.9821597093256949
16623563 -0.178449963290485 0.9804071752636327
16626990 -0.17794052752158335 0.9810757080784918
16630417 -0.1771575610621865 0.9810093245551842
16633844 -0.17738729157100375 0.9804961207353006
16637271 -0.17743952022133905 0.9808972136954034
16640698 -0.1769595273603438 0.9812938129827896
16644124 -0.17732088715262664 0.9808806329293402
16647551 -0.17752654042780822 0.9809243772068891
16650978 -0.17700138544617125 0.9816742579088268
16654405 -0.17686907411910457 0.980812679864224
16657832 -0.1765759479335035 0.9816218385221271
16661259 -0.1759008783152022 0.982020861298322
16664686 -0.17606643589865217 0.9816350119248536
16668112 -0.17535787364507271 0.9812544732822597
16671539 -0.17419891608747906 0.9816895594554792
16674966 -0.1740039921341072 0.9811554145819869
16678393 -0.17383534695377187 0.9813015427160244
16681820 -0.17340409401852597 0.9816035968185626
16685247 -0.17367905099400077 0.9813991800289862
16688674 -0.1739966799487037 0.9819912083228424
16692100 -0.17371736441706626 0.982360379957266
16695527 -0.17449966346469023 0.9820586457181005
16698954 -0.1748888071795524 0.982587042065253
16702381 -0.1741521014589218 0.9825579030207843
16705808 -0.17372825483698923 0.9814423085119737
16709235 -0.1728356697891184 0.9825488435028027
16712662 -0.17237353904056757 0.9822408016178592
16716088 -0.17215722629352592 0.9815122588950158
16719515 -0.17155301652594168 0.9816966621912678
16722942 -0.17035343560000574 0.9816136796856758
16726369 -0.17132254361470944 0.9812003746427911
16729796 -0.17156396514793246 0.9819771161946512
16733223 -0.17179629022267223 0.9824760940903688
16736650 -0.17170090386302744 0.982107909983149
16740077 -0.1716087210964894 0.981917737659699
16743503 -0.1718911608991177 0.9828457797956233
16746930 -0.17056333456108141 0.9827252996234486
16750357 -0.17103978114898663 0.9830602337440829
16753784 -0.1709641867429047 0.9817753078859436
16757211 -0.1701908797855965 0.9818083742623572
16760638 -0.1694967082943526 0.9824001770421014
16764065 -0.16996531342441712 0.9816508850604295
16767491 -0.16935191876090375 0.9812790149767081
16770918 -0.16915668154581778 0.9814849663224798
16774345 -0.16882724676772906 0.9823296164535942
16777772 -0.16818307000860255 0.9820488265351145
16781199 -0.16811547197438714 0.9827083952468811
16784626 -0.16803820140363224 0.9819059795263932
16788053 -0.16753363405077965 0.9825782835206592
16791479 -0.16761832360690643 0.9816360166156146
16794906 -0.16735220978526047 0.9815218299928498
16798333 -0.16669458677036286 0.9821752318216391
16801760 -0.16702692447311748 0.9821640760011002
16805187 -0.16687579292819701 0.982271257902906
16808614 -0.166542734484462 0.9824550451763364
16812041 -0.16621624285208317 0.9828992104828997
16815467 -0.1664334694898868 0.9830598693209696
16818894 -0.16601671264988757 0.9822694773255254
16822321 -0.16513453521458035 0.9830398378629657
16825748 -0.1655331475427813 0.9826506814599157
16829175 -0.16569067678139798 0.982773835432547
16832602 -0.16513037948092515 0.9824459861500757
16836029 -0.16522708934902774 0.9830475421199919
16839455 -0.16480059432489713 0.9829096887916876
16842882 -0.16490472373477988 0.9827293940598602
16846309 -0.1644627809381174 0.98315784724513
16849736 -0.16449067880449675 0.9835310885594672
16853163 -0.16408397041468947 0.9832154888943103
16856590 -0.16374822927560648 0.9833378357842669
16860017 -0.16281094372049584 0.9829167234591701
16863443 -0.16333104642234833 0.9832042142035331
16866870 -0.16315843345724668 0.982935522261067
16870297 -0.16283500103005422 0.9822975061621169
16873724 -0.16194648431980674 0.982607246986811
16877151 -0.16254969989629794 0.9826840569101379
16880578 -0.16248523467772646 0.982646470778371
16884005 -0.16201012115357888 0.9827083410712162
16887431 -0.1620505452287713 0.9830532746507881
16890858 -0.1621779205774356 0.9833117611007831
16894285 -0.16160117974140897 0.9832547242271887
16897712 -0.1611689259664071 0.9828563095417484
16901139 -0.1609909762477753 0.9833306689977755
16904566 -0.1615098357505484 0.9835280772209112
16907993 -0.16073635534375447 0.9828097622121132
16911420 -0.16005625826616085 0.9830915372741279
16911420 -0.1605786842865498 0.9833198926069388
16914917 -0.15975016839358322 0.9833554855818226
16918415 -0.15961990676693438 0.9830887407297888
16921913 -0.1594128619667037 0.9829875640734527
16925410 -0.15895207061726999 0.9830240193604518
16928908 -0.15881068761858588 0.9832790073774278
16932406 -0.15867642904368828 0.9830377745072179
16935904 -0.1579484638729249 0.9832867676978951
16939401 -0.1582928343797338 0.9829998793396652
16942899 -0.15773309274576391 0.9831629263906247
16946397 -0.15741609690874506 0.9828568798850569
16949895 -0.15683764850641696 0.9825107159388179
16953392 -0.15679735185856694 0.9827834525401051
16956890 -0.15647255922700884 0.9829567491845658
16960388 -0.1564344781912853 0.9827011730935217
16963886 -0.15596176411588059 0.9829622682908146
16967383 -0.15634723196702427 0.9834270365393408
16970881 -0.1557953074749933 0.9839621690895793
16974379 -0.15587810829450344 0.983973310670798
16977877 -0.15549269254748158 0.9837131664501384
16981374 -0.15588811271885886 0.9838097828649578
16984872 -0.15594943953758875 0.9833996944517323
16988370 -0.15584346523474124 0.9836810749773037
16991868 -0.1547232691386635 0.98325245621985
16995365 -0.15454594402060784 0.983664454260103
16998863 -0.15418903526043987 0.9838625513261025
17002361 -0.15445743758113437 0.9838065209111548
17005858 -0.15398509620524126 0.9834661280168701
17009356 -0.1543407460145411 0.9838745751604472
17012854 -0.1540932278085763 0.9839495949118415
17016352 -0.15410749363367465 0.9841926371819925
17019849 -0.15367087168323965 0.9839642933426528
17023347 -0.1535385303177509 0.984503898765836
17026845 -0.15318836414091289 0.9843307251355943
17030343 -0.1536001812762837 0.9849584116590889
17033840 -0.15286118968283866 0.9844058542227769
17037338 -0.15278889263472728 0.9838859149900221
17040836 -0.15239275604050176 0.9842403572982877
17044334 -0.15241113095476724 0.9840180760347841
17047831 -0.15142026659233715 0.9838597168761931
17051329 -0.15199008892035673 0.9832276647326204
17054827 -0.15162328762864588 0.9835733959054473
17058325 -0.15180872422746103 0.9834116608821136
17061822 -0.15138709392887875 0.9839179699171177
17065320 -0.15141141249363754 0.9842712237653813
17068818 -0.15143604436402935 0.9844204594358658
17072316 -0.15094383640541428 0.9836514959861304
17075813 -0.15053229127452525 0.9837258324013165
17079311 -0.1501082131430156 0.984085904868177
17082809 -0.15030471860902442 0.9843300666631596
17086307 -0.14990568496139967 0.9836465978235881
17089804 -0.14909238591303522 0.9832756417021161
17093302 -0.14833670878092917 0.9840218336474752
17096800 -0.1480003269569428 0.9841636384586279
17100297 -0.14733833696694182 0.9834541267411147
17103795 -0.1471459317575941 0.9836754642204067
17107293 -0.1474886344608512 0.9841233460379701
17110791 -0.14763445963633443 0.9844421456509029
17114288 -0.14733796209478578 0.9845896988734766
17117786 -0.14740478377664692 0.9843359881574195
17121284 -0.14700050256839234 0.9846509438653908
17124782 -0.146699530824646 0.9853487029819019
17128279 -0.1459489703150371 0.9848209303296755
17131777 -0.14611045129682262 0.9842249681977537
17135275 -0.14546861620583726 0.9845302384437188
17138773 -0.14578823248401743 0.9842022179894411
17142270 -0.14450013081013835 0.9841224796523125
17145768 -0.14420591381925885 0.9837506249259231
17149266 -0.14391381943055576 0.9840245381038651
17152764 -0.14378468723707044 0.9846517945557809
17156261 -0.143748225339714 0.984249708718912
17159759 -0.14444404681740874 0.9841654742866928
17163257 -0.14457917591293099 0.9850955939109577
17166755 -0.1440865791400644 0.9855595300722317
17170252 -0.14390432778346665 0.9849445475022782
17173750 -0.1433951826737673 0.9853240202088794
17177248 -0.1434959873194849 0.985876922408245
17180745 -0.1430999399962919 0.9855362819076907
17184243 -0.14262544406058628 0.9849235978963001
17187741 -0.14198485590083493 0.9850333311057704
17191239 -0.14163485584860117 0.9857057230630831
17194736 -0.1418071030060464 0.9852993269296656
17198234 -0.1409993588001766 0.9850460688476691
17201732 -0.14178805421126014 0.9854721703938344
17205230 -0.14138609120008533 0.9859757098735537
17208727 -0.1415897391606808 0.9851468276638983
17212225 -0.14131319467587872 0.9851991324882395
17215723 -0.14178303336010398 0.9853967670487092
17219221 -0.14168672787673378 0.9850761463166879
17222718 -0.14102142619810368 0.9848043129692201
17226216 -0.14045555191591283 0.9844692116072201
17229714 -0.1400451523292725 0.9856547429846344
17233212 -0.13986279812246263 0.9851888433130929
17236709 -0.13937404099157144 0.9852949076943599
17240207 -0.13906586427613074 0.9850801952415192
17243705 -0.13963820027916415 0.9861222196746282
17247203 -0.1395426892713818 0.985611391845525
17250700 -0.13925044458991176 0.9861389854744311
17254198 -0.13873814823468275 0.9854689809096059
17257696 -0.13878978133451217 0.9857522480973764
17261194 -0.13843265965530593 0.9856085725833825
17261194 -0.13853842074449613 0.9854314233764303
17264764 -0.13786271151126114 0.9853683124337856
17268334 -0.13782093236897677 0.9854071492135484
17271904 -0.1373589544087416 0.984855358530869
17275474 -0.13606755309384222 0.9851210421288426
17279044 -0.13625007602585745 0.9846869992663937
17282614 -0.13553901739198035 0.9842890362840493
17286184 -0.13567150084972399 0.9853321514605864
17289754 -0.13587029360917996 0.9856186546377661
17293324 -0.135688629873199 0.9856149892053268
17296894 -0.1356475745739433 0.9855355355570302
17300464 -0.13564530885085616 0.9854042906805263
17304034 -0.13642176519047994 0.985354914334102
17307605 -0.13581395915518188 0.9859040817955871
17311175 -0.1355319754846222 0.9858894767023568
17314745 -0.1337840344740073 0.9855568120613288
17318315 -0.1335472637607512 0.9854491869462445
17321885 -0.1332043155819234 0.9851584804022678
17325455 -0.13399441236729306 0.9854856531203212
17329025 -0.13345971615475166 0.9858853759892166
17332595 -0.13322832887823355 0.9857511583424033
17336165 -0.13325291894869398 0.9858181477716627
17339735 -0.1330068897621102 0.9859484914733663
17343305 -0.13345171507363865 0.9861222762596906
17346875 -0.13314390290960867 0.986161820812988
17350446 -0.13309486210170504 0.985920893004639
17354016 -0.13237518978359814 0.9858018537085961
17357586 -0.13208812674053927 0.9855578535921119
17361156 -0.1308646877176201 0.9848219313109724
17364726 -0.13099712916005665 0.9860190118278723
17368296 -0.13088369196022398 0.9859969260126344
17371866 -0.13068306272442293 0.9864677617379128
17375436 -0.1304612359005294 0.9859417105183075
17379006 -0.13061774468073545 0.9865904031127066
17382576 -0.13012865727484266 0.9866545979413357
17386146 -0.13080033887853945 0.98660676546029
17389716 -0.13062897648112304 0.9864141146969011
17393286 -0.1297027569994298 0.9869539120226252
17396857 -0.13054439031908263 0.9862478247593007
17400427 -0.1300032912810508 0.9858763776593232
17403997 -0.12922340506751914 0.9865563242098218
17407567 -0.12857796161311805 0.9866232856906726
17411137 -0.12808638504901615 0.9857905410368316
17414707 -0.12782734855169886 0.9856267382857575
17418277 -0.12858009014887817 0.9852013743746681
17421847 -0.1280988031303635 0.98464770095948
17425417 -0.12793530992215346 0.9845507628264484
17428987 -0.12770935271220124 0.9857207652784835
17432557 -0.1267173146406422 0.9858819684712744
17436127 -0.126533181435782 0.9863345450006495
17439698 -0.12657990720812215 0.9859692484884325
17443268 -0.12642316516735827 0.985966201243069
17446838 -0.126514988054006 0.986282649444218
17450408 -0.12616359000877012 0.9864220983065596
17453978 -0.12587040580210326 0.9865995580859923
17457548 -0.12564798662928153 0.9863303293785636
17461118 -0.12567086884783038 0.9861009421434115
17464688 -0.12535834656518646 0.986604760944669
17468258 -0.12515204363425841 0.9865650844501408
17471828 -0.12481938462031282 0.9862207473201174
17475398 -0.12471837191983222 0.9864956292039779
17478968 -0.12466499054941191 0.9860250265441963
17482538 -0.12447201887950249 0.9860529209373329
17486109 -0.1245778283207445 0.9867454630639726
17489679 -0.12384331843158343 0.9865613590592401
17493249 -0.12365690068197656 0.9866876374932768
17496819 -0.12368735098010229 0.9864596819203475
17500389 -0.12333439717321523 0.9860457738055404
17503959 -0.12257320825411123 0.9859477004444233
17507529 -0.12208562108075859 0.986502828740393
17511099 -0.12134593789639773 0.9863773369276994
17514669 -0.12109575067882998 0.9863706408173823
17518239 -0.12072816416731533 0.9862279949857182
17521809 -0.12079479159012352 0.9865104219780796
17525379 -0.12101015539577561 0.9867961915815353
17528950 -0.12079254763438423 0.9868843863105956
17532520 -0.12092520286437511 0.9869303521901465
17536090 -0.12078862048262834 0.9867322614562536
17539660 -0.12120597349775637 0.986696697613532
17543230 -0.12059237097861042 0.9861493743309828
17546800 -0.12032225639991759 0.986683074456226
17550370 -0.11904475599657408 0.9868279071466688
17553940 -0.11947206525988013 0.9867660187027409
17557510 -0.11893400855170334 0.9861740089670669
17561080 -0.11835152797823816 0.9868962528753549
17564650 -0.11899932900963543 0.9869985541532177
17568220 -0.11820687208242137 0.9865583948525273
17571790 -0.11868306364483187 0.9868170204666445
17575361 -0.11815540699459015 0.9870887233133923
17578931 -0.11873959145520191 0.9868323199139435
17582501 -0.1182138697177973 0.9873506822431587
17586071 -0.1180726487518413 0.9870641640707931
17589641 -0.11661221964159968 0.9868380472084987
17593211 -0.11623001543431105 0.9866631244107262
17596781 -0.11622074193492749 0.9866862952988577
17600351 -0.11655805814135468 0.9862399070135413
17603921 -0.11610810813573998 0.9866589330306198
17607491 -0.11635796718960949 0.987448729094666
17611061 -0.1161601623877548 0.9877681667465121
17614631 -0.11619721970319022 0.9873927028289199
17618202 -0.1163937884924585 0.9867003598154849
17618202 -0.11594870229400574 0.9876774924109106
17621845 -0.11528513645976594 0.9869427434573113
17625489 -0.1146831955385591 0.9868902739545705
17629133 -0.11422792389611694 0.9865512260495097
17632777 -0.11382701410822794 0.9866039001576429
17636421 -0.11381982776298069 0.9865054279521704
17640065 -0.11312083487823957 0.9870610325332083
17643709 -0.11327037119233738 0.9869210239996964
17647353 -0.11348360577608195 0.9871613594316813
17650997 -0.11344351351128575 0.9875042187042247
17654641 -0.1131173247598409 0.987380422532449
17658285 -0.11256299288287858 0.9875937673902547
17661929 -0.11255622435374964 0.9868752024213165
17665572 -0.11222482335886219 0.9867057366003228
17669216 -0.11219553314273419 0.9864509820451809
17672860 -0.1119343256990199 0.9867953931161644
17676504 -0.11196284626934408 0.9873337322751236
17680148 -0.11173574674196904 0.9873907293830406
17683792 -0.11151877010962376 0.9876188176461003
17687436 -0.11134259904954305 0.987387237545776
17691080 -0.11088535365168245 0.9875118393417621
17694724 -0.11068150829990885 0.9874756491705231
17698368 -0.11053788718663443 0.9869843548942784
17702012 -0.10998645880154738 0.9872088150472158
17705656 -0.109472022445475 0.9869059828177081
17709300 -0.10975511530922734 0.986963131393028
17712943 -0.1094854215951836 0.9871346282282492
17716587 -0.10913180026360544 0.9864564394718653
17720231 -0.10946508619533002 0.987371962654178
17723875 -0.10969491614891301 0.9883304143552699
17727519 -0.109445053084471 0.9886666438418038
17731163 -0.10904528952003635 0.9887647582234256
17734807 -0.10871597890397898 0.9884013089672393
17738451 -0.10836790005525698 0.9882653380862673
17742095 -0.10789406415321924 0.9882643511806719
17745739 -0.10777470499046878 0.988231723143094
17749383 -0.10728482442229198 0.9885256611364377
17753027 -0.10713406662324079 0.9882990833759808
17756670 -0.10666610608828246 0.9880907854217942
17760314 -0.10640705725518709 0.9882743379957564
17763958 -0.1062093918714479 0.9879498123671633
17767602 -0.1059494587373765 0.9882802614067767
17771246 -0.1060895468804721 0.9882573338669245
17774890 -0.105860199981521 0.988597932918392
17778534 -0.10582936877126324 0.9883099350563566
17782178 -0.10571151914397602 0.9881799055094922
17785822 -0.10511383451999107 0.9883143618405237
17789466 -0.10481199841234731 0.9883354693115425
17793110 -0.10444157256850733 0.9882427670276821
17796754 -0.10488213920620762 0.9878526526984416
17800398 -0.10386097636328995 0.9877693688417821
17804041 -0.10375132011411996 0.9875784529417904
17807685 -0.10395744109527263 0.9870507731315025
17811329 -0.10386134699854073 0.9871545024924505
17814973 -0.10321607927771378 0.9877402104493869
17818617 -0.10324243035083083 0.9872894648869267
17822261 -0.102658900892168 0.9878482218944215
17825905 -0.10240087258629132 0.9875037762017843
17829549 -0.10208052140754681 0.9874357924909465
17833193 -0.10210047059923379 0.9883906626702134
17836837 -0.10221565771049905 0.9885551208317338
17840481 -0.10223614982313972 0.9881447590830762
17844125 -0.10190472354164562 0.9887426927142294
17847768 -0.10148509360689625 0.9883386527115015
17851412 -0.10183410940958651 0.988691607822703
17855056 -0.10096219971583148 0.9884291883983273
17858700 -0.1013211200985154 0.9887687704715189
17862344 -0.100888926165925 0.9885863019572643
17865988 -0.10074591143141726 0.9887286920282159
17869632 -0.1002595835053562 0.9888113446831224
17873276 -0.10017951519441114 0.988801615785822
17876920 -0.10004395785524373 0.9890031743915066
17880564 -0.09973151198262709 0.9896795321138081
17884208 -0.09959314011638068 0.9891765862832593
17887852 -0.09916349506066183 0.9892193431735079
17891496 -0.09877873137402765 0.9893429819419514
17895139 -0.09824341530532561 0.9891756768245582
17898783 -0.09827662521971188 0.9893985417027567
17902427 -0.09795179145771439 0.9889353911991341
17906071 -0.09733612758226161 0.9888554259490901
17909715 -0.0971278007740701 0.9886913646427101
17913359 -0.0970669949113552 0.9885693582249115
17917003 -0.09664847721939457 0.9893258197812559
17920647 -0.09647081737861238 0.9896913450264769
17924291 -0.09665749178230923 0.9890633746883583
17927935 -0.09668852712969817 0.9888846599493423
17931579 -0.09628135504694194 0.988786886609782
17935223 -0.09608386580477966 0.9883570773965542
17938866 -0.09625435716233054 0.9887862644891394
17942510 -0.09566268756376968 0.9889665723971409
17946154 -0.0946777763037598 0.9895068338018567
17949798 -0.09464897406695713 0.9892947351955954
17953442 -0.09469554707158025 0.9897610470753434
17957086 -0.09461284324271281 0.9895107145435877
17960730 -0.0943840496575297 0.9896210497600707
17964374 -0.09458056773502406 0.9889072728495615
17968018 -0.09401060640237117 0.9897986001638216
17971662 -0.09321559461809997 0.9896762029914522
17975306 -0.09322168521500135 0.9896960344946496
17978950 -0.09301018772495818 0.9897193431459198
17982594 -0.09244881494593035 0.9894133165677904
17982594 -0.09286067839585498 0.9900683901046634
17986313 -0.09226321956653885 0.9899005443050369
17990032 -0.09205630028338596 0.9898068610169938
17993751 -0.09157055109133698 0.9897163606921129
17997471 -0.0912626614272675 0.9896595120068467
18001190 -0.09099349893160917 0.9897366583346006
18004909 -0.09135607499235361 0.9892175701152863
18008629 -0.09130945105090447 0.9898371766995868
18012348 -0.090904041027589 0.9898701766135783
18016067 -0.09056670868135552 0.9897521364554968
18019786 -0.09005592109263838 0.9899564811954352
18023506 -0.08999379404779645 0.9898528361235999
18027225 -0.0897223821541938 0.9895048781848693
18030944 -0.08983479502491788 0.9893053399224636
18034664 -0.08946809656301703 0.9895895010109658
18038383 -0.08939630830005639 0.9894240291882067
18042102 -0.0891519487381053 0.9898435059287317
18045821 -0.08880692143494166 0.9904752678605283
18049541 -0.08862922158142553 0.9901469005765232
18053260 -0.08777730138020448 0.9899807892597552
18056979 -0.08738453297123444 0.9894606951495015
18060699 -0.08716121303527889 0.9896308845738535
18064418 -0.08728032579356837 0.9887953928037754
18068137 -0.0869246949781272 0.9885687172490457
18071856 -0.08645840782860056 0.988746717656867
18075576 -0.08599231607032322 0.988938116372668
18079295 -0.08534694887961543 0.9890158064426124
18083014 -0.08489223654465954 0.9892201025517512
18086734 -0.08494490148754653 0.9894078575747848
18090453 -0.08492467258505079 0.989675465842768
18094172 -0.08469492133953072 0.9901034231965369
18097891 -0.08499446124594336 0.990144375646997
18101611 -0.08526666887280251 0.9898442735905396
18105330 -0.08497195582576356 0.9894899601829993
18109049 -0.08487662518939505 0.989512331618096
18112769 -0.08455643329458797 0.9895108843667944
18116488 -0.08398545608591824 0.9899574602460953
18120207 -0.08395718224761194 0.9897491795956765
18123927 -0.0839298567494563 0.990397989656628
18127646 -0.08326584292506557 0.9903040627935991
18131365 -0.08345797204052592 0.9905464460221028
18135084 -0.0831641357047963 0.9904831468123969
18138804 -0.08330584147675828 0.9908159045061298
18142523 -0.08323734297884078 0.9908570167639765
18146242 -0.08313058777160841 0.9911612094859741
18149962 -0.08245842217422694 0.9905625172118966
18153681 -0.0822181080029686 0.9902503367894878
18157400 -0.08193833849422487 0.9901448048810575
18161119 -0.08189324370236645 0.9903626817311046
18164839 -0.08181195970496377 0.9900871983846198
18168558 -0.08120582690368834 0.9899238734913998
18172277 -0.08083754055530475 0.9902250092037141
18175997 -0.08058522161660622 0.990544933317083
18179716 -0.08045758960590144 0.9905375563740704
18183435 -0.08046473566783081 0.9904496147610242
18187154 -0.08035299038513319 0.9909104260355014
18190874 -0.08014524211302504 0.9905229987589037
18194593 -0.07992418550302333 0.9907070961338426
18198312 -0.07909392277873843 0.9912080585791679
18202032 -0.07897738360122696 0.9913380093692415
18205751 -0.07864320785692892 0.9916211634963864
18209470 -0.07866631159122425 0.9914204041950541
18213189 -0.0780157227849191 0.9911346962633248
18216909 -0.07779060606592925 0.9908014275719272
18220628 -0.0778822395541429 0.9906349371035804
18224347 -0.07780700222707837 0.9909600266936998
18228067 -0.07687785325176782 0.9912998523019897
18231786 -0.07695636545977104 0.990600218307253
18235505 -0.07639711540701695 0.9908075400340667
18239225 -0.07665061312595994 0.9912452598097646
18242944 -0.07613137763850396 0.9907939283905853
18246663 -0.0761215941906942 0.9911230127383374
18250382 -0.07607488204034847 0.9905912576668999
18254102 -0.07591496432829874 0.9908076157735216
18257821 -0.07538878653355958 0.9910336011842321
18261540 -0.07480235097296921 0.9910427907257592
18265260 -0.07440031986082404 0.990995653207223
18268979 -0.07452829538933213 0.9912687881703578
18272698 -0.07403550615665958 0.991239051950124
18276417 -0.07397670744784572 0.990900640468848
18280137 -0.07359597101173361 0.9904938965063448
18283856 -0.07391812642313195 0.9910845020921712
18287575 -0.07336622302942852 0.9910054619730259
18291295 -0.07327143437167521 0.990883628583271
18295014 -0.07318636610353443 0.9909729630065823
18298733 -0.07319092847351667 0.9910236601564487
18302452 -0.07251646592833952 0.9912686522814192
18306172 -0.07242077156570288 0.9913583114297847
18309891 -0.07223750979552415 0.9912519524334729
18313610 -0.07253085946976574 0.9910550798663615
18317330 -0.07189929916869967 0.9908820237610436
18321049 -0.07143590063205543 0.9912408364251304
18324768 -0.07091113884862178 0.9915153806250285
18328487 -0.07041015986888462 0.9914068320299492
18332207 -0.06980226813337538 0.9914066999127668
18335926 -0.0696404851202041 0.9913492301586894
18339645 -0.06924637188795056 0.9909803374020794
18343365 -0.06937552429319895 0.9911197619955004
18347084 -0.06975116395703375 0.990967894654558
18350803 -0.06975387738883605 0.9911200003499195
18354523 -0.06950494939427256 0.9911719038234402
18354523 -0.06968174723371921 0.9913865309611753
18358319 -0.06991977646567499 0.9920004504559699
18362115 -0.06967439234585272 0.9913302337707287
18365911 -0.06913927175066233 0.9911106428761155
18369707 -0.06866512411438862 0.9913323908740042
18373504 -0.06821556676247317 0.9913011352044291
18377300 -0.0681990427457373 0.9913582604567206
18381096 -0.0679315726794888 0.9913472643803615
18384892 -0.06764250465972493 0.9914024395443467
18388688 -0.06763305545520117 0.9918261534487202
18392485 -0.0669427447847227 0.9917506043164369
18396281 -0.06659179608593692 0.9918777071377548
18400077 -0.066115581240647 0.9919187146877467
18403873 -0.06654066810891958 0.9919824717121439
18407669 -0.06623204064878241 0.9913140412314141
18411466 -0.06565534402769355 0.9910810389431242
18415262 -0.065124493990219 0.9913639489043903
18419058 -0.06484369469773352 0.9913124120414124
18422854 -0.06434157202472766 0.9916583586381842
18426650 -0.06435650659637651 0.9911533522577883
18430447 -0.06362153746564685 0.9916152350616828
18434243 -0.06345408625771844 0.9914766540974573
18438039 -0.06281184153815965 0.9914512005145579
18441835 -0.06263627094867104 0.991720274513016
18445632 -0.06279684055616512 0.9916996488008323
18449428 -0.06270942662030785 0.9915703515294972
18453224 -0.06270082267941418 0.9913293513040307
18457020 -0.06271143485852593 0.991854548167528
18460816 -0.06277257729089915 0.9924357306597258
18464613 -0.06268710925534635 0.9923467592695808
18468409 -0.06226853941021214 0.9919703599621621
18472205 -0.062001394160928223 0.9917187086881932
18476001 -0.061778365291840324 0.9915364700630509
18479797 -0.061620281732739514 0.9914196551866478
18483594 -0.06130826665607613 0.9916549713668134
18487390 -0.061000957193012094 0.9921699987161008
18491186 -0.060730410762783016 0.9923403487938113
18494982 -0.06025387634236446 0.9929459241032619
18498778 -0.05982616717052707 0.99265138242734
18502575 -0.05950463967109396 0.9927330168435429
18506371 -0.05889702505576635 0.9929497391207801
18510167 -0.05876935874777667 0.9928299122587801
18513963 -0.05839901683978342 0.9927261138038767
18517760 -0.05856140425725984 0.9924485751927233
18521556 -0.05873635790619112 0.9923181202806477
18525352 -0.05851984017310367 0.9923686621205375
18529148 -0.058585156332103594 0.9923369642566707
18532944 -0.05807776593718963 0.9923049727375474
18536741 -0.058436168299585964 0.9923674613939086
18540537 -0.05831740459014968 0.9921478598717934
18544333 -0.057745230991403475 0.9921876794988966
18548129 -0.05767254910240329 0.9926015110135876
18551925 -0.05731766489542285 0.9925388494534496
18555722 -0.057794263690841674 0.9929267065520654
18559518 -0.05765273112718423 0.9922434819331759
18563314 -0.056798628690295505 0.9923037551315866
18567110 -0.05652638345213439 0.991966429423803
18570906 -0.056187023063408385 0.9927149361290976
18574703 -0.05542529417522798 0.9927562210819509
18578499 -0.05484669457904538 0.9930890577954892
18582295 -0.05510721426186303 0.9926581562264395
18586091 -0.05496240535600036 0.9929083103169561
18589888 -0.054875913681118965 0.9927725103718922
18593684 -0.05481009018381812 0.9925346792122336
18597480 -0.054165101980261386 0.9929093386291431
18601276 -0.05350019158818759 0.9931711995924444
18605072 -0.052825447835730614 0.9932509172502414
18608869 -0.052698399771853525 0.9928409674863526
18612665 -0.05250172494139748 0.9927769894801866
18616461 -0.05329793339206191 0.9933231699390764
18620257 -0.05280995259640457 0.9928494666857741
18624053 -0.052826934991378624 0.9929856493341715
18627850 -0.052700751340436974 0.9932215592162199
18631646 -0.05256817996660396 0.9937640622676863
18635442 -0.05265702450012557 0.9936734634856963
18639238 -0.05232443899875515 0.9931039997469033
18643034 -0.05223741892007765 0.9933844969744311
18646831 -0.05174196682358994 0.9925090738921665
18650627 -0.05112905050310133 0.9930889487639625
18654423 -0.050807684231924825 0.9930196285866293
18658219 -0.050423223039014704 0.9934095690769806
18662016 -0.05015344575934662 0.9930173813767584
18665812 -0.04982132456407255 0.9928053968864822
18669608 -0.04938453556360167 0.9934853751697235
18673404 -0.049095882863919145 0.9927745421237104
18677200 -0.04855099015602588 0.9929580859301876
18680997 -0.04866279880501267 0.992791499091137
18684793 -0.048628521206680604 0.9931925094653298
18688589 -0.04785071473699864 0.9933363334917281
18692385 -0.04838358014205906 0.9928352374097325
18696181 -0.04829574555247722 0.9936479283765961
18699978 -0.04858511056194319 0.9931395523612142
18703774 -0.04766817352938453 0.9935702726856095
18707570 -0.04738312020220837 0.9937903687337795
18711366 -0.047018833126907154 0.9940241383991386
18715162 -0.04698612613938236 0.9940961634865648
18718959 -0.046497966450449686 0.9939637675688009
18722755 -0.046450599097711945 0.9938881879632885
18726551 -0.046299719484205734 0.993911314944192
18730347 -0.04624085054487003 0.993819455561924
18734144 -0.045240309457472226 0.9935359929040303
18734144 -0.04553175569885694 0.9937936357301712
18738018 -0.044840678909784874 0.993759959560005
18741893 -0.04450111241094467 0.9936205986257358
18745768 -0.04447217042669029 0.9933132883768269
18749642 -0.04459708009108411 0.9935384168547389
18753517 -0.04501030135356237 0.9935516796817355
18757392 -0.04440602729737524 0.9928435429924597
18761267 -0.0441781292869648 0.9935261222048064
18765141 -0.04372489520456303 0.9935315995534271
18769016 -0.04329206494075229 0.9938297424105531
18772891 -0.04282613524368686 0.9940220493426117
18776766 -0.0424351171403471 0.9939970523914666
18780640 -0.04250800339866949 0.9938157645269398
18784515 -0.04228874837658121 0.9937268564658731
18788390 -0.041685420733551595 0.9939289489278483
18792264 -0.04093458394161663 0.9928170894413886
18796139 -0.040651787291396096 0.9935715547171843
18800014 -0.04081688982402658 0.9935975153298271
18803889 -0.040140107884731074 0.9938440164941859
18807763 -0.04070714462347388 0.9937543788105511
18811638 -0.04012455598076678 0.9936912862351539
18815513 -0.03989014096558387 0.9939541218585392
18819388 -0.03927825495013265 0.9934119165868553
18823262 -0.03929850675411769 0.9939443899452488
18827137 -0.03951960719199261 0.9940449008851964
18831012 -0.039570020189355945 0.993683760912077
18834886 -0.039831122287434226 0.9938956123380351
18838761 -0.039293473551005154 0.9940260638545351
18842636 -0.03843461102245601 0.9937481080567876
18846511 -0.03800835440119805 0.9945861338007497
18850385 -0.03777998637471651 0.9944214549949978
18854260 -0.037094871077659054 0.9948959082435316
18858135 -0.037850678163595525 0.9943815265653367
18862010 -0.03830077528339064 0.994601664418363
18865884 -0.03788837585543855 0.9941177081832487
18869759 -0.037494759290434845 0.9936737832836043
18873634 -0.03738363306756477 0.9940379586284589
18877509 -0.0366986729110671 0.9943985660035267
18881383 -0.035954734341136246 0.9944353511853828
18885258 -0.036142901156870896 0.9944288048619299
18889133 -0.0361439941222377 0.9942745443132756
18893007 -0.03535516338170521 0.9941952410838769
18896882 -0.034799155837077794 0.9942543040807917
18900757 -0.034544916104247654 0.9947152307120347
18904632 -0.0343838173208857 0.9947541839850571
18908506 -0.033778710742443735 0.9951762488650329
18912381 -0.034190623676586304 0.9948103681571738
18916256 -0.03415985309256635 0.9948188029094973
18920131 -0.03459846427681009 0.9954740007159631
18924005 -0.03372912166687252 0.9948038989750879
18927880 -0.03331835927530462 0.9950930990077982
18931755 -0.032760856385434994 0.995381340584544
18935629 -0.03173831956142811 0.9956810276043015
18939504 -0.032508412064311924 0.9951160762374561
18943379 -0.032324630933560146 0.9957915382898997
18947254 -0.03165514641423622 0.9947889227747562
18951128 -0.03175333360043062 0.9949067824825963
18955003 -0.031361628925368416 0.9950212650604056
18958878 -0.03131059071884435 0.9953913543166948
18962753 -0.031230191140959786 0.9955765170518293
18966627 -0.03067345720559363 0.9949270161812391
18970502 -0.03046061656472689 0.9955684631391291
18974377 -0.02938944079315976 0.9948152024849315
18978251 -0.02913798804158551 0.994950316135666
18982126 -0.0290325089005227 0.9949714833317121
18986001 -0.0294131280162271 0.9950109594959492
18989876 -0.02938455972134762 0.9943533458461106
18993750 -0.02943452855045101 0.9951528833931128
18997625 -0.02863505501378677 0.9949284412563578
19001500 -0.02805785397101809 0.9945743569528476
19005375 -0.02803885240741554 0.9944890032179557
19009249 -0.02757054423687417 0.9947595424789275
19013124 -0.027754124599430482 0.9946043426052554
19016999 -0.027613127532932907 0.9945182512412217
19020874 -0.027004064073658005 0.9945986133364753
19024748 -0.02682729913835421 0.9952455524079241
19028623 -0.02636468881214209 0.9951220158819095
19032498 -0.0261983820491804 0.9951499115296968
19036372 -0.026055062494064175 0.995025472467757
19040247 -0.025999231605271483 0.9952569353308706
19044122 -0.025991308690226495 0.9952388422368679
19047997 -0.02563322174265998 0.9954585977231086
19051871 -0.025237713671420164 0.9952521884311412
19055746 -0.025308077784471947 0.9950851691186802
19059621 -0.024624989348138483 0.9951263236350458
19063496 -0.024528502525579525 0.9955160737607999
19067370 -0.024505281426785718 0.9955858077122635
19071245 -0.023928959636467857 0.9955659997257492
19075120 -0.0235865344985999 0.9951196639887742
19078994 -0.023467814374961114 0.9955082443542231
19082869 -0.023050624275198786 0.9953384270763624
19086744 -0.02260279613614552 0.9959280390112768
19090619 -0.022818170103798736 0.9961188191303794
19094493 -0.022059562171709103 0.9960560849505314
19098368 -0.02193625627093476 0.9962371032087887
19102243 -0.02162604928467039 0.9959798401420387
19106118 -0.021634493478768918 0.9957093685824732
19109992 -0.021040630085306516 0.9956225258136757
19113867 -0.02100828195320918 0.9960320107360224
19117742 -0.02104568547907438 0.996576420075206
19121617 -0.02031204449111067 0.9964164390047896
19121617 -0.02039845898691288 0.9957377301244019
19125571 -0.020049120550773666 0.9958669298693824
19129526 -0.020083864806677072 0.9956873286454162
19133481 -0.019738800124531275 0.9961419556627491
19137436 -0.019324393762826363 0.9952937268820677
19141391 -0.018678746446675665 0.9955914213770175
19145346 -0.01838618832612416 0.9954809582892319
19149301 -0.018410630665104843 0.9957358277253355
19153255 -0.01772050641084904 0.9953630335778482
19157210 -0.017585181960188524 0.9958383258554846
19161165 -0.017710681995706003 0.9954647987565756
19165120 -0.017314487801758403 0.9961558738524152
19169075 -0.017029394952665994 0.9953407111912743
19173030 -0.016844686136215353 0.9956922691275278
19176985 -0.016635166662911077 0.9960142773416895
19180940 -0.01713783657967825 0.9963314801107434
19184894 -0.016406794178012208 0.9959541309412149
19188849 -0.016391580829685667 0.9956429921889588
19192804 -0.01566806237193456 0.9964989854795462
19196759 -0.015657690288380318 0.9965061437914581
19200714 -0.014872046876927485 0.9971270797341802
19204669 -0.014817107117494503 0.9965769183670775
19208624 -0.0145356481636883 0.9962788508611126
19212579 -0.014394668820811734 0.9967387572224448
19216533 -0.01427991967785016 0.9973049700733858
19220488 -0.014106380886306696 0.9960702000012218
19224443 -0.012941762059243618 0.9963539705296236
19228398 -0.013261238199959018 0.9965800611988801
19232353 -0.013583740050512508 0.9968155526827374
19236308 -0.014004658557106005 0.9960732417500754
19240263 -0.013437063751578795 0.9956175990056156
19244217 -0.013104114206561062 0.9959809944901487
19248172 -0.01308286261296235 0.9959627195137585
19252127 -0.012604669921583793 0.995774738680659
19256082 -0.012103313887040543 0.9955122936975721
19260037 -0.012134203963141642 0.9961024398074103
19263992 -0.011432402841375104 0.9969162896441336
19267947 -0.01126607968064078 0.9963884132155867
19271902 -0.011000333492243074 0.9961999985234192
19275856 -0.010950776112519512 0.9959845900438474
19279811 -0.010811132456434077 0.9965467714274903
19283766 -0.010991004847756305 0.9968799042334975
19287721 -0.01038400960671626 0.9965509248296668
19291676 -0.009970841319708497 0.9967422021284463
19295631 -0.00994621754817493 0.99700665917395
19299586 -0.009803157965718552 0.9969879841349573
19303541 -0.009318223090870954 0.9965255101549945
19307495 -0.008758221328581691 0.9964227800688299
19311450 -0.008374664116276192 0.9962754371441095
19315405 -0.008259905955646728 0.9968238568543705
19319360 -0.008345837505442424 0.9962946107460898
19323315 -0.007289761576914618 0.996081976860799
19327270 -0.007629286937380991 0.9962327858079799
19331225 -0.006863559493782341 0.9966145117292137
19335179 -0.007086579909831782 0.9968606412087958
19339134 -0.006414231140764899 0.9968922344970589
19343089 -0.006068519707641124 0.9972397988535383
19347044 -0.005835413141965843 0.9974532645011412
19350999 -0.005910836725803639 0.9973025503819556
19354954 -0.005835266247214514 0.9968058323376013
19358909 -0.0056976923933610354 0.996866198412405
19362864 -0.00580746517595215 0.9971520370690331
19366818 -0.005492556489554476 0.9974319037484785
19370773 -0.005398976132924364 0.9970408567391319
19374728 -0.005623499485551296 0.9970498607507434
19378683 -0.005282840430882263 0.9967773290662822
19382638 -0.004774206042169611 0.9969462940583375
19386593 -0.004726146912519475 0.9966626551562291
19390548 -0.0043858061544360645 0.9960012832871743
19394503 -0.0038642130420725018 0.9966997641070291
19398457 -0.00290271772413414 0.9974095231160467
19402412 -0.0027625310698954444 0.9967255509310353
19406367 -0.0024673665511247625 0.9966594641781984
19410322 -0.002107125926365023 0.9967572662026947
19414277 -0.0020102781459371733 0.9979214411997065
19418232 -0.002088841247309356 0.9971552059929151
19422187 -0.0017776453504027522 0.9970000620339431
19426141 -0.0020056005211659717 0.9971635120256298
19430096 -0.0016185100978341443 0.9972779324070574
19434051 -0.0011600922056878426 0.9965310299571726
19438006 -0.001468124351149912 0.996838440642015
19441961 -0.0011219587611177649 0.996750401850673
19445916 -0.0012234125160776668 0.9968497270313772
19449871 -0.00020628798134288454 0.9974226828307482
19453826 -0.000273060176418373 0.9971484440283007
19457780 0.00019015126952507468 0.9969745056363756
19461735 0.0007244947077579463 0.9971201254300934
19465690 0.0008010675416701412 0.9977170772017172
19469645 0.0013802198715767264 0.9967639724472251
19473600 0.001464343845516141 0.9968957987493745
19477555 0.002133518088205456 0.9970878825674454
19481510 0.002577993598371158 0.997802874019363
19485465 0.002812218542357345 0.997809824306011
19489419 0.0027481410898944317 0.9975517526658513
19493374 0.002828254577334078 0.9975539148884964
19497329 0.0028256231747084354 0.997543173608093
19501284 0.003272416117844999 0.9971442256436879
19505239 0.0033346379956712396 0.9973308742245837
19509194 0.0038459255463572737 0.9973005104405323
19513149 0.0049055350635013265 0.9977374008085073
19517104 0.004989362076754265 0.9980156358461251
19517104 0.005155159414335878 0.9978481677685597
19521140 0.004940472536651739 0.9975444709436468
19525177 0.005198919052054932 0.9980648846613659
19529213 0.0052795484973427315 0.9974500587328364
19533250 0.004939268296322511 0.998434075423952
19537287 0.005423805897802755 0.9978700636170232
19541323 0.00572231673361934 0.9979256249281897
19545360 0.006186374218198462 0.9987394184490921
19549397 0.00578330552868296 0.9982871300090292
19553433 0.006311299839564586 0.9983601539996393
19557470 0.006720973982405261 0.9975190392962173
19561507 0.007578867278713787 0.9979203226837758
19565543 0.00824797862351163 0.9978958043631675
19569580 0.007938623883045734 0.9978326400112483
19573617 0.008615008784442792 0.998225709094004
19577653 0.00841605398712593 0.9982811904861416
19581690 0.008298006584122957 0.9980337488113715
19585727 0.009182599762375288 0.9982809006717169
19589763 0.008627016483923156 0.9977156502776825
19593800 0.00926416716929732 0.9977336859793831
19597837 0.009395439295177586 0.9980356051875808
19601873 0.009172845172946885 0.9980405589524057
19605910 0.010086912479863677 0.9986378198685134
19609947 0.00946269977713154 0.998184261655745
19613983 0.009757461158063493 0.9986553380825335
19618020 0.00966155822650616 0.9987320740298712
19622057 0.009627320567055423 0.9984221428731759
19626093 0.010577643839591288 0.9981537254709089
19630130 0.01052180503543318 0.9972375698084998
19634167 0.011428147004753229 0.9975592942555844
19638203 0.011259678811946673 0.9979715149897592
19642240 0.011153540592115496 0.9978560726144229
19646277 0.011465953872685503 0.9986559070689508
19650313 0.011732844471516748 0.9982794697545054
19654350 0.011616348323868018 0.9982964732962919
19658387 0.012257485544208751 0.9985832335593315
19662423 0.01171761533152071 0.9978303909637738
19666460 0.012880448995865207 0.9983595974132734
19670497 0.013182936540593314 0.9985492987233362
19674533 0.012496028656796316 0.9981470374586152
19678570 0.01381543946004626 0.9982604733012148
19682607 0.013072956951903855 0.9976246496779934
19686643 0.013901325594762738 0.9983037518039297
19690680 0.014725737580508502 0.9986597794075482
19694717 0.014297424172897755 0.9987562260900336
19698753 0.015019442082919717 0.9986990730728207
19702790 0.015366971358849006 0.9990223405660794
19706827 0.014058939364696965 0.9986928198395829
19710863 0.014389648294630082 0.998133748767759
19714900 0.015242698940163689 0.9983431877761619
19718937 0.014629366614511254 0.9984843692419476
19722973 0.01570004020869857 0.998394938078288
19727010 0.016080268720422244 0.9996054581449829
19731046 0.015631492507704934 0.9979322869923334
19735083 0.01643142328676272 0.9982090503471511
19739120 0.017284947083221907 0.9987832927039275
19743156 0.016834962068884157 0.9982971650549055
19747193 0.016810802625412385 0.9992553563819424
19751230 0.018198051378177264 0.9999119227104387
19755266 0.017653410703116587 0.9990353302729763
19759303 0.018095826901347225 0.99953111462321
19763340 0.0188385185577425 0.9992572316021169
19767376 0.01855891700741539 0.9988174244959205
19771413 0.018194610628794513 0.9988291544673147
19775450 0.01929489555618364 0.9987341621566775
19779486 0.01923950285091709 0.9989573567198647
19783523 0.01953025480747777 0.9988496852273275
19787560 0.020773317345645248 0.9991481364269182
19791596 0.020883118908121185 0.9992155170691192
19795633 0.020633787837026428 0.9993653567398582
19799670 0.021777173947855364 0.9992788931722855
19803706 0.02093943009597348 0.9987800104094512
19807743 0.021081759572052505 0.999041253669575
19811780 0.022039660370092858 0.9987755197566935
19815816 0.022190284084223823 0.9985611344405995
19819853 0.021907546334918936 0.998706137367991
19823890 0.02282299941086865 0.999105941814549
19827926 0.023310331309583533 0.9992568149589995
19831963 0.022310870530941326 0.9994354332610523
19836000 0.023314786978559952 0.9996612055254002
19840036 0.022518411531215136 1.000102532716253
19844073 0.022887924663453987 0.9998992346899461
19848110 0.02408685319590783 0.9997890333460592
19852146 0.024029520929238508 0.9997306832081561
19856183 0.023996644632892358 1.0001260527445326
19860220 0.025317241061184 0.9994982356519012
19864256 0.02544211284310226 0.9999348394437917
19868293 0.024530751116710946 0.9996387582903526
19872330 0.025419707782250694 0.9995134994770758
19876366 0.02479799418301475 0.9995252081278041
19880403 0.024017033850543337 0.9991651631365017
19884440 0.0249357121928722 0.9991747676650061
19888476 0.02574399335557975 0.9991961858439283
19892513 0.025373064967928557 0.9990955925894984
19896550 0.02646373144823313 0.9990524754903143
19900586 0.02685153088827662 0.9996018124470275
19904623 0.026001716668948145 0.999237163086429
19908660 0.02691530908245762 0.9994988565305144
19912696 0.027241306474279477 0.9989097104082723
19916733 0.02670077900986821 0.9991848568039371
19920770 0.028244361485248722 0.9996274757646982
19920770 0.02769834114844494 0.9995193952370297
19924890 0.028601824505274875 0.999696551568739
19929010 0.02773303159939274 0.999843568073828
19933130 0.02816792570167316 0.9996634509192593
19937250 0.028138229084139505 0.9996668116977003
19941370 0.028178672289851756 1.0004176414850936
19945490 0.029105381199600985 1.000132874111511
19949611 0.028945373414055297 1.000232919787146
19953731 0.02933590474968619 1.0000267103332428
19957851 0.02887849279042258 0.9998783528107172
19961971 0.029558572122959682 1.0000477842671613
19966091 0.030058269770441876 0.9998252906441599
19970211 0.029876133220923723 0.9997873345686672
19974332 0.030351197892686647 1.0001481935634906
19978452 0.03032139578090111 1.0000864434934766
19982572 0.030599723372049734 0.9997867851260169
19986692 0.0313832324619038 1.0003261069450065
19990812 0.03176162551676296 1.0001875747909283
19994932 0.032443639669697724 0.9999143173538206
19999053 0.03196523884662617 1.0000980118666474
20003173 0.03281129990062029 1.0009681450782373
20007293 0.03246543999106623 1.0004858302830764
20011413 0.03274496515953845 0.9997810638296417
20015533 0.033068857230975766 1.0002353808266338
20019653 0.03235071555056085 1.0002020427571858
20023774 0.03309301041772163 0.9995514638836281
20027894 0.03232777112623157 0.99948554913522
20032014 0.03296761277393681 0.9993432405013476
20036134 0.03263559475449824 0.9993837179748052
20040254 0.033610117363504735 1.0000535497049747
20044374 0.034039260109098864 1.0003925904016975
20048494 0.03359669546456893 1.0001394451906385
20052615 0.034019688308287305 1.0003556786566599
20056735 0.033282585752236395 1.000336984977355
20060855 0.03401567187769907 1.0003146352947716
20064975 0.03379399614521092 0.9996319232336852
20069095 0.034917565775836226 0.9998474373244726
20073215 0.035699829385542836 0.9995401099668311
20077336 0.034919060065411955 0.9997665688541573
20081456 0.036228596796812125 1.0002016978675214
20085576 0.03534896161448399 1.0004040209355112
20089696 0.03572723236223478 1.0001683819206209
20093816 0.035756004468903584 0.9997910217091861
20097936 0.03625164632228307 0.9999713143178449
20102057 0.036548049849338855 0.9994349151525243
20106177 0.03665114419648892 0.9998903016653201
20110297 0.03691621533455693 0.9995798857610995
20114417 0.03704009739853511 0.9997155269582206
20118537 0.037500563920970106 0.9997644956037121
20122657 0.03810365509254599 0.9998661020204496
20126778 0.03886556112755899 1.0001653943843225
20130898 0.038713058618702896 1.0006398951027011
20135018 0.03923783027546734 1.0001019794481643
20139138 0.03933329007998936 0.999938672137825
20143258 0.04000060158911839 1.0003734852264754
20147378 0.039357801424050404 1.0004060764670504
20151498 0.039560556858776005 1.0003306649798325
20155619 0.03943355462096973 0.9994229565959462
20159739 0.039682893643830944 0.9997822116929445
20163859 0.03971175799377425 0.9999896644642519
20167979 0.03928497793942153 1.0001618461996735
20172099 0.04004942793408426 1.0001983825414433
20176219 0.04057690215806283 1.0000127201440066
20180340 0.04100436852289428 1.0000782017399499
20184460 0.04124353351545646 1.000196173480314
20188580 0.04160518924016471 0.999891533059617
20192700 0.041627214165645465 1.0005235602271205
20196820 0.04104533098048771 0.999654911754664
20200940 0.04157240808839083 0.9999122989312966
20205061 0.04208149510563266 1.0000835555181053
20209181 0.04199682972432657 0.999563554072478
20213301 0.04225576233315024 0.9998942724087694
20217421 0.04250059573423334 0.9997248035347518
20221541 0.04330420064679398 1.0005121077957222
20225661 0.04355575173224701 0.9997185736907243
20229782 0.044168492285271276 1.0006533809833167
20233902 0.04468116083515162 1.0006931627599034
20238022 0.04456122197876611 1.0006403839931752
20242142 0.04470255260953045 1.0002708696661085
20246262 0.04485574340599926 1.0003443567937738
20250382 0.0454037938778145 1.0012125849168554
20254502 0.04503249261206011 1.0002223969891908
20258623 0.04580616098021421 1.0006369082495004
20262743 0.046425823664669554 1.0008737507641505
20266863 0.04571356232176708 1.0000655302765395
20270983 0.04630539346223236 1.0005795209887336
20275103 0.04662920270183208 1.0000798591355118
20279223 0.04683037657941388 1.0012005715655594
20283344 0.04683975135661384 1.0016372392495578
20287464 0.0469966250112487 1.0006711640836587
20291584 0.047532928531774356 1.001021299795647
20295704 0.047335638355609104 1.0004466567893144
20299824 0.04844692941261019 1.0011399762932833
20303944 0.04791138359280485 1.0005542992407523
20308065 0.04856887102971482 1.0013799106478025
20312185 0.04871340840022292 1.001183613349208
20316305 0.048263455384807565 1.0008039521567573
20320425 0.04853199862394265 1.0008882807742179
20324545 0.0478893134536033 0.9999782651606252
20328665 0.049017303939819325 1.0011560834021433
20332786 0.048999938559366636 1.000355440740331
20332786 0.04853411479537675 1.0002730009373983
20336991 0.04939090839905147 1.0005945845336055
20341196 0.04928427384568569 1.000524070884548
20345402 0.05016824582474635 1.0011760289168163
20349607 0.0499106738461028 1.0007408503101656
20353812 0.05093175946495748 1.0017534142931768
20358018 0.05108243782608287 1.001170452266822
20362223 0.05115822214153464 1.0011393727663156
20366428 0.05117886818488366 1.0010151434274226
20370634 0.05151934750980789 1.000460695605631
20374839 0.0514047217945858 1.0002086844366196
20379045 0.05161161781845507 1.0001018732264009
20383250 0.05203266053004002 1.0004861359592634
20387455 0.052553634859997624 1.000610138541114
20391661 0.05248981910426043 1.0007929340922295
20395866 0.0523743937617236 1.0008580285803421
20400071 0.05258742897211498 1.0008778556524216
20404277 0.05274255429988987 1.0010745432174553
20408482 0.05320750285680827 1.0012585222604147
20412688 0.05294812166142839 1.0010361537731134
20416893 0.05385242324907562 1.0008653228762194
20421098 0.053948211511222414 1.0009094859077903
20425304 0.054663640185313694 1.0013796761934617
20429509 0.05374579535079652 1.0003455371656271
20433714 0.054820388015945604 1.000778860730101
20437920 0.054154689204952394 0.9998237616802889
20442125 0.05489739433255213 1.00059539286104
20446330 0.054314072354160164 1.000147674102478
20450536 0.05518634834245755 1.0006692765717016
20454741 0.05486870358989482 1.0008686556610211
20458947 0.055582858046729036 1.0010616788864233
20463152 0.054821144470995564 1.0005400156358293
20467357 0.05618912421830173 1.0006940454303235
20471563 0.05592116876344762 1.0003511141765085
20475768 0.057154015329095746 1.000368673315428
20479973 0.05658172406822136 1.0005357316060932
20484179 0.05799604975757855 1.0004588777580194
20488384 0.05737894034787504 1.0004344337880406
20492590 0.0581161714789653 1.000442511095045
20496795 0.057422218574753305 1.000378129235614
20501000 0.05810797693884538 1.0008848652628115
20505206 0.05736480121146222 0.9997921536995579
20509411 0.05850314755862092 1.0003747694406102
20513616 0.05833321373922305 1.0004148344516424
20517822 0.05867875741291724 1.000348794649161
20522027 0.05839164639316895 1.000424334964211
20526233 0.05975570349515771 1.0011591133994635
20530438 0.05907594118253033 1.000410745573018
20534643 0.06005843594203155 1.0012449310280895
20538849 0.05997475455627311 1.0006467101065804
20543054 0.06077108190628159 1.0010301250326183
20547259 0.061098394244724706 1.0009231387219133
20551465 0.06149586877507309 1.0012386101890203
20555670 0.060939489164223946 1.0008012602305554
20559875 0.06092311263715846 1.0005902635651214
20564081 0.06054659392357904 1.0010264156266018
20568286 0.06068148784202391 1.000581838207253
20572492 0.06095136846474042 1.0005717502526787
20576697 0.06125117650255363 1.000162318083288
20580902 0.062186628469763784 1.0009344885078015
20585108 0.06176720600484473 1.0001958268200728
20589313 0.06278865557917301 1.0008858822460307
20593518 0.062118266711555695 1.0005611610014933
20597724 0.06280335718890043 1.0001897394213135
20601929 0.06214602688037424 1.0003185226741036
20606135 0.06300609938548836 1.000415415200962
20610340 0.06294635115435397 1.0004255368445722
20614545 0.06419002686440743 1.0004792707383012
20618751 0.06398526394220214 1.000914295892695
20622956 0.06479596434537441 1.0011118357993998
20627161 0.06442449628691138 1.001098655724009
20631367 0.06483598407500007 1.0013103191940098
20635572 0.06461516417453349 1.000982796383249
20639778 0.06517945836889373 1.0012104472376182
20643983 0.06523425401855538 1.0007815737801178
20648188 0.06618983982812111 1.0010555646450157
20652394 0.065766567139816 1.0008762087709961
20656599 0.06561370809094892 1.000893337454987
20660804 0.06476612959424616 1.0008611551680497
20665010 0.06559593701194426 1.0009061774287342
20669215 0.06529530868406312 1.000617516456756
20673420 0.0668398007057578 1.0007939863860336
20677626 0.06615136369013527 1.0004566151930991
20681831 0.06731160391549203 1.0003718370152717
20686037 0.06650227874670693 1.000550227257495
20690242 0.0678376840138035 1.0008638591367391
20694447 0.0670392187776955 1.000743188337323
20698653 0.06812740603102156 1.0006560185945357
20702858 0.0671563668352666 1.000472361732584
20707063 0.06858321714526103 1.0000285052948752
20711269 0.0679074429855811 0.9997885699545108
20715474 0.06923416459505721 0.9997281458489552
20719680 0.06844494794519362 0.9999460691508204
20723885 0.06933400915576629 1.0002751573748878
20728090 0.06846745019748934 0.9999409088916906
20732296 0.0699709128938858 1.000702361081915
20736501 0.06916090638281809 1.0004439968404841
20740706 0.070151991598095 1.0000697444970514
20744912 0.0692900968811052 1.0000424095730953
20749117 0.0707655187238968 1.0002607131027879
20753323 0.06999506606155899 1.0006868206883515
20753323 0.0710988340038752 1.0010676692116305
20757615 0.07003379613584776 1.0010355280520218
20761907 0.07097273527264628 1.0019911285654952
20766200 0.07224918530000715 1.0013599140538827
20770492 0.07149583172140785 1.0010907217685319
20774784 0.07307363263855482 1.0010450796083556
20779077 0.07234947868579779 1.0006102338404965
20783369 0.07378391972714084 1.0004083433283104
20787661 0.07369430869377748 1.0004147818328024
20791954 0.07312152572199505 1.000390424204056
20796246 0.07326902296278526 1.0002440256292358
20800538 0.07229015675762691 0.9996467590071749
20804831 0.07295356996080002 1.0002835144720204
20809123 0.07298073521250939 0.9999346921937189
20813415 0.07326716646679513 1.0002883845731758
20817708 0.07457966153007753 1.0001519552588927
20822000 0.07315288535385281 1.0002641358292632
20826292 0.07478375242694543 1.0008597370157615
20830585 0.07452848910129488 1.0005824751531693
20834877 0.07415812659800229 1.0005770869780568
20839170 0.07546419126523106 1.0006317592647387
20843462 0.0745207380578905 1.0000616847027441
20847754 0.07578879370798201 1.0010748513117853
20852047 0.0757078395912392 1.00123986380337
20856339 0.07512930049877112 1.0010556456285555
20860631 0.07606138898130552 1.0004893279581286
20864924 0.07540506149934871 1.0003763060804705
20869216 0.07721223527308443 1.0002872727987338
20873508 0.0768218816661105 1.0001787872675452
20877801 0.07642871589093861 1.0007294076439945
20882093 0.07720689450658325 1.0008913104153894
20886385 0.07632285147543899 1.0009439868827397
20890678 0.07762444368644045 1.0012078159844142
20894970 0.07758223623017937 1.0009002030172267
20899262 0.07765468650681262 1.0007068625221078
20903555 0.07908332789822502 1.000520481764775
20907847 0.07860659847970217 1.0002751617773484
20912139 0.07852734341387695 1.0005588602652573
20916432 0.07940483820991676 1.000238863813562
20920724 0.07903946781572348 1.0006833852357686
20925017 0.08035405400877599 1.0004407065175662
20929309 0.07987100721006164 0.9998835596439786
20933601 0.08031909619105926 1.0004811179830446
20937894 0.08049676568347097 1.0005974806825526
20942186 0.07983332675679239 1.0005778958567348
20946478 0.08066964601101034 1.0010669109152137
20950771 0.08076858794936277 1.0003351322731786
20955063 0.0814451367291334 1.0005776144412792
20959355 0.08097070785107824 1.0001806888917268
20963648 0.08095490761962494 1.0008077527195722
20967940 0.08181763675602206 1.0011916106009073
20972232 0.08166561348705927 1.0000864596174597
20976525 0.08162117227822589 1.000825671618554
20980817 0.08234877698250767 0.9999147871728771
20985109 0.08199929604615368 1.000235240909338
20989402 0.08175622588247407 1.0003114797811414
20993694 0.08304135334806999 1.0006177759489883
20997986 0.08331223756303519 0.9996307374197779
21002279 0.08260895358572043 0.9997137329853434
21006571 0.08314614516078689 0.9998143583191276
21010864 0.08396304312299345 0.9994872939012681
21015156 0.08400375381719609 0.9999778827789707
21019448 0.08373516658618525 0.9997464758762735
21023741 0.08376307390650031 0.9993534529441533
21028033 0.0834664599073899 0.9989907382683092
21032325 0.08314747962282334 0.9995495788805704
21036618 0.08434445649869547 0.999200233489552
21040910 0.08456448845170557 0.9993561115382802
21045202 0.08410346741177521 0.999869481216678
21049495 0.08526762537655373 1.0003204955773393
21053787 0.08492887486287985 1.0001584472642095
21058079 0.08487774275202233 1.0005496541670778
21062372 0.08649293258582882 1.0013235525876458
21066664 0.08612626733353547 1.000330344232042
21070956 0.08603034873901763 1.000764680779134
21075249 0.0877725760985358 1.000863110435858
21079541 0.08802676551939334 0.9992096466530623
21083833 0.0871902962281205 1.0004069248681942
21088126 0.08848065555257652 1.0004240286789308
21092418 0.08861077334967207 0.9993557554837293
21096711 0.08758132960443624 0.999534608291906
21101003 0.0885065424638865 1.0001165721431609
21105295 0.08861289174844118 0.9988372604128173
21109588 0.08852486746766139 0.9991958616703832
21113880 0.08873465760516912 0.9998045817556008
21118172 0.08937341708827316 0.9994615362437816
21122465 0.0890309104687281 1.0001323401994902
21126757 0.08938182405853076 1.0006852984783754
21131049 0.0899158759322657 1.00026736402524
21135342 0.08991228705258926 1.000166654791401
21139634 0.09030869099214724 1.0002076371044117
21143926 0.09091808702467047 1.0000007126709924
21148219 0.09097791443116011 1.000247600186775
21152511 0.09080798536833483 0.9994137473725441
21156803 0.09151960217240977 1.000049895003634
21161096 0.09132706269037476 0.9994249136666823
21165388 0.09079482988030824 0.9999551585627697
21169680 0.09160062556057831 1.0002457298636385
21173973 0.09088623467389673 0.9999112890861311
21178265 0.09089546564770096 1.0002931062501161
21182558 0.0922525661130282 1.0005429372040873
21182558 0.09209440135010902 0.9998902645984512
21186939 0.09261194788706961 1.0000012481599274
21191320 0.09250399820798903 1.0004285948644096
21195701 0.0934414370241927 1.0003993418204247
21200082 0.09305176203654208 0.9994779819246637
21204463 0.09327934955790367 0.9997537709597585
21208844 0.09457654730833805 0.9998321563967337
21213225 0.09463647941406052 0.9994759268615627
21217606 0.09354752591112614 0.9996944870832449
21221988 0.09464043937458305 0.9998815946147281
21226369 0.09488406588954364 0.9992789147815707
21230750 0.09466106386057865 0.9991821603472585
21235131 0.0950971919386038 1.0001186578924468
21239512 0.09536834708044305 0.9994432922042684
21243893 0.09510967166629863 0.9994696378546231
21248274 0.09540548336859182 1.0003513902834968
21252655 0.09634643206318323 0.9999560173749461
21257037 0.09641642016136882 0.9997913119780526
21261418 0.09603088121857815 1.0003213620106672
21265799 0.09647799596969261 1.0001349810115006
21270180 0.09684554237166829 0.9996049203184916
21274561 0.09626359780466283 0.9998705928813789
21278942 0.09716335895279041 0.999942059270413
21283323 0.09751242078319297 0.9992135253923393
21287704 0.09669242531468436 0.9996438167622107
21292086 0.09780298298421258 0.9997367564962796
21296467 0.09793587441222892 0.9993131984008532
21300848 0.09718597042074074 0.9996545268366878
21305229 0.09801683928084437 0.9998870593676532
21309610 0.09822011843443162 0.9999972098925155
21313991 0.09864490708189412 1.0000715360961814
21318372 0.0988974042056253 1.0003662947095449
21322753 0.10012368220240314 0.9997177215949112
21327134 0.09923880713243809 0.9996554629166033
21331516 0.09989304192110553 0.9997506690935755
21335897 0.10038136223856058 0.9994695695011143
21340278 0.10009199792709655 0.9994687767414351
21344659 0.1006512229062514 0.999964966904644
21349040 0.10101585224205163 0.9991328797505353
21353421 0.10077438973695614 0.9986593811362776
21357802 0.10084109649839981 0.9988278415766609
21362183 0.10148843470034292 0.9987197709379714
21366565 0.10098667658234999 0.9991028045097284
21370946 0.10051411918921105 0.9992957006993338
21375327 0.10161526280603005 0.9990523447093644
21379708 0.10093844077570852 0.9983725118643504
21384089 0.10071890327518078 0.998682512062256
21388470 0.10149563611483274 0.9990367544685471
21392851 0.10215120180660965 0.9998111729898734
21397232 0.10306577609784619 0.999422137679248
21401614 0.1019676157449476 0.998856716428193
21405995 0.10264581832537377 0.9986548656152913
21410376 0.103208049615935 0.9979862632271174
21414757 0.10343513521988547 0.9979909913519298
21419138 0.10355687825441931 0.9986136208214977
21423519 0.10405104538205881 0.9992467779676526
21427900 0.10367264603575918 0.9990401993846626
21432281 0.10359400830298707 0.9995507005442805
21436662 0.1054271865436664 0.9991320413402184
21441044 0.10518303215071134 0.9976602287066694
21445425 0.10516219450245569 0.9986122758816627
21449806 0.10553516888117717 0.9988291389419037
21454187 0.10610783469145092 0.9983932188961623
21458568 0.10592944317414447 0.9984762585305473
21462949 0.10619088427356285 0.9986821789159149
21467330 0.1064694439725861 0.9986998316838763
21471711 0.10675833940557153 0.998045226838054
21476093 0.10620039465586892 0.9985544633594688
21480474 0.10770915038739971 0.9987483356636532
21484855 0.10713876128746283 0.9980033197566124
21489236 0.10757430377021496 0.9989019938799462
21493617 0.10819759972560115 0.9984956169445482
21497998 0.10844537384974297 0.9990762077072806
21502379 0.10852521431872454 0.9991399970601528
21506760 0.10774009807236488 0.9986402069520207
21511142 0.1091133464068498 0.9987188647211945
21515523 0.10935579796187235 0.9989710506913546
21519904 0.1088896417067719 0.9992968924881824
21524285 0.11021610549806424 0.9987648879877644
21528666 0.10975714528372707 0.9982563013358308
21533047 0.1094179937295379 0.9982976167509149
21537428 0.10946469336650229 0.9982247211627427
21541809 0.11033419822897718 0.998654210464635
21546190 0.11029390823922429 0.9985597237512006
21550572 0.10989410194392737 0.9996436063340921
21554953 0.11162006448265824 0.9989077343607005
21559334 0.11143713076390334 0.9985149021242334
21563715 0.11093805761710414 0.9977088647987251
21568096 0.11158391236791328 0.9984066471171212
21572477 0.11182341216415712 0.9982231602195935
21576858 0.11152837092946019 0.997925429309753
21581239 0.11128126896002805 0.9980666252601383
21585621 0.11272186181418513 0.998020981383344
21590002 0.11250977479042387 0.9978985062676168
21594383 0.11254597331570358 0.9977182674123987
21598764 0.11230617120985702 0.9978305131199046
21603145 0.11376380320449227 0.9985598709958349
21607526 0.11226194488502736 0.9979809662297671
21611907 0.11312478786222123 0.9978737536428507
21616288 0.11433544361879625 0.9986341955076321
21620670 0.1135894947090675 0.9984299227703818
21620670 0.11385420796304306 0.9992760512399372
21625141 0.11458192063596818 0.9982592909072955
21629613 0.11495310087739713 0.9976950636902374
21634085 0.11519916665182998 0.9989923834230738
21638556 0.11428440579035344 0.9982719659616464
21643028 0.11533828659953842 0.9982428890680023
21647500 0.11536725616628046 0.9975574628313161
21651972 0.11453899456280439 0.9980775784480829
21656443 0.11484659449500206 0.9981956802514727
21660915 0.11617477616423669 0.9987170671791058
21665387 0.11673795534526539 0.9991287704182
21669859 0.11637699251635757 0.9988525343096891
21674330 0.1160646561750109 0.9983114405635362
21678802 0.11593546493212151 0.9984887401943425
21683274 0.11684484044736897 0.9986016005275554
21687746 0.11682022956401036 0.9978548073096664
21692217 0.116608692715347 0.9981431279183227
21696689 0.1166570145382255 0.9976278082837985
21701161 0.11747245044709062 0.9977986732031171
21705633 0.11838129280904798 0.9978431546987672
21710104 0.11837990131212243 0.9978390004049782
21714576 0.11808609520271977 0.9980352423652935
21719048 0.11787240617071712 0.9977096202064998
21723520 0.11829051032148581 0.9981941123612689
21727991 0.11952505316438988 0.9978189492214635
21732463 0.1199188097786532 0.9981305569088366
21736935 0.1190643609451722 0.9978524600942515
21741406 0.11890226735782553 0.9980876183158373
21745878 0.12022890164836246 0.9980762050045258
21750350 0.12060694041932078 0.9977158606243995
21754822 0.12025884496960913 0.9979440531511311
21759293 0.11955549658050046 0.997791982282836
21763765 0.12016703087619701 0.9976680949810064
21768237 0.1210754907937048 0.9972985260251822
21772709 0.12123924011428419 0.9972478690080931
21777180 0.12083739452797086 0.9975482218868239
21781652 0.12046233123791183 0.9974811936328417
21786124 0.12126407956218643 0.9977663729940526
21790596 0.12201530244873167 0.9972837669558082
21795067 0.12166679564174242 0.9969521108009444
21799539 0.12186643689561526 0.9972308474324546
21804011 0.12224380721175691 0.9980973665138102
21808483 0.12300033202214782 0.9981713229831218
21812954 0.12289925649093861 0.9980968380172307
21817426 0.12264574161684072 0.9975659283829652
21821898 0.12245102793847912 0.9982077486195716
21826370 0.12221274801438045 0.9986725001725067
21830841 0.12334574401864773 0.9981117755706156
21835313 0.12341084625604758 0.9982916881487477
21839785 0.12341899630086162 0.9979682560511856
21844257 0.12340756322277531 0.997727406830318
21848728 0.12364437737213108 0.9984489998658899
21853200 0.12416149270737706 0.9977852051858037
21857672 0.12412762059297658 0.9975542699244391
21862143 0.1238501354277733 0.997442592586396
21866615 0.12429717582909083 0.9977534103025375
21871087 0.12467516302809523 0.9982379766275206
21875559 0.12531651119161205 0.9980887287800722
21880030 0.12527853560253788 0.9975119992663546
21884502 0.12578385890179372 0.9978186594926343
21888974 0.12544300420941104 0.9983928193119049
21893446 0.1265619730736178 0.9980816304169537
21897917 0.12668228554281322 0.9978802572382365
21902389 0.12649438801712093 0.9983866841041019
21906861 0.1262855634536246 0.997689304234872
21911333 0.12674880602438432 0.9985713836019552
21915804 0.1272306340616686 0.9982875857882905
21920276 0.12722084480667373 0.9984001045145897
21924748 0.1272584336621794 0.9972832213666136
21929220 0.12735019604831652 0.9976833026075692
21933691 0.12826153230256132 0.9977762087166562
21938163 0.12870654687400473 0.9974293522208076
21942635 0.12903113610056763 0.9973016867160536
21947107 0.1276056134414155 0.997211560653696
21951578 0.12946645811823496 0.9969891853906336
21956050 0.12950288440942806 0.9976073618034915
21960522 0.12963115725248764 0.9962445295516738
21964993 0.12986320726334788 0.9964149324572116
21969465 0.12980853661139424 0.997047396477264
21973937 0.13138991450410054 0.9964467710075343
21978409 0.13136156130092355 0.9957146466991436
21982880 0.13075288229037615 0.9959205070837028
21987352 0.13078158731419395 0.9963985209927093
21991824 0.13027334082895992 0.996357642354573
21996296 0.1315525289242971 0.9968583804324075
22000767 0.13164502148519622 0.9962743474653348
22005239 0.13145563131867488 0.9966654203622523
22009711 0.13164675029336095 0.9972432207816374
22014183 0.1317432180526087 0.9974410779181021
22018654 0.13285258047702123 0.9973517528612086
22023126 0.13257628803930047 0.9959799047832655
22027598 0.132511368141512 0.9967890305322538
22032070 0.13188526312079638 0.9972799509914545
22036541 0.132838179562908 0.9971147940644897
22041013 0.13419404340233682 0.9974782630128525
22045485 0.13388734179691847 0.9962394044277106
22049957 0.13371497356732517 0.9965910297608404
22054428 0.13297942690606304 0.9971528621886437
22058900 0.1341308682077608 0.9973722194282862
22063372 0.13468517702555025 0.9964393060838856
22067844 0.13494350102733713 0.9954842300662169
22067844 0.13478716992705408 0.9965743737831027
22072408 0.13553560689050045 0.9961327178403162
22076972 0.13531296852913235 0.9960466594269581
22081536 0.13532179605367042 0.9956476023859641
22086100 0.1358556327098461 0.9955475863078572
22090665 0.13582679564793385 0.9952942114890421
22095229 0.1361050270786364 0.9963801829606851
22099793 0.13619348896268824 0.9961625711696853
22104357 0.13702581491208668 0.9962151209592836
22108922 0.13684089806675326 0.996283733874285
22113486 0.13712985815377676 0.9959845187732571
22118050 0.13710481099982413 0.9964435654048328
22122614 0.13740662422597624 0.9963575977854418
22127178 0.13750929771501366 0.9961804596524373
22131743 0.1374190812179566 0.9963476851080278
22136307 0.13726902604085667 0.9963532770267419
22140871 0.1372119132996809 0.9964396184956681
22145435 0.13718268522310095 0.9970673534930454
22150000 0.13765029794372097 0.9959512315246395
22154564 0.137492633387663 0.9965442176228831
22159128 0.1376415091355547 0.9968084059347743
22163692 0.1379684200071313 0.9968879927644131
22168257 0.1388043681351957 0.9966439699803296
22172821 0.13901679950301898 0.9967573418946458
22177385 0.13900977749210638 0.9971352325857669
22181949 0.13905851538385722 0.996830878998191
22186513 0.1387483418307778 0.9961268313648525
22191078 0.13883837560813223 0.9967854349913057
22195642 0.13959136511807982 0.9967684644527074
22200206 0.13975515060334254 0.9965740752091161
22204770 0.14031622713962266 0.9966401359397623
22209335 0.14081169376925387 0.99652363212562
22213899 0.14008666609156342 0.996265738394151
22218463 0.14035592745717215 0.9960503542114201
22223027 0.14057237570686568 0.9958772735303636
22227592 0.14053578339914433 0.9960126137398939
22232156 0.14110731022320372 0.9963457927155385
22236720 0.14082826934810727 0.9957033192032021
22241284 0.1411932939892062 0.9958695594987022
22245848 0.14227211827191807 0.9952491716337347
22250413 0.1430453411992765 0.9954672352740852
22254977 0.14289333260581213 0.9951675572828453
22259541 0.14376074744841516 0.9946240367911785
22264105 0.1433807217707719 0.9946828848293933
22268670 0.14425619806264206 0.9945180728439732
22273234 0.14368767904700536 0.9944252389801504
22277798 0.1445939924097196 0.9947459770114224
22282362 0.14480388496275665 0.9947211868526811
22286927 0.1433165445861312 0.9951606751989798
22291491 0.1439340968060379 0.9949945034058983
22296055 0.14459879067488002 0.9943303206028014
22300619 0.14540891066176015 0.994262722837188
22305183 0.14525886858038056 0.9946879620340009
22309748 0.14532364178744905 0.9950242514224669
22314312 0.14571745314401818 0.9944346833709009
22318876 0.14574187155455015 0.994496283518949
22323440 0.1464167333991072 0.9942416929810646
22328005 0.1464793175676054 0.9946873720863605
22332569 0.1462166895913752 0.9957697067754018
22337133 0.14646149920031565 0.9954880172032581
22341697 0.14658829052531036 0.9950026809822926
22346262 0.1476189290213761 0.9951000955761611
22350826 0.1470270037144955 0.9947122471517753
22355390 0.14729428729452373 0.994477640246422
22359954 0.14767419906985838 0.9947621901892987
22364518 0.14725431187459623 0.9951147187326145
22369083 0.14777159083708075 0.9956141363039878
22373647 0.14750463224841784 0.9955003525167876
22378211 0.1477807729733479 0.9953670197736921
22382775 0.14897626079363735 0.9952167259522546
22387340 0.14977206497364337 0.995445765595478
22391904 0.14931666962207882 0.9949839308261177
22396468 0.14955834585494845 0.9947159422993431
22401032 0.1493594757542276 0.9942031054059233
22405597 0.1503553315131512 0.9942808602917355
22410161 0.14960479197510376 0.9945846373530705
22414725 0.14969411201472785 0.9948538285662115
22419289 0.1501485761066459 0.9943734464320869
22423853 0.15148892083684545 0.9941759080905641
22428418 0.15146273631647095 0.994319082353268
22432982 0.1515176734529218 0.994330136654599
22437546 0.15114218453231906 0.9943614449142549
22442110 0.1510305346781665 0.993565122000144
22446675 0.15167893636690025 0.9941030723903597
22451239 0.15083406700992102 0.9947831047725826
22455803 0.15072159828096118 0.9946001929043884
22460367 0.15214538526590488 0.9945289362393386
22464932 0.15258141902050787 0.9945402382599817
22469496 0.15264963933183232 0.9941532605909753
22474060 0.1532201153247126 0.9937287835344635
22478624 0.1538217323474495 0.9937839605438469
22483188 0.15370030960428738 0.9933777196317287
22487753 0.15327518483362512 0.9947208575639528
22492317 0.15288209479027567 0.9947308838260995
22496881 0.15310138267604548 0.9936073751166309
22501445 0.15466412496719154 0.9934918447759188
22506010 0.15467504974800395 0.9929196538844254
22510574 0.15456425251336223 0.9931228404417103
22515138 0.15526634651312746 0.9930553443045333
22519702 0.15451234035236644 0.9931069774543458
22524267 0.15429097931453245 0.9932214490881824
22524267 0.1539649489194323 0.9928696002544907
22528925 0.15431501848585644 0.9929461135864094
22533584 0.15500975524854768 0.9934475574321711
22538242 0.15534087566613322 0.9938108617544362
22542901 0.15530401739410563 0.9931655723818112
22547560 0.155523496563151 0.9929754320508181
22552218 0.1561004750508276 0.9932338875321368
22556877 0.15640568179011086 0.9935929875260888
22561536 0.15589934534969882 0.993063820355267
22566194 0.1561257880179122 0.9933567081741324
22570853 0.15569469655029258 0.993396605277981
22575511 0.15679469515556108 0.993005096490572
22580170 0.15759540517240544 0.9932376134835822
22584829 0.15729970759690695 0.9926626159775935
22589487 0.15837640275045106 0.993113270862895
22594146 0.15844323825649695 0.9934328390855073
22598805 0.15840275167703746 0.9932335844253714
22603463 0.1586141058788696 0.9931948268539326
22608122 0.15912863834979035 0.9932833442059428
22612780 0.15894740292460652 0.9938074624519222
22617439 0.15983354439486844 0.9937563926365379
22622098 0.16026363666907145 0.9931911871131496
22626756 0.16033590428599226 0.9925393260009425
22631415 0.16020693349824341 0.9926569912767379
22636074 0.16075633759364402 0.9927942835636493
22640732 0.16027224478267024 0.9934419926017123
22645391 0.1609111811438 0.9937250531145259
22650050 0.16064281404258351 0.9932501640522378
22654708 0.1609191936467068 0.9936643329363133
22659367 0.1612677664604425 0.9930883180077673
22664025 0.16159122716916632 0.9934281986888939
22668684 0.1616950547304214 0.9935603045802843
22673343 0.16201172285920037 0.9931118109752534
22678001 0.16208769681131371 0.9936656877595718
22682660 0.16222733699983302 0.993289266371923
22687319 0.16179175190196768 0.9926722110709041
22691977 0.1618990362199936 0.9928746703808318
22696636 0.1623032292553518 0.9926712789258476
22701294 0.16267407110532917 0.9927660270254997
22705953 0.16277106307478945 0.992948522241036
22710612 0.16273853730372884 0.992895921177943
22715270 0.16311933777900142 0.993126132251617
22719929 0.162980713049706 0.9932054454686889
22724588 0.16312945345119717 0.9926882191141486
22729246 0.16392806114350278 0.9927981023946573
22733905 0.16385668659717534 0.9925678796603934
22738563 0.1640817646514523 0.992278314211127
22743222 0.16473704236979686 0.9923181353422306
22747881 0.16473218749861485 0.9924281647971226
22752539 0.16546810997562947 0.9923545215284999
22757198 0.1656612723428696 0.9927110694666059
22761857 0.1658335091106144 0.9934107627319627
22766515 0.16616435731736087 0.9930873376799738
22771174 0.16674256356425843 0.9923277980328625
22775833 0.16635395461197838 0.9924326907054454
22780491 0.166774573627794 0.9925735039794092
22785150 0.1663565245642076 0.9919934105116187
22789808 0.1668764205364667 0.9923110200722534
22794467 0.16621345651782884 0.9925592502466131
22799126 0.16705327689228439 0.9924278671914952
22803784 0.16652825351093684 0.9920642672600642
22808443 0.16664429738283135 0.9926303492762338
22813102 0.16685971139448866 0.9931130111676391
22817760 0.1665487154868284 0.9924090627846557
22822419 0.1666161029698482 0.9923751565782015
22827077 0.16720356611422732 0.9923082953169324
22831736 0.16730497614643577 0.9919902605912885
22836395 0.16786522512869648 0.9919352923310167
22841053 0.1679030217714968 0.9917219899819009
22845712 0.16837828019486042 0.991973820555939
22850371 0.16817968730047286 0.9924829664157049
22855029 0.1680773318780187 0.9920905821167574
22859688 0.16836604263913377 0.9919015126705472
22864346 0.1691575644333445 0.9916793354594162
22869005 0.16907962500123142 0.9914241366159825
22873664 0.16914070619455393 0.9916436445306032
22878322 0.1688485215560589 0.9914136384345228
22882981 0.16923413086083045 0.9917495246753627
22887640 0.1695806869131416 0.9919772239634623
22892298 0.1695964594357949 0.9913277342081822
22896957 0.16956324683422938 0.9911599194021375
22901616 0.17043263636430633 0.9907472775945859
22906274 0.17020440950965238 0.9908758985053302
22910933 0.17087173508369213 0.9909709658052842
22915591 0.1713745114816586 0.9905058562232527
22920250 0.1712080262235131 0.9903038801829871
22924909 0.17197693698035654 0.9909047359003395
22929567 0.1725575511569651 0.9904561401924805
22934226 0.172264748938339 0.9907073612595292
22938885 0.17306974828658767 0.9903983756409374
22943543 0.17309054095418788 0.9912198293658686
22948202 0.172687087711656 0.9912658931679854
22952860 0.1734172351687066 0.9915062343361558
22957519 0.17369872360120747 0.9912995758263751
22962178 0.17393373166249115 0.9918302405627862
22966836 0.17391010929102804 0.9913310332416552
22971495 0.173835863519848 0.9908056189316213
22976154 0.17423116311178738 0.9906628251407711
22980812 0.17414013572339138 0.9901451098338875
22985471 0.17430328520386507 0.9903357173361574
22990130 0.17428095847718847 0.9905557479952697
22990130 0.17383002857841098 0.9906955714834218
22994884 0.17437926718062352 0.9905580992781294
22999639 0.17449981630348224 0.9909181480346955
23004394 0.17461063180856076 0.9912201499936264
23009149 0.17478053634777746 0.9908365077306944
23013904 0.1752651759009209 0.9907204865468311
23018659 0.17508711384809608 0.9904784569415025
23023414 0.17523289437148326 0.9906186539738647
23028169 0.1752346405096542 0.9907138585082642
23032924 0.1752874718177383 0.9908678459941506
23037679 0.17642446954677668 0.9906832650531572
23042434 0.176741574763515 0.9902415215765714
23047189 0.17687523616955247 0.9902992666387005
23051944 0.17749874515887173 0.9905203414511937
23056699 0.1774790221199544 0.9904511207347997
23061454 0.1775822032130083 0.9896806072198987
23066209 0.17799325041793349 0.9898759061404884
23070964 0.17826859686080954 0.9905069327056872
23075719 0.17769970138902255 0.9898174235737651
23080474 0.1778251686380403 0.9898115476611008
23085229 0.17834034386427686 0.9896854478654831
23089984 0.17905740891497463 0.9899024037852797
23094739 0.17877181470527292 0.9904717303279579
23099494 0.17949112120555186 0.9896643383295304
23104249 0.179670922142653 0.9898168340705493
23109004 0.1801254341089297 0.9895181114712723
23113759 0.1800732636381823 0.9895382297262595
23118514 0.18032364898880285 0.9899394673033304
23123269 0.18013559275859878 0.9898225891577811
23128024 0.18000381694231973 0.9897529350269354
23132779 0.180242519750793 0.9895180209034112
23137534 0.18052243821580205 0.9894107795699996
23142289 0.18027618942664517 0.990222216239605
23147044 0.18132692047481933 0.9897049940874045
23151799 0.18173776738673925 0.9897423211029361
23156554 0.18253676268400884 0.989178845405313
23161309 0.1824931170576325 0.9895248846323164
23166064 0.18278442707329 0.9891931868897955
23170819 0.18335644135156723 0.9890030643929357
23175574 0.18297026292331056 0.9893875582980736
23180329 0.18308395294725927 0.9898441220589816
23185084 0.18214935551030118 0.9896918195655675
23189839 0.1820910530519681 0.9894846896860916
23194594 0.182956717458783 0.9889650441441031
23199349 0.18358817120663887 0.9891982726766773
23204104 0.18334286330454896 0.989775569906137
23208859 0.1834446232249867 0.9882650263643321
23213614 0.18363993600687184 0.988649324575284
23218369 0.18423369675139364 0.989088013738652
23223124 0.18451377620898513 0.9882765887064805
23227879 0.1849010774476924 0.9882275682531095
23232633 0.18578058576943082 0.9888008598773044
23237388 0.18556655802839928 0.9886920334724804
23242143 0.18502319271166767 0.9882416630635462
23246898 0.1852827523667793 0.9882595888127526
23251653 0.185429214641019 0.9878387712324486
23256408 0.1860500525568714 0.9879589089286474
23261163 0.18665157622429188 0.9874479044135035
23265918 0.18775525054574083 0.9879442344943259
23270673 0.187285812767719 0.9872182595527347
23275428 0.18694457954361743 0.9885637115592967
23280183 0.18668415019072052 0.9875114587469375
23284938 0.18756258602663256 0.9882812951550728
23289693 0.18741746469723872 0.988414666030176
23294448 0.1884970572143359 0.9883308563038332
23299203 0.1878108330927121 0.9878534921047357
23303958 0.18732231000809887 0.9886569880078867
23308713 0.18740465723068114 0.9876780856302914
23313468 0.18821969795299023 0.9872557428689485
23318223 0.18808757439404644 0.9872137484666524
23322978 0.1890088884892003 0.9864529214406517
23327733 0.1889404289227105 0.9866200520042294
23332488 0.18919766777439231 0.9868880023519465
23337243 0.19036360876430733 0.9864318051037348
23341998 0.19013177616210206 0.9859726655170343
23346753 0.1909542840145277 0.9868796826836056
23351508 0.1901174207380617 0.9869419249963511
23356263 0.18947216040670245 0.9876792423291173
23361018 0.19009169392781003 0.9872402359273528
23365773 0.1905834326567125 0.9875569211117731
23370528 0.1908041190490776 0.9871703330168691
23375283 0.19168187359132235 0.9867961828719826
23380038 0.19117783853089337 0.9866524496189584
23384793 0.19178431940595378 0.9866591474289349
23389548 0.19235411206884362 0.9863992502403822
23394303 0.19304648602287136 0.9864454694431897
23399058 0.19370782584292962 0.9866912529044621
23403813 0.1935376636287208 0.9864881544527755
23408568 0.1922908814731946 0.9868159461051923
23413323 0.19253225831516707 0.9867069495401853
23418078 0.1924396000383019 0.9864069993907777
23422833 0.19339611071391238 0.9861677605827405
23427588 0.1935702127265868 0.9857157369564463
23432343 0.19323034253031246 0.9865179414326984
23437098 0.19403140578435693 0.9856970773124865
23441853 0.194753479269024 0.9854428447474151
23446608 0.19477173003841627 0.9857026864705039
23451363 0.19562495211619854 0.9850819150511894
23456118 0.19537230275789333 0.9852808968745661
23460873 0.19464131696069806 0.9856440856512177
23465628 0.19479010590092113 0.9851947884768893
23465628 0.19515089832214796 0.9854474237892145
23470481 0.19512571678192803 0.985922852070708
23475334 0.1954210558332732 0.9858625913641228
23480187 0.19535056624793393 0.9854274606463127
23485041 0.19599267288516006 0.9854259368314315
23489894 0.1973730308571038 0.9846078821859089
23494747 0.19618235739068723 0.9847397778775431
23499601 0.19650357866509321 0.9849018834400186
23504454 0.19742571483312774 0.9845353902175302
23509307 0.19767757589734447 0.9847101029997369
23514161 0.1985378285051702 0.9838467190266971
23519014 0.19818880565163877 0.9850694544652068
23523867 0.19844929923582763 0.9850622228393527
23528721 0.19859315761424326 0.9848187619375687
23533574 0.19923135719073046 0.9843868155271952
23538427 0.1985382678125968 0.984394825997263
23543281 0.19802501239302334 0.9848998488135401
23548134 0.19844806510127627 0.9840178458745772
23552987 0.19920592995428343 0.9840345685681116
23557841 0.1999127904694716 0.9837290252813503
23562694 0.19898381882888294 0.9836095427463851
23567547 0.20007297822031858 0.9841287298503892
23572401 0.20038194626412298 0.9840264762840892
23577254 0.20086615044461528 0.9832483282870281
23582107 0.20111886594138723 0.9831432969923398
23586961 0.20077854003445683 0.9844221900230611
23591814 0.2004488687955274 0.9843837731971863
23596667 0.20104081763113835 0.9836787248537476
23601521 0.20181396096908474 0.9839250713655965
23606374 0.20202489546775562 0.9838259147738505
23611227 0.20152918039217196 0.9848957052755913
23616081 0.20128878523432062 0.9840703154650402
23620934 0.20207703801269647 0.9832960299422585
23625787 0.2023726767330909 0.9829563443998369
23630641 0.20288798731564364 0.982233798253934
23635494 0.20259249333727464 0.9826500936208412
23640347 0.20311955789264902 0.9829231967131964
23645201 0.20311464295428686 0.9812994403631681
23650054 0.20420055858014308 0.9818925660559882
23654907 0.2046306052006779 0.9816589318930348
23659761 0.2041902362930922 0.9821479135173342
23664614 0.20489894720588775 0.9829364429141682
23669467 0.20521157456302808 0.9825132016522193
23674321 0.20469030322662143 0.9822137129292478
23679174 0.20460500816947377 0.9823108636807248
23684027 0.20507643140595128 0.9833389814589482
23688881 0.2041758282408795 0.9826538489441479
23693734 0.20531563670085634 0.9814916963919686
23698587 0.20591418153782942 0.9814991450200115
23703441 0.20581074599664376 0.981458137335703
23708294 0.20625482251536806 0.9818499809449578
23713147 0.20606696781311762 0.9809487340774057
23718001 0.20713445021880622 0.9812260719168474
23722854 0.20730735316301638 0.9809491888469346
23727707 0.20695235093331862 0.9816373871037701
23732561 0.20736705450611723 0.9824769149026812
23737414 0.20741576583498048 0.9816785975743989
23742267 0.2073969539087665 0.9818958297718994
23747121 0.20797546721779292 0.9804975380469937
23751974 0.20798972888138906 0.9802132342510869
23756827 0.20787876936210442 0.9808671536094141
23761681 0.20773343808973 0.9811546718453826
23766534 0.20843499581531072 0.9805503854892196
23771387 0.20886199945873976 0.9803576618414248
23776241 0.20902651717979515 0.9803249368176331
23781094 0.2089531436534775 0.9801525417670772
23785947 0.20928957597224795 0.9799847837786464
23790801 0.20919762692986818 0.9800466114228825
23795654 0.20989129684038957 0.978896063007939
23800507 0.20961755443731347 0.9794768738968398
23805361 0.21035252412781788 0.9803288207631813
23810214 0.21027470945347448 0.9796862638015142
23815067 0.21079955378356355 0.9795851023567517
23819921 0.2107248621781845 0.9793745674177318
23824774 0.21075812565626795 0.9795260223304604
23829627 0.21182106580454224 0.9789726310818796
23834481 0.21217405942912643 0.9793554138672061
23839334 0.21171776205276116 0.9793782134129174
23844187 0.21170642218903332 0.9784939740617091
23849041 0.21134275931623964 0.9787033968573702
23853894 0.2119173989874809 0.9795170412569886
23858747 0.2124905908411204 0.979018743296024
23863601 0.21311374593518292 0.9774010700296146
23868454 0.21347594176146875 0.9769993911935932
23873307 0.21269976880066757 0.9776539492794135
23878161 0.2137689014553385 0.9778621302895922
23883014 0.2139078083926115 0.9775089261413177
23887867 0.2141482125513138 0.9783219768931168
23892721 0.2145449677205071 0.9772877808417799
23897574 0.21436686792974655 0.9777170774957006
23902427 0.21425708944364483 0.9783902432513651
23907281 0.21425862564045017 0.9782202210627378
23912134 0.21487978460531615 0.9773912549472081
23916987 0.21514000717654308 0.9768245290958234
23921841 0.21479565839235543 0.9774471738389078
23926694 0.21553667248102082 0.9771460883213537
23931547 0.21472808595893214 0.9777956749478303
23936401 0.21563751569118106 0.977324501697142
23941254 0.2156723678992942 0.9761700981134084
23946107 0.21558075800572685 0.9768565147367745
23950961 0.21632931026540644 0.9772511867205848
23950961 0.21601520815733302 0.9769358818862033
23955914 0.2163629153795622 0.976387238161158
23960868 0.2164891037006196 0.9766280576042322
23965822 0.21669784635553374 0.9767992989433752
23970775 0.21726735179476592 0.9761822693041082
23975729 0.21677536477645376 0.9765755018560854
23980683 0.21720659840099818 0.976586925172657
23985636 0.2178570635070999 0.9763893953663685
23990590 0.2174622458057255 0.9766025529603568
23995544 0.2188591458640803 0.9762888374287195
24000498 0.21941614647208807 0.9762031889368176
24005451 0.21882751573304496 0.9758820521767759
24010405 0.21886410519104305 0.9762580379314983
24015359 0.21924598935636092 0.9760775782028204
24020312 0.21923369700459797 0.9754914244753538
24025266 0.21926276853632765 0.9749201568395273
24030220 0.22041476616573596 0.9749096703519087
24035173 0.21990382555340512 0.9749678079982297
24040127 0.21999961970961232 0.9747591639248467
24045081 0.22037207646773188 0.9752143143087876
24050035 0.22064623893264634 0.9755813673922727
24054988 0.2209519950673773 0.9751913053922633
24059942 0.22089708043340486 0.9755286642402381
24064896 0.2210830305408734 0.9756024228875135
24069849 0.220974510517054 0.9750400993622544
24074803 0.22125381779268594 0.9751663990106352
24079757 0.2216869979993038 0.9753825366793011
24084710 0.22099160089445977 0.9744151770237138
24089664 0.22205045514956037 0.9740897796238439
24094618 0.2224131047644707 0.974073028298545
24099572 0.2227054927183789 0.9731720557560951
24104525 0.223078805369112 0.973452832711956
24109479 0.22263623172036398 0.9736055977518715
24114433 0.22321826344967627 0.9741155715459681
24119386 0.22322210125294817 0.9734870320995386
24124340 0.22261094500868708 0.973465790593547
24129294 0.22408737167825002 0.974025247517138
24134247 0.2241641241850243 0.9736098481901446
24139201 0.22441222565689511 0.9736578627362664
24144155 0.2249878766083679 0.9744094143598088
24149109 0.2254167739226427 0.9731942333924505
24154062 0.22517416208935032 0.9733150537688346
24159016 0.22526144970615536 0.9732962657358364
24163970 0.225488338082835 0.9727443092026483
24168923 0.22544762207660218 0.9728516801872781
24173877 0.22574661488701955 0.9727230151297556
24178831 0.22627053365415378 0.9718540881268226
24183784 0.22577795585272956 0.972035300513644
24188738 0.22628342241834018 0.9718833045075806
24193692 0.2262640353600532 0.9711548254475002
24198646 0.2256539458687129 0.9709016138418899
24203599 0.22573124063017744 0.971507372889141
24208553 0.22655911978889473 0.971112176887734
24213507 0.2263632137258058 0.971533028459787
24218460 0.22687519208944668 0.9728097181003981
24223414 0.2276305876487018 0.9721910236292217
24228368 0.22776582904473933 0.9720535555510332
24233321 0.22814268306150262 0.9724122181211345
24238275 0.22922175458337055 0.9719637480698669
24243229 0.2292661418824628 0.9721848671596043
24248183 0.22960551498790768 0.9717664520647934
24253136 0.2300035366595314 0.9717915923448069
24258090 0.2300956602881176 0.9714960460711213
24263044 0.2299093869784298 0.9710558222414177
24267997 0.23049494724498412 0.9713409803376264
24272951 0.23022443817054294 0.9712743340005361
24277905 0.23008479605534118 0.9714535924302942
24282858 0.23064327625846398 0.9716736079231771
24287812 0.23014326052183715 0.9706647072161373
24292766 0.2311056857903398 0.9710373291753217
24297720 0.23186570983001697 0.9710832586526997
24302673 0.23222161065030877 0.9703355763850153
24307627 0.2324893561583665 0.9706777560104529
24312581 0.23249556998855603 0.9703476834364346
24317534 0.23248293138355838 0.9697523100092623
24322488 0.2322233054609773 0.9702953035734881
24327442 0.23299642986951702 0.97023269323845
24332395 0.232679266078773 0.9697366871253992
24337349 0.23209263510900632 0.9702903649299797
24342303 0.23331082225565997 0.9703379597851747
24347257 0.2336194027980145 0.9704563177205754
24352210 0.23352544289463242 0.9711447483131073
24357164 0.23335542381899338 0.9702006957996601
24362118 0.23413880853072058 0.9705055574049792
24367071 0.23359720146635873 0.9707951029566069
24372025 0.2339094967104324 0.970458657846136
24376979 0.2342576023981144 0.97066978569628
24381932 0.23412708643083538 0.9703367529771435
24386886 0.2342407235013277 0.9699739325275167
24391840 0.2348698827405538 0.9697712865316725
24396794 0.23603869824720203 0.9690062244449728
24401747 0.2355413621806313 0.9690123134004002
24406701 0.23663262958346296 0.9683548935345485
24411655 0.23738134120566487 0.9688750819905695
24416608 0.23698938506205358 0.9690016466250528
24421562 0.2374501524062362 0.968967434545658
24426516 0.2373540841992602 0.9695745975669935
24431469 0.23674493236881283 0.9699024102518319
24436423 0.2369526489222858 0.9694857387720492
24441377 0.23754731674872445 0.9700001448629078
24446331 0.23724650381766188 0.969128946281412
24446331 0.23787295972309358 0.9697425505702055
24451387 0.23759929645028674 0.9697878564564055
24456443 0.23832386613316942 0.9688305720655835
24461499 0.238014127518075 0.9690157269309163
24466555 0.23898535373124286 0.9682164181702098
24471611 0.23869953648320136 0.9684439303007
24476668 0.238427568721357 0.9681400167309506
24481724 0.23930474466191964 0.9684752489032309
24486780 0.23979129198297283 0.9676714172640224
24491836 0.24040760466503677 0.9675227080889781
24496892 0.24188184900808135 0.9666675991384014
24501948 0.2405978051314621 0.9673349497359454
24507005 0.24072719612428312 0.9672050732532603
24512061 0.23998584887087426 0.9676680823300198
24517117 0.24066366698368388 0.9669697695153814
24522173 0.24063494722116816 0.9676692120456104
24527229 0.24176117832181357 0.9674776932457108
24532285 0.24173632251768973 0.9678855916990804
24537342 0.24296930884765877 0.9670909717233855
24542398 0.24229637546025162 0.9680105024954105
24547454 0.24301904180716344 0.9669896848634733
24552510 0.2428103576391961 0.9673381318435045
24557566 0.24307766227778466 0.9660907927113844
24562622 0.24277749741555754 0.9657976622430077
24567679 0.24313110195313864 0.9654058021518804
24572735 0.24321565399450576 0.9657535701870902
24577791 0.24381055070304222 0.9658276629682004
24582847 0.24373120544711022 0.9670593338984822
24587903 0.2443289221686633 0.9660081573385909
24592959 0.24435590151832431 0.9660385699242402
24598016 0.2446318856205972 0.965672249028737
24603072 0.24467444974747715 0.9661086702193518
24608128 0.24517122646567344 0.9665466095065435
24613184 0.24486491522421885 0.9671605117928638
24618240 0.24517025595469744 0.9662112238249767
24623296 0.24520068190889263 0.9664070048373746
24628353 0.2452987648628243 0.9658833926562275
24633409 0.24520359605679495 0.9657203162289334
24638465 0.24540813976075118 0.9653143837198859
24643521 0.24611964341474715 0.9649673444481799
24648577 0.24599676807639095 0.9651333754939526
24653633 0.24647562044340232 0.9645038895735818
24658690 0.24714602437405764 0.9649713630908333
24663746 0.24725110160559935 0.9650627004864709
24668802 0.24765636560882281 0.9654590281961917
24673858 0.2477277093684821 0.9647544340149451
24678914 0.247387084617266 0.9644921673866772
24683970 0.24783473559692235 0.9636244534288995
24689027 0.24778798848660394 0.9644699894915536
24694083 0.24784765537299625 0.9638387348198882
24699139 0.2479634236218259 0.9649798912895038
24704195 0.24840125371495678 0.9644153814261646
24709251 0.24944404140450682 0.9644977706613883
24714308 0.24978221118649724 0.9638587637758349
24719364 0.24885201363946488 0.96454223800233
24724420 0.24974849589676537 0.9635961608129285
24729476 0.2500887123478906 0.9649045110527045
24734532 0.2504369804898675 0.9640820478955157
24739588 0.2511295978020196 0.963919434693432
24744645 0.251014606942631 0.9641576570843501
24749701 0.25115409778578535 0.9626931775600385
24754757 0.2511403830943722 0.9631246216905011
24759813 0.25145717611819896 0.9633135990592853
24764869 0.2514694253884851 0.962745652732058
24769925 0.25153950843351314 0.9635297159602716
24774982 0.25160113586870886 0.9625640755687872
24780038 0.2514904030244568 0.9628676050836776
24785094 0.25208197211533584 0.9630131059148077
24790150 0.2526976337612263 0.9634137828285533
24795206 0.25294135286595654 0.9638440958468428
24800262 0.2535774479379931 0.9622705300044468
24805319 0.2534634610470687 0.9627025099869537
24810375 0.2537827477273481 0.9619662569109166
24815431 0.25431235213088166 0.962673044927281
24820487 0.25467255017326496 0.9635513728037942
24825543 0.2546072390916509 0.9628686948626286
24830599 0.25458608877904787 0.9626395462998705
24835656 0.254747448196251 0.9613019941386676
24840712 0.2547072550772716 0.9614023352399884
24845768 0.2549217679958021 0.9615611567651864
24850824 0.25512758832978355 0.961164227127129
24855880 0.25502364640590813 0.9620983600339131
24860936 0.25566259290392446 0.9612518195243436
24865993 0.25548341485297293 0.9618097250751406
24871049 0.25639033415258783 0.9611241463597288
24876105 0.25677178208304413 0.9617185178406212
24881161 0.2569206276751524 0.96185544075846
24886217 0.25689222661270117 0.9613962914491027
24891273 0.2567449013211603 0.9616978441514052
24896330 0.25734465647801696 0.9609776130382196
24901386 0.25721082696783154 0.9613323173640069
24906442 0.2572089045174769 0.9607646543414805
24911498 0.2572181760030439 0.9605955748483542
24916554 0.2570896358455709 0.9608597678845392
24921610 0.2576703397709996 0.959766117717233
24926667 0.2575359474756576 0.9607950900037285
24931723 0.25779848015915224 0.9601755220862633
24936779 0.2587611995825528 0.9606976913839355
24941835 0.259044463414202 0.9609036344171951
24946891 0.25960542041095314 0.960482048140497
24951948 0.2591771760365509 0.9605425067056107
24951948 0.25942493022813695 0.9604332760021724
24957108 0.2597574729680692 0.9603714769449875
24962269 0.2600925884631133 0.9599816598264412
24967430 0.2602572217432971 0.9604881694066563
24972590 0.2597963384342413 0.9600551210364451
24977751 0.26035453767725397 0.9600048317045133
24982912 0.26093212874779037 0.9599119341377845
24988073 0.2606675593278789 0.9601209678115463
24993233 0.26207627820663876 0.9610265524726767
24998394 0.2620935211272116 0.9601052092257404
25003555 0.26210431925521716 0.9603927513756263
25008716 0.2622894815873285 0.9595384462851179
25013876 0.26239881541131527 0.9593189997305583
25019037 0.262671027453839 0.9590651747001507
25024198 0.26298290716259815 0.9600461598275296
25029358 0.2635937930824807 0.9590071663999463
25034519 0.26317501497038753 0.9598133338795608
25039680 0.263275179769358 0.9590427649689538
25044841 0.26330223963159755 0.9592836006664358
25050001 0.2636161650696676 0.9593063641630812
25055162 0.26353307421412536 0.9585270221085557
25060323 0.2647588402388352 0.9591033293227057
25065484 0.2648092645146637 0.9581314304260696
25070644 0.2650365807948122 0.9584525560922469
25075805 0.2646676637752985 0.9586706298126012
25080966 0.26513662994326737 0.9590541494003467
25086126 0.2653213195743904 0.9587768059445958
25091287 0.2657018466885048 0.9592716634695151
25096448 0.2661453367476875 0.9587031562238622
25101609 0.2660516274027786 0.9587460939409856
25106769 0.26636911716810474 0.9582069111131438
25111930 0.2663595630341492 0.9582150165974048
25117091 0.2670195922402256 0.9571058884486786
25122252 0.2672846988166346 0.9569658176742613
25127412 0.267471520784111 0.957797590021405
25132573 0.2676986401940486 0.9572445506521602
25137734 0.26852573557342585 0.9576794965000347
25142895 0.26853046796933744 0.9570296682890758
25148055 0.2689183852777592 0.9570590214271002
25153216 0.2689240254074356 0.9568392423347553
25158377 0.2693126322472528 0.95766271789194
25163537 0.2696004082013822 0.956841688367853
25168698 0.2696185864451691 0.9571982544654217
25173859 0.2695135566847869 0.9571552386644613
25179020 0.27029768466925397 0.9573733816433033
25184180 0.270157795060464 0.9567203623875706
25189341 0.27010763288530154 0.9565634331250318
25194502 0.27064607474485847 0.9568474887723939
25199663 0.2705502315714696 0.9561497667118103
25204823 0.2711495341607641 0.9561991054041422
25209984 0.2711028275014082 0.9554703296865965
25215145 0.27215762974321445 0.9560186319471919
25220305 0.27222241006450626 0.9557586052049606
25225466 0.2722728694623263 0.9557585012023408
25230627 0.27229373858324146 0.9559214710052597
25235788 0.2720343662414816 0.9567719287140423
25240948 0.2727607727617362 0.9560357981070393
25246109 0.27313799994652893 0.9559121145187535
25251270 0.2735568053281352 0.9558888947144317
25256431 0.2737473498152261 0.955318148701546
25261591 0.27382506493779457 0.9558519041330094
25266752 0.2735462560739404 0.9557293416049109
25271913 0.2736287570426456 0.9558090966832306
25277073 0.2740574966643926 0.9552010600701816
25282234 0.2747402601596562 0.9548925224061585
25287395 0.2744646049111017 0.9541191462533164
25292556 0.27546157094774465 0.9547137154071044
25297716 0.27529832139329935 0.9543040277990382
25302877 0.2751658228602639 0.9550306358439999
25308038 0.2758938515921943 0.9549780195418422
25313199 0.2760547016838 0.9553791636333125
25318359 0.2756200453418046 0.95477031442768
25323520 0.27600438043558057 0.9549685042417855
25328681 0.27687649349917826 0.9546752241461407
25333842 0.2769297868775926 0.9547245911786466
25339002 0.27738443924726275 0.9545769176510248
25344163 0.27711951581099303 0.9549116751196136
25349324 0.2775941632348667 0.9546221427426272
25354484 0.27731893933581286 0.9547246579569277
25359645 0.2773902320405816 0.9548357189674266
25364806 0.27786389193731315 0.9536675769274074
25369967 0.2782050012382974 0.9535910744698527
25375127 0.2782326653533387 0.9530463709902361
25380288 0.27926640124693786 0.9535340521553015
25385449 0.2792772269492733 0.9535788385040115
25390610 0.28003056422403255 0.9533607162248315
25395770 0.2797389811346096 0.9531731079726352
25400931 0.2802235104324915 0.9533994295709244
25406092 0.2801357129178192 0.9533659038696387
25411252 0.27995704106945335 0.9536592179218102
25416413 0.28049695066727764 0.9536956630938243
25421574 0.28109173920428876 0.9538924350155116
25426735 0.28094207465037296 0.9540780601584836
25431895 0.2818908433924282 0.9540350550903557
25437056 0.28177034382222776 0.953893556161081
25442217 0.2822486206869546 0.9532412580790247
25447378 0.28239749730026836 0.9532440418400435
25452538 0.28223112678910334 0.95249898097894
25457699 0.2825346231860512 0.9524031765065055
25462860 0.28289120196740686 0.9519850322728401
25468021 0.2830283131013264 0.9523636695729278
25468021 0.28308610190296557 0.9518511547094607
25473288 0.283040701468758 0.9529451209987695
25478555 0.28302370816624917 0.9528511123606247
25483823 0.28340807525020306 0.9528349687020199
25489090 0.28360583087503694 0.9526962171326401
25494358 0.2834561288217343 0.9518048131513172
25499625 0.2839203197754027 0.9520011299107568
25504893 0.28379076575505513 0.9518792034880145
25510160 0.2843756260665133 0.9512766014197853
25515428 0.28452727965704455 0.9511679042885883
25520695 0.28453279464600134 0.9511705372960525
25525963 0.28506654884841814 0.9519350082321774
25531230 0.2850655142844502 0.9520984011776068
25536498 0.28547727729950656 0.9518757339044632
25541765 0.2850970452718146 0.9513284302029255
25547033 0.286174093388223 0.951158911929437
25552300 0.2862215145760342 0.9510512848033209
25557568 0.28674303523859335 0.9505912851047947
25562835 0.2868169431840191 0.9507958450901556
25568103 0.2876796366957886 0.9500486253222139
25573370 0.2875385406147549 0.9507995594932055
25578638 0.28694280612754347 0.95112613253667
25583905 0.2880458945076823 0.9505966621248275
25589173 0.2880233782718653 0.9507028293695744
25594440 0.28803658354329387 0.9499211005136103
25599708 0.28867268957595615 0.9497349804546845
25604975 0.2888571738765177 0.9499404702419427
25610242 0.28995888829364747 0.9497920775906706
25615510 0.29025678546144873 0.9508196326236021
25620777 0.28967661671848666 0.9505529657080347
25626045 0.2900242593226804 0.9499055102656294
25631312 0.2894669324379212 0.9505624298998052
25636580 0.29004646227496955 0.9504285560627189
25641847 0.2905029890212022 0.9494758772642427
25647115 0.29029776935126494 0.9493462439678607
25652382 0.2910186173572212 0.9491933546926357
25657650 0.2912730604041919 0.9493190733855862
25662917 0.29127170557646814 0.9501901659123122
25668185 0.2920103319819546 0.9494720594869616
25673452 0.2917107716199891 0.9495375783380694
25678720 0.2917304762762688 0.9495747307490243
25683987 0.2924080584511535 0.948985567528197
25689255 0.292804971879161 0.9489332618663819
25694522 0.2925511012868696 0.9489689098981067
25699790 0.29285188768661957 0.9484509692557268
25705057 0.29257095420586454 0.9489187511397601
25710325 0.2929423955720872 0.9486127143319865
25715592 0.29276333258934867 0.9482668218179215
25720860 0.2924451119065151 0.9489764581896951
25726127 0.2939954814909963 0.9482804438719112
25731395 0.2944096215134856 0.9479888083748594
25736662 0.2954284085585522 0.9473531225862675
25741929 0.2949129691173467 0.9480347824049266
25747197 0.2949431452654928 0.9488720601896248
25752464 0.2952000262864119 0.9485288767958375
25757732 0.2953059056334318 0.9485213713437867
25762999 0.2958406148100062 0.9487428589468022
25768267 0.29586325442132605 0.9487882818378077
25773534 0.296526014420687 0.9482839810925144
25778802 0.2964690971916835 0.9476129577417144
25784069 0.29671601470028197 0.9482679797754995
25789337 0.29700684009477296 0.9474897808996446
25794604 0.2975094297186737 0.9471764839172936
25799872 0.2981423022111962 0.9476821330389141
25805139 0.2984022474716119 0.9480156761442262
25810407 0.2981506252580169 0.9476468537907025
25815674 0.298219249746801 0.9472423888203291
25820942 0.29799126289668165 0.9477022799476841
25826209 0.29838401592596264 0.9481286152419927
25831477 0.2990430569817261 0.9477929191686008
25836744 0.2993644945281228 0.9473376717781066
25842012 0.2994609773376196 0.9472176553282208
25847279 0.2997367517262167 0.94815501048892
25852547 0.29924317363000097 0.9467884254042697
25857814 0.3000603997329168 0.9463311690569459
25863082 0.30008215773544356 0.94695164714456
25868349 0.3002587680143768 0.9477326882578211
25873616 0.3004707660108673 0.9476480367322097
25878884 0.30102938855368055 0.9468219669065362
25884151 0.3007120147620148 0.9464674240456095
25889419 0.3008885222194346 0.945915218597593
25894686 0.30170474185810364 0.9456190288797354
25899954 0.30154996413529417 0.9458142137223196
25905221 0.30182649090139146 0.9465587925908977
25910489 0.30219205410954725 0.9467146536719923
25915756 0.3024231309304239 0.9465056222703906
25921024 0.30220624745256225 0.9466587473721798
25926291 0.30194554488160186 0.9466052674152712
25931559 0.30328934884835407 0.9465089767291618
25936826 0.30294894273535694 0.9458460094286121
25942094 0.3031465074808034 0.9452346922024089
25947361 0.3032392925111407 0.9448772810224079
25952629 0.3043509932446465 0.9460921275732695
25957896 0.3040040908687676 0.9459956220699115
25963164 0.3043624965812024 0.9456602150986548
25968431 0.3040933892356346 0.9453632202938814
25973699 0.30517571125350124 0.9454782587113351
25978966 0.3053645129644173 0.9454146106046045
25984234 0.30569365195471015 0.9449529162171997
25989501 0.30534899900524953 0.9445774886708603
25994769 0.3056247516231665 0.9451469083128426
25994769 0.3057113756903505 0.9443591080063393
26000145 0.30627568739836203 0.9452593505837671
26005521 0.30677096548849153 0.9451410186038095
26010898 0.3069404051618538 0.9448756808743775
26016274 0.30721149220767724 0.9442810377164109
26021651 0.3070931381651636 0.944355826192109
26027027 0.3073421585691152 0.94409967750626
26032403 0.30763937606085523 0.9439029608463716
26037780 0.3083868918148191 0.9439749865621142
26043156 0.30817331916782087 0.9444332847837817
26048533 0.30831152424470976 0.9437935656251516
26053909 0.3083524334706798 0.9442289273681738
26059286 0.30937011401586667 0.9439884121492595
26064662 0.30888501764406257 0.9438352004192887
26070038 0.30941729380925614 0.944893527409493
26075415 0.3091183864136145 0.9448556083711107
26080791 0.30933619354627 0.9448564392579044
26086168 0.3102033972472498 0.9445720299481273
26091544 0.3102877578911275 0.9453749822371997
26096920 0.3108283037708575 0.9446741963802611
26102297 0.3114572284719989 0.9441082972141114
26107673 0.3118106874930925 0.9432555759965308
26113050 0.3116749155677281 0.9434671059954141
26118426 0.31186866076509706 0.9433413858185667
26123803 0.3120463203975201 0.9428551455775364
26129179 0.3124619840625872 0.9426896977993097
26134555 0.31205936939268986 0.9429883153097246
26139932 0.3127009630571231 0.9434851232682746
26145308 0.3127781220277979 0.9436168344252088
26150685 0.3133849101151811 0.9430164587439828
26156061 0.3131566589067031 0.9432183933918529
26161438 0.31330462639022216 0.9430526557002064
26166814 0.3138448303074585 0.942207885431012
26172190 0.3139675532241188 0.9423817283088185
26177567 0.3134972322210132 0.9420800116809092
26182943 0.3148379239014182 0.9434361192979502
26188320 0.3149163767568999 0.943087384710155
26193696 0.3153262389194081 0.9420660940948389
26199072 0.3156504753404392 0.9421222008671267
26204449 0.31610585330799335 0.9419241794846663
26209825 0.31581983385039325 0.942049935940423
26215202 0.316379189786568 0.9415956931068115
26220578 0.3160405656957427 0.9408757041066059
26225955 0.31622493154002596 0.9417623102263898
26231331 0.3166849892703019 0.9418481872966371
26236707 0.31666263054188476 0.9420919490614337
26242084 0.3168619508251027 0.9419803203400152
26247460 0.31682703514284394 0.9419286932044421
26252837 0.3177766792461406 0.9422414319229366
26258213 0.31766901047824403 0.9410036010420612
26263590 0.31840226457149556 0.9413126514912487
26268966 0.3190622061174238 0.9414946949412044
26274342 0.3198203682789896 0.9410647323283681
26279719 0.3197834502752124 0.9405295521789355
26285095 0.3199008646745546 0.9407766428062578
26290472 0.31984634482801716 0.9408587519673017
26295848 0.3194879678370263 0.9404970332348899
26301224 0.31999346129146505 0.9406958275775011
26306601 0.320705221023183 0.941036442942008
26311977 0.31997080614327655 0.9408974724673685
26317354 0.320315699035408 0.9410999421559173
26322730 0.31996042195598107 0.9407430643337914
26328107 0.3206655988199964 0.9403696137853704
26333483 0.32074021509603257 0.9404476194100776
26338859 0.321142682861773 0.9403336909218362
26344236 0.3218908966825702 0.9406676547308683
26349612 0.32257593166923887 0.9395554878725232
26354989 0.32283249432002903 0.9401916784599638
26360365 0.3230141786109001 0.9402493518344948
26365741 0.3229869465680518 0.9403883533796651
26371118 0.32315420999888644 0.9395189577156603
26376494 0.3239306119132831 0.9397857824505204
26381871 0.32416596137302117 0.9400031381200333
26387247 0.324887617046991 0.9395153341991432
26392624 0.3251309724653758 0.9393339339618033
26398000 0.32509815868047265 0.9396307389649211
26403376 0.3252504913087454 0.9395870880933789
26408753 0.32518114447043844 0.939570888636513
26414129 0.32597896339667765 0.9386484552309591
26419506 0.32607229521341696 0.9394618309421878
26424882 0.32664582081246396 0.9392758997273682
26430259 0.3265201156098643 0.939462780635553
26435635 0.32653744276172053 0.9385719374590238
26441011 0.3268172214077094 0.9391703569259475
26446388 0.3269487783359645 0.939161608213109
26451764 0.3273754095333098 0.9387040022263242
26457141 0.32788556589411394 0.9387770173958515
26462517 0.3286342505119193 0.9387819655438476
26467893 0.3289555736118961 0.9389276189674872
26473270 0.3290314361284835 0.9382619858950922
26478646 0.3294980614701449 0.9379334940593009
26484023 0.3293967685216314 0.9381566837609709
26489399 0.32939734376424173 0.9381953148002785
26494776 0.32892012193742937 0.9378991022126733
26500152 0.32942059935653584 0.9379224864490848
26505528 0.32970079293737353 0.9384455650271901
26510905 0.33004364292294536 0.9381594906296883
26516281 0.33013502042958504 0.9381128924624491
26521658 0.3307672436516864 0.9382472771182702
26527034 0.3304895310506865 0.9381452901459849
26532411 0.330527744224263 0.9385616407687806
26532411 0.33108753266627533 0.9380132349645234
26537898 0.33100081324830777 0.9382062575052502
26543386 0.3319248838132427 0.9378710370669096
26548873 0.3322110066827095 0.9374656493686494
26554361 0.33243965159286315 0.9373500147254314
26559849 0.33247189519596704 0.9376609950688446
26565336 0.3331738826752934 0.9374205904480875
26570824 0.33425073138683187 0.9376745535676404
26576311 0.33386661650825594 0.9373116991854727
26581799 0.3345121361142901 0.9377445679195275
26587287 0.33460632764134657 0.9375714910488739
26592774 0.33499433067174633 0.9375627172836977
26598262 0.3349394261428526 0.9376763212040148
26603750 0.3349981714896305 0.9370715669854983
26609237 0.3347585061661182 0.9367267912171914
26614725 0.33586106224595896 0.9359745609775199
26620212 0.3360602542073627 0.936166422682505
26625700 0.3362691382138467 0.9361744210750144
26631188 0.33630701218828557 0.9360700181378159
26636675 0.3366263434948326 0.9362524057344762
26642163 0.3365450813560707 0.9360022281958899
26647651 0.33623810315683433 0.935867856013431
26653138 0.33639445716893573 0.9364832465744763
26658626 0.33729952432939847 0.9358777391527436
26664113 0.33808838526882046 0.936013314006717
26669601 0.3378071584865346 0.9355813154273297
26675089 0.33852937921459275 0.9353813338489503
26680576 0.3386744420329893 0.9355655640042955
26686064 0.33907240382948206 0.935996994603686
26691551 0.3391981709814905 0.935808335533216
26697039 0.3389937087712559 0.9357865294365274
26702527 0.33916765801123394 0.9360710503486004
26708014 0.33951168584472674 0.9355013278154929
26713502 0.3396483890458189 0.9351459167364347
26718990 0.33970843720857996 0.9348171003837566
26724477 0.33985925118142185 0.934665493343619
26729965 0.3404612068446463 0.9343125478013372
26735452 0.3404759309382477 0.9346218762973049
26740940 0.34076886277668456 0.9347088317833433
26746428 0.34090729396411645 0.9348715291143249
26751915 0.34158694683157453 0.935025316486516
26757403 0.3421969796824832 0.934764196876328
26762891 0.34250546066441984 0.9343823413546269
26768378 0.3425333956809184 0.9344737192886516
26773866 0.3431459888323729 0.9344211519365938
26779353 0.34350694046165764 0.9344452314199345
26784841 0.34311197709238406 0.9342849823298747
26790329 0.3430265992127086 0.9348588124239777
26795816 0.34266907374201594 0.9345897405613918
26801304 0.3436825000847538 0.9339582112941771
26806792 0.3439727452884113 0.9334001626996148
26812279 0.34440840824912133 0.9331689973847838
26817767 0.3449022679524086 0.9336827273492542
26823254 0.3451643313939282 0.9327324758922473
26828742 0.3452094645445592 0.9329970505398674
26834230 0.3450008088116369 0.933625892691018
26839717 0.3455814126632763 0.9333567993038243
26845205 0.34563661735727896 0.9336386079004382
26850692 0.3460213492182053 0.9333169835047137
26856180 0.34631756600443186 0.9337649300639735
26861668 0.3468086881274373 0.9336218652703198
26867155 0.34721787932158 0.9329846498811458
26872643 0.3473363268429355 0.9334439231715292
26878131 0.3470395464102857 0.9341947294669757
26883618 0.34662530556248644 0.9344982691323898
26889106 0.34707418035371124 0.9343784950371076
26894593 0.34769912892577215 0.9339790035605084
26900081 0.3483308944646879 0.9332093951367159
26905569 0.34846523680056884 0.9327445431380397
26911056 0.3485415209038651 0.9321647748900023
26916544 0.3489359729266272 0.9315409378190506
26922032 0.34900829384395876 0.932176230312175
26927519 0.34953880673515686 0.9325872010062461
26933007 0.34929361622587524 0.9328901725848529
26938494 0.3497185751889863 0.9331472986941687
26943982 0.35014483150568837 0.9329378398764626
26949470 0.35003045197149896 0.9327372540977621
26954957 0.3505319146677188 0.9318328940132954
26960445 0.35114210015463115 0.9318769821358434
26965932 0.3517917965276268 0.932048548309104
26971420 0.35184525686971313 0.9314647545422926
26976908 0.3520770104333616 0.9315038208689689
26982395 0.3523469751439138 0.9323535609391062
26987883 0.3526928490798547 0.9319566098037071
26993371 0.3530644519764438 0.9325187682554873
26998858 0.3527788732426697 0.9316434042715623
27004346 0.35269876131390226 0.9316951247283144
27009833 0.35288453360389527 0.9311585672587069
27015321 0.3529036213124459 0.9316519825803659
27020809 0.3531641132614285 0.9316333228553568
27026296 0.3531312568294467 0.9316923285036642
27031784 0.35377950387679874 0.9316900604374225
27037272 0.3537922740463925 0.9316374338777157
27042759 0.354063444095335 0.9314630501422537
27048247 0.3546554192857978 0.9313501304397506
27053734 0.35521818290088863 0.9314002497599082
27059222 0.35572905457272525 0.9306074713337155
27064710 0.35603273782625283 0.9305024865677552
27070197 0.3559684152240697 0.9301410877776161
27075685 0.35593980221030996 0.9306121212936024
27081173 0.35597103424091275 0.93022536192196
27081173 0.3560554203876439 0.930742107353578
27086774 0.3561709102820858 0.9302075279967167
27092375 0.3564174107611517 0.9301139498781892
27097976 0.35650980624220935 0.9304207737926476
27103577 0.3567802323950211 0.9306071661669499
27109178 0.35699022116437407 0.9306926372894427
27114779 0.35771904073436867 0.9306155293066447
27120380 0.3580900370117249 0.9305958167890469
27125981 0.3585439733757657 0.9300146337412122
27131583 0.3586075033960399 0.9300355983679991
27137184 0.35887615717303045 0.9299350189083377
27142785 0.3591371391500053 0.9297451759514281
27148386 0.35915258905749514 0.9293472107276912
27153987 0.35912811501455677 0.9294948177431065
27159588 0.3598687989837249 0.9298956459476224
27165189 0.3597955853343543 0.9302275555943166
27170790 0.35985864993195377 0.9292024200326601
27176392 0.3597116536393644 0.929514749437851
27181993 0.36069294033727817 0.9291222909495862
27187594 0.3607183263744742 0.9295741478313333
27193195 0.36116931011806797 0.9293529133362471
27198796 0.3613178144426478 0.929396308326679
27204397 0.361520776451441 0.9294286375677329
27209998 0.36160634676006775 0.9290904057703105
27215599 0.3623197936783177 0.9292127407376107
27221201 0.3623059860487479 0.9288998751925164
27226802 0.36212106858101256 0.9291397538812171
27232403 0.3626496677493428 0.9284449588293959
27238004 0.36285358893450614 0.9288544409029973
27243605 0.36350443694836154 0.929171165284532
27249206 0.36365887632419464 0.92933438011252
27254807 0.36454914468460764 0.9298440748267689
27260408 0.36446810590356876 0.929569845726973
27266009 0.3642719753282459 0.9286109569776623
27271611 0.36466202065129527 0.9291266326840654
27277212 0.3648090169506338 0.9286770824390116
27282813 0.3649590226896893 0.9282166775247762
27288414 0.3651887760934173 0.9281521085862507
27294015 0.3649533236919795 0.9282587142383086
27299616 0.3658273089620423 0.9286809899116848
27305217 0.3655329149664758 0.9284945442332094
27310818 0.36604704153395445 0.9283388179568937
27316420 0.36608495596782226 0.9287211381825372
27322021 0.3663436671493346 0.9285350801768616
27327622 0.3671437393450241 0.9285381996286897
27333223 0.3673316619165035 0.9281239704603544
27338824 0.36802983544376855 0.9278241630756178
27344425 0.3683137695730606 0.9279152795497234
27350026 0.36788961894034494 0.9277084379890603
27355627 0.3685064250946103 0.9275912912762815
27361229 0.3679097066169256 0.9270125805044617
27366830 0.36820945583279674 0.9271206810729065
27372431 0.3685936975002938 0.927069809018009
27378032 0.36918062037033644 0.9270259253363653
27383633 0.3692906523359241 0.9277544283453616
27389234 0.36965268857568284 0.9280596386301996
27394835 0.37022130790317165 0.9280460394737944
27400436 0.3698864952874365 0.927337015418992
27406037 0.36959514327806336 0.927280154409743
27411639 0.36941068470217 0.9272446487432678
27417240 0.36940264819145985 0.9276060865382586
27422841 0.3695401537111856 0.9268771625007383
27428442 0.36941821689020166 0.9273276218592914
27434043 0.3703486164488971 0.9269950964448269
27439644 0.3708851593795668 0.9272915077100905
27445245 0.3710552306118591 0.9268146110334197
27450846 0.37179894787136963 0.9274172560807218
27456448 0.3719796930655075 0.9273160975329816
27462049 0.37228668775370716 0.927356045402794
27467650 0.3722287819161142 0.9263758898972851
27473251 0.37261817656302276 0.9265389598817858
27478852 0.372687318566071 0.9266966322120282
27484453 0.3728692832387369 0.9266404305385196
27490054 0.3723803411991052 0.9262168541007213
27495655 0.37260816247942885 0.9266488275353802
27501257 0.37271463962428936 0.9261955561625728
27506858 0.37345437250430574 0.9264910950254618
27512459 0.37380784168542314 0.9259489569238346
27518060 0.373791239026778 0.9261344562244396
27523661 0.37401187960666016 0.9260093383114874
27529262 0.3746816508326525 0.9259313846365219
27534863 0.37521550411926263 0.9257573331690194
27540464 0.37528783715825764 0.925797956130939
27546065 0.37549082097631753 0.9254427259099902
27551667 0.37594272766746023 0.9254246441444797
27557268 0.3758236714932549 0.925325878179032
27562869 0.37612960837362297 0.9260455948271459
27568470 0.37602030866207936 0.9258475003099104
27574071 0.37663221664114943 0.9264136681199352
27579672 0.3763959203658913 0.9257623290960072
27585273 0.3764845604207687 0.9259518971862977
27590874 0.37680671644950814 0.9255415386292382
27596476 0.377374085852869 0.9252007139274693
27602077 0.37749361257504666 0.9253113900497802
27607678 0.3779412772632911 0.9252948947004538
27613279 0.3779732868776322 0.9248661647728549
27618880 0.3787658330320932 0.9244001243953739
27624481 0.3787838535492602 0.9238862728749669
27630082 0.37918449335208065 0.9250824434322233
27635683 0.37881883688642687 0.9254586966299315
27641285 0.3790538164677044 0.9251348001053633
27641285 0.3790019290576417 0.9246547530216296
27647001 0.37906974813795635 0.9243069535219858
27652718 0.37871653204184114 0.9246746604710699
27658435 0.37927888934196413 0.924128583085324
27664152 0.38001457868301586 0.9249585765642452
27669869 0.38070005434800286 0.9242405173248817
27675586 0.3811320881137153 0.9241761410962913
27681303 0.3812374836322145 0.9239337315114852
27687020 0.3812141130091399 0.9242770110432948
27692737 0.38139012165545666 0.9243105406959985
27698454 0.3816347259638299 0.9241880986888976
27704171 0.381963696863408 0.9241718232143629
27709888 0.3821514254618059 0.9239454820697645
27715605 0.38228000775010845 0.9235732285158009
27721322 0.38316132949097476 0.9229451442005279
27727039 0.3829307468197239 0.9234312683484707
27732756 0.383142247671045 0.9233186414606155
27738473 0.38318018929477865 0.9236265727645471
27744190 0.38353372189222695 0.9236127057380723
27749907 0.383592441697627 0.9241946209218851
27755624 0.38411647030590124 0.9235228824032128
27761341 0.3841069614007852 0.9230790562650761
27767058 0.38507207469686416 0.9230070328795301
27772775 0.3847052601302002 0.9229485252241192
27778492 0.38482864078015566 0.9234413286903642
27784209 0.385120001404761 0.9236873290434655
27789926 0.3856490742831036 0.9240087742671245
27795643 0.38543593461199555 0.9236091080617117
27801360 0.38559424927001196 0.9239113509222651
27807077 0.38609932384704837 0.9231478489981422
27812794 0.3858306677456486 0.9231353844598842
27818511 0.3858734730792834 0.9224902750300373
27824228 0.385700965812749 0.9224582103428314
27829945 0.3867308584688964 0.9228745464766083
27835661 0.386810344133205 0.9234106476188327
27841378 0.38721835242860736 0.9230485644855397
27847095 0.38777039515851314 0.9226750905411262
27852812 0.38836601542121296 0.9224258719370233
27858529 0.3879556095202394 0.9227554777898626
27864246 0.38854284190605326 0.9230761114239123
27869963 0.3889125139580883 0.9232178600911527
27875680 0.38927933963623373 0.9229695798277432
27881397 0.3891618253485865 0.9229570439457137
27887114 0.38979369975072575 0.9230840159825651
27892831 0.3901551697880373 0.9227935770423642
27898548 0.390028836061742 0.9229441949829844
27904265 0.389526357292911 0.9223752333143835
27909982 0.38929198413472743 0.9225185825030379
27915699 0.38924796501120595 0.9220856843664839
27921416 0.3897947284614319 0.922008771853051
27927133 0.39046296217689674 0.92170516596907
27932850 0.39046280615652346 0.9222844355705997
27938567 0.39136855577507557 0.9220301082495399
27944284 0.3911091726516119 0.9221659174149056
27950001 0.3912947548039968 0.9225616823155207
27955718 0.39198170849750813 0.9218023697220101
27961435 0.3919301934283992 0.9222244954192734
27967152 0.3919629148272171 0.9220400680035454
27972869 0.3919907995002522 0.9216696741779137
27978586 0.3920285079627845 0.9222288089853404
27984303 0.39158745564521247 0.9217061755745098
27990020 0.39163629432988434 0.9217608168084607
27995737 0.3924443512269521 0.9210642994952284
28001454 0.3921160354018559 0.9214238860558913
28007171 0.3931812922151626 0.921071555098796
28012888 0.39292067705922246 0.9212770885036093
28018605 0.393598025207592 0.9212035443843181
28024321 0.3934239711571936 0.9209429897978039
28030038 0.3949028518832485 0.9208004765087139
28035755 0.3945406815471485 0.9212154714425685
28041472 0.3955984895291014 0.9207123542195128
28047189 0.3947454380035108 0.9203217703631306
28052906 0.39530844588571123 0.9214161641785455
28058623 0.39548790009791285 0.9212556639342946
28064340 0.3954447853834465 0.9217934990448462
28070057 0.395318968662824 0.9213067873127649
28075774 0.39485892106749376 0.9212552678917035
28081491 0.39523598692108225 0.9209805741182903
28087208 0.3953501308867636 0.9208973026631775
28092925 0.39592980714555587 0.9207966251466655
28098642 0.39600112825073763 0.9207379002121033
28104359 0.39662344776009395 0.9214073373391565
28110076 0.39667585825280577 0.9210254868771134
28115793 0.3965476597946335 0.920471494551298
28121510 0.3967515020463018 0.9201724698418523
28127227 0.3976129997122862 0.9199735484596955
28132944 0.39787504978785515 0.9205056432021498
28138661 0.3986364489812037 0.9205421729034583
28144378 0.39842205647957396 0.9204126617016021
28150095 0.3986844811295861 0.9207728796302029
28155812 0.3992283770960367 0.9201726785841947
28161529 0.3999971712035455 0.9193207762334915
28167246 0.4000029126484903 0.9191816186315052
28172963 0.4004283833496361 0.9195366945181138
28178680 0.4010666313459639 0.919328384979001
28184397 0.40114516594861266 0.9195843855377974
28190114 0.40077631936803554 0.9194926064998847
28195831 0.4000476145562726 0.9202444913100254
28201548 0.40044017343774985 0.9200488627628205
28207265 0.4002504758829845 0.9195426873998306
28212982 0.4007391369341054 0.9197980749173039
28212982 0.40099969416077486 0.9197244819117387
28218817 0.4014130849717673 0.9191365972153049
28224652 0.40179240511014913 0.9193716104388292
28230487 0.4015377955849257 0.9194315210828499
28236322 0.4019775714164352 0.9187928603634733
28242158 0.4023321955848483 0.9188609540800391
28247993 0.40314231596589756 0.9186934369022993
28253828 0.4023359807168769 0.9192070959194703
28259663 0.40323915663792986 0.9185196287872913
28265498 0.40335467719134277 0.9182284779906746
28271334 0.404219588517878 0.9183841274532543
28277169 0.40262427046878296 0.9187601444281852
28283004 0.40348244650712173 0.918895342687766
28288839 0.4035018465705229 0.9180701825585189
28294674 0.40435610372507186 0.9181076504732223
28300510 0.4036237351400046 0.9180291917698281
28306345 0.4037141576498265 0.917850301133592
28312180 0.40466038360503004 0.9174900412147835
28318015 0.4050091796938648 0.9174720538448513
28323850 0.40451651377921477 0.9179630892527595
28329686 0.40418095385694414 0.9175890986005442
28335521 0.40543625098515085 0.9178446642587648
28341356 0.40490591393985337 0.9172639709214331
28347191 0.4052728029019186 0.9177734986805631
28353026 0.40482928810981644 0.9169693617162483
28358862 0.4057333853022074 0.9176575822191523
28364697 0.4064155840635959 0.9162763602345979
28370532 0.4066412118210109 0.9163007688825406
28376367 0.4063479683405852 0.9163502981267461
28382202 0.406605469880555 0.9159486842897777
28388038 0.4080021881329513 0.916397164922902
28393873 0.4079917555604251 0.9162642550127748
28399708 0.4082157709772078 0.9170350744719217
28405543 0.4087232878426625 0.9175454031929174
28411378 0.4091059804243128 0.9166435256958554
28417214 0.4097870061003774 0.9168014770968734
28423049 0.40910403780029403 0.9168580064865273
28428884 0.4096633788339823 0.9169662885357401
28434719 0.4101775152247162 0.9163265380449318
28440554 0.4102716071353272 0.9164624146655101
28446390 0.40939656446775297 0.9160487013160524
28452225 0.40982438126037957 0.9159482583100671
28458060 0.41016727912057765 0.9150665150314673
28463895 0.4103831440267745 0.9153384820993393
28469730 0.4107613337268291 0.9155786787910414
28475566 0.4106672799548077 0.9156069844728444
28481401 0.41197052614914903 0.9158597394315652
28487236 0.4115520113398416 0.9160285454544299
28493071 0.4103576111107767 0.9158084129359677
28498906 0.4105967558510968 0.9160210366429701
28504742 0.41038854121143187 0.916071434016172
28510577 0.41061926214801714 0.9155613368386383
28516412 0.4106087334990381 0.9154751491640164
28522247 0.41044073125651326 0.9155593787243468
28528082 0.41094773172289745 0.914810334772296
28533918 0.41135249996459183 0.9149005184198346
28539753 0.41141813970378854 0.9145885296914248
28545588 0.4116806905841361 0.9145375070241528
28551423 0.41230126085962443 0.9146973024624735
28557258 0.41205660390464194 0.9147554449375677
28563094 0.4121504917760956 0.9145716709400435
28568929 0.4130672784964484 0.9145729593062669
28574764 0.412781834223888 0.9141912306867898
28580599 0.4129719790435696 0.9144868076724376
28586434 0.41338591862275026 0.9141916101126518
28592270 0.41335793676222377 0.9134340614484912
28598105 0.4140448499592829 0.9140004263752627
28603940 0.4140755798517726 0.9134566028484532
28609775 0.41441551020648715 0.9139369848631307
28615610 0.414738107208448 0.9137715731459621
28621446 0.4149399570245608 0.9138729793634894
28627281 0.4155330811277575 0.9138339788539376
28633116 0.4162910558296347 0.914270377834755
28638951 0.4161096336780409 0.9146135152578491
28644786 0.41653181177049003 0.9141815388272253
28650622 0.41639612541077164 0.9141847190319558
28656457 0.41606187133476974 0.9142541754540942
28662292 0.4163032182767451 0.914291609743913
28668127 0.4171173993665872 0.9142882721182334
28673962 0.4172977095250495 0.9133325335568174
28679798 0.4177037865739664 0.9141182449565894
28685633 0.41729830821499464 0.9137906283513592
28691468 0.41744789704151425 0.9133014927766004
28697303 0.4177840747950142 0.9134717775760269
28703138 0.4171051849779977 0.913536860060508
28708974 0.4174803126919938 0.913094021937704
28714809 0.4174784100294087 0.9140082831046414
28720644 0.4170240537645466 0.9130476772989907
28726479 0.4174672822431241 0.9129519590615003
28732314 0.41817240370046505 0.9123320465079785
28738150 0.4178829390783631 0.9122078379955628
28743985 0.41873897756845657 0.9120611375938843
28749820 0.41920802511787464 0.9122793617724794
28755655 0.41975938569403626 0.9115602180593192
28761490 0.41974681130765523 0.912093587591562
28767326 0.41898069531911053 0.9122373491133797
28773161 0.4197152658516419 0.9113003815220541
28778996 0.4199126543129585 0.9126237726945824
28784831 0.41980706764685616 0.9121643139996188
28790666 0.4204670065758893 0.9118895705208854
28796502 0.4206472659192066 0.912542241487697
28796502 0.4206132772754901 0.9123125442126223
28802457 0.42102555528812885 0.9123965797153515
28808413 0.4209005094970884 0.9122563306517782
28814369 0.4219133138014228 0.9113855197848952
28820325 0.4217794867826515 0.911868848887247
28826281 0.42144599323760695 0.9110213343159058
28832237 0.4216385149108855 0.9115686018658307
28838193 0.4207441837162184 0.910873584848574
28844149 0.42225947058118757 0.910643483354674
28850105 0.4217158464315804 0.9111779691043586
28856061 0.4223251994545709 0.9108447642850793
28862016 0.4227331274537583 0.9110669502757246
28867972 0.42244912266671697 0.9107408500939238
28873928 0.4235491887617694 0.9102285944222829
28879884 0.4231182099813125 0.9104516402712106
28885840 0.4240002601124523 0.9103301779276743
28891796 0.4245186263795027 0.9107648983548973
28897752 0.42413227104669815 0.9107618774047788
28903708 0.4246894637250904 0.9101983011195165
28909664 0.4243663352530355 0.910694053081611
28915620 0.4245475359130398 0.9102722477544175
28921575 0.42507093810212687 0.9109737525598295
28927531 0.4249522716815916 0.9110378484290729
28933487 0.42564467828126556 0.9105525584097298
28939443 0.42509407563518453 0.9110523018873786
28945399 0.4257427545316357 0.910701911301133
28951355 0.42568912043673296 0.9102114467383174
28957311 0.4250321213511947 0.9101744137603669
28963267 0.42593464040507056 0.9100054221189542
28969223 0.42560353900670617 0.9108630845731158
28975179 0.42606675618483847 0.9099733167620272
28981134 0.4260694333203685 0.9101913796809044
28987090 0.42591899978548237 0.9103848470942515
28993046 0.4261061509225356 0.910275140934074
28999002 0.42640628447801227 0.9105122131860617
29004958 0.42683718473876225 0.9094710451353982
29010914 0.4271657467013818 0.9089236002516331
29016870 0.4272578013197902 0.9100863450192419
29022826 0.4276816990291018 0.9086888013183617
29028782 0.42828777689733266 0.9090147246829064
29034738 0.4280140115921299 0.9089942397879033
29040693 0.4282559901677058 0.9086488269974462
29046649 0.4289932596050115 0.9088534516707175
29052605 0.42903626394776007 0.9083386893869951
29058561 0.4298878189533995 0.9078650663167385
29064517 0.4300915909560742 0.9090703679812266
29070473 0.43054911385911615 0.9081670676775645
29076429 0.43119989631721967 0.9089648257470925
29082385 0.43011725914211396 0.9080074311438121
29088341 0.4299394719282022 0.9078331152221066
29094297 0.4291601307232076 0.908941719371268
29100252 0.43051600107573346 0.9078310582792293
29106208 0.43106602988425013 0.9078409462611424
29112164 0.43081564139168743 0.908048167561709
29118120 0.43125975168208686 0.908089156519288
29124076 0.43151008265606816 0.9084894650920596
29130032 0.4316405712732039 0.9078221313553699
29135988 0.432378460310476 0.9080048646015654
29141944 0.432025307342262 0.9082535256057279
29147900 0.4318103591518472 0.9078254885036572
29153856 0.43248909788973056 0.9073624136149889
29159811 0.4323899967895386 0.9077916726742499
29165767 0.43262259916823914 0.9075790753675007
29171723 0.4330592626476716 0.9076925600152206
29177679 0.43264309292275427 0.907990377886498
29183635 0.4335080087649507 0.9074371410116733
29189591 0.4331616991717373 0.9079787963234685
29195547 0.4337903847161671 0.907216082421372
29201503 0.43362248607182113 0.9069402105379168
29207459 0.43336206472242955 0.907171907785529
29213415 0.4338150744960579 0.9064487732122325
29219370 0.4345186869290551 0.9059482504145445
29225326 0.4344302985692755 0.9063296127822131
29231282 0.43444777133263207 0.9051460831996574
29237238 0.43460643052399384 0.9058023275309961
29243194 0.4353694422588775 0.905900793526767
29249150 0.4359554136732605 0.9062021588491225
29255106 0.4354872712603396 0.9065334221126488
29261062 0.4355642812088461 0.9055775549031303
29267018 0.4362564454430871 0.9058884034741763
29272974 0.4360110472562956 0.9058622212558471
29278929 0.43603875401317693 0.9053441069760211
29284885 0.43606101224625604 0.9057908006640858
29290841 0.4372588607276547 0.9060893246149267
29296797 0.4377183139671292 0.9055842320512792
29302753 0.43747079025460706 0.9059274460858738
29308709 0.43739566536109914 0.905321822879288
29314665 0.4375603038420672 0.9058111096505171
29320621 0.43744880485330806 0.9059797814652467
29326577 0.4377323623201486 0.9054534884081981
29332533 0.43766203327162106 0.9052091340679785
29338488 0.43818922202115584 0.9053557490679799
29344444 0.43892175593491106 0.9049965610608699
29350400 0.4388936050059127 0.9050003350845215
29356356 0.4394477762057925 0.904699562910216
29362312 0.43892130676348556 0.9049125083212567
29368268 0.4390926594288476 0.9045993069421705
29374224 0.4391804766146295 0.904902046649974
29380180 0.4389077514952893 0.9055904587521197
29386136 0.4393306363070928 0.9060670363575756
29392092 0.43956522304083134 0.905656468795314
29392092 0.4392010674656194 0.9061931951128614
29398171 0.43952212654062117 0.9052183042162045
29404250 0.43996858421748214 0.9047402573736857
29410329 0.44067909367766434 0.9042645816692613
29416408 0.44057649107013874 0.9047717447793504
29422487 0.4407154627160194 0.9051183664945899
29428566 0.4412391273731944 0.9052083871601774
29434645 0.44120591960603944 0.9052541889368573
29440724 0.44097710031084436 0.9051082309757176
29446803 0.4417152356614046 0.9051390352819818
29452882 0.4411712503197805 0.9047605083059455
29458961 0.44234716314845657 0.9047078464592959
29465040 0.4417933555441793 0.9040010631535801
29471120 0.4421908983169153 0.9042248189551515
29477199 0.44219881693727925 0.9037983051268869
29483278 0.4423047366758836 0.9032238889390494
29489357 0.44250136640535576 0.9031683581936399
29495436 0.4423164720788465 0.9033192237226089
29501515 0.4424849509677615 0.9035368489198796
29507594 0.4422789044786681 0.9038578408569496
29513673 0.4430321727645067 0.9030651234784425
29519752 0.44372600607771273 0.9035031529901136
29525831 0.444360741534327 0.902635128609419
29531910 0.44406400183197825 0.903030601371948
29537989 0.44421462488432273 0.9032120641298595
29544069 0.44470811171134994 0.9034904925766307
29550148 0.44484963880512457 0.9027648786145673
29556227 0.4454857488735753 0.9030535929519315
29562306 0.44513196323848875 0.9027760084976371
29568385 0.44627960924433796 0.9026018297303338
29574464 0.4462911817452632 0.9022593968749634
29580543 0.4471141903288315 0.9027516352110307
29586622 0.44692140841755723 0.90213674086275
29592701 0.4474894861398535 0.9023343892514255
29598780 0.4464887358286248 0.9017964405715556
29604859 0.4468221413220156 0.9021243691178359
29610938 0.4469125602644111 0.9011231557094507
29617017 0.4469805068680591 0.90185025650356
29623097 0.4466551651786636 0.9011242189120111
29629176 0.44714088786823947 0.9011849375684589
29635255 0.4473775660420454 0.9006284186895949
29641334 0.44691084469836184 0.9015289769596573
29647413 0.44784908389321865 0.9008672827283589
29653492 0.44785239508094143 0.9013208523069323
29659571 0.4483963401871793 0.9006007107251125
29665650 0.44843307654739 0.9016980778714289
29671729 0.4486779426769035 0.9008490076657676
29677808 0.44848080490389575 0.9009256740295066
29683887 0.4482916864087758 0.9001871590635799
29689966 0.4487836462674517 0.9008305358825829
29696046 0.4486931514013612 0.9003996757783886
29702125 0.4495051652752812 0.9010796846793753
29708204 0.4495144774303196 0.9009192164969192
29714283 0.45057154512593633 0.9010426888115813
29720362 0.45059630133867257 0.9000954846688923
29726441 0.4508147072413887 0.9008682866445364
29732520 0.450697411342487 0.9001519327372836
29738599 0.4503036034424797 0.9008986700736978
29744678 0.45062527298740057 0.8995329660817015
29750757 0.44981168242923264 0.9005247414045486
29756836 0.450935118903077 0.8995278065918482
29762915 0.45036587025355007 0.9001542175787549
29768994 0.451450561337969 0.8995639515057754
29775074 0.45074210368702555 0.8996323703648444
29781153 0.45161883715620577 0.899268208917651
29787232 0.451784188369893 0.8994990257808712
29793311 0.4525190622027515 0.8992945495247701
29799390 0.4528432162542176 0.8989541227397319
29805469 0.4530674742091981 0.8992792130472967
29811548 0.4525146200837835 0.8985186484225345
29817627 0.4527882317667793 0.8997508954042058
29823706 0.45267445883566415 0.8990141167709571
29829785 0.4534386452842583 0.8997740909087237
29835864 0.4536016551055501 0.897967372349493
29841943 0.45449486145491846 0.8989814534112364
29848023 0.45514755081510205 0.8980842593218717
29854102 0.45388044629008617 0.8982828241469005
29860181 0.45506670703118657 0.897739837746022
29866260 0.45415289035292056 0.897823678283023
29872339 0.45513486180818935 0.8979820752927293
29878418 0.4546060174576706 0.8982385395763055
29884497 0.4551670850451741 0.8976065825021158
29890576 0.45449054228180996 0.8970898695816808
29896655 0.4555626333548814 0.8975102456282118
29902734 0.45451086446281214 0.8970310482021475
29908813 0.45564494004429434 0.8975276627705369
29914892 0.4555597790665135 0.8973959707585791
29920971 0.4561792892328589 0.8980561333286482
29927051 0.4555535858966795 0.8972202332802228
29933130 0.4566904551054109 0.8978203426046625
29939209 0.4552770454019305 0.8964610542289784
29945288 0.4565931511124297 0.8973297127190959
29951367 0.45687976656977 0.8965256915274016
29957446 0.45752803649885604 0.8965626571870794
29963525 0.45754763161432005 0.8957713846871191
29969604 0.45751260657195947 0.8966819369672923
29975683 0.4573666417442422 0.8958559499043867
29981762 0.45761455943037144 0.8975791873470362
29987841 0.45816958384674356 0.8960996829010877
29993920 0.45768147367371287 0.8972701348899489
30000000 0.4579163255654751 0.8969984909517031
