# HZ S RI R 50
13000000 -0.10378787195215189 0.7640925381486778
13006351 -0.08460625923411487 0.7666858822785034
13012702 -0.06561420687031522 0.7681218767502963
13019053 -0.046872491353172334 0.7691540261730134
13025405 -0.027620918152909988 0.7703304191240798
13031756 -0.008806225127836229 0.7707651356138231
13038107 0.010464743923253268 0.7705544787937957
13044459 0.029527630312605323 0.7696535513314586
13050810 0.04785675721545751 0.7693138897894256
13057161 0.06695878878462548 0.7677404994317215
13063513 0.08656446850138814 0.7656964559962445
13069864 0.104808395363547 0.7626974804548159
13076215 0.12402946687416785 0.7603343281251301
13082567 0.14253510629003377 0.7571274626601776
13088918 0.1616502647656534 0.7535000390268298
13095269 0.18029786160996225 0.7487512610997522
13101620 0.1987489947825034 0.7439543111380773
13107972 0.2160753269236434 0.739138094558662
13114323 0.23525672666348021 0.7333537929162739
13120674 0.25295564894904565 0.7276980438535431
13127026 0.2714188144235036 0.7214607146742246
13133377 0.28913067498829065 0.7140433280337815
13139728 0.3066172233843475 0.7064779527028398
13146080 0.3235322582149331 0.6996181235214249
13152431 0.3403503441874504 0.6914827078365366
13158782 0.35767857352476085 0.6829094922556848
13165134 0.3756103714155954 0.6732415530026954
13171485 0.391498053375648 0.6641851786608036
13177836 0.4073844511924458 0.6546514575920845
13184187 0.4234321453714538 0.6443614599954907
13190539 0.4391985971673698 0.6339583064706763
13196890 0.45499079614526017 0.6232111286879991
13203241 0.47065816885192135 0.6120395154171719
13209593 0.4849840091956152 0.6008200009610364
13215944 0.500226506918628 0.5885378989265622
13222295 0.5145136363248012 0.5762473263205047
13228647 0.5278382979247914 0.5638673104783177
13234998 0.5425100158394766 0.5508112500266943
13241349 0.5563070657188747 0.5374785082768897
13247701 0.5691429860658117 0.5237840855924322
13254052 0.5817190979652448 0.5101686071310976
13260403 0.5944684949972752 0.4956458967182597
13266755 0.606753575086076 0.4812438293075559
13273106 0.6184136458921514 0.46693476420434654
13279457 0.6299528613808206 0.45140128909221744
13285808 0.6410297409236546 0.4359530619942309
13292160 0.6517933140854665 0.4202393864436596
13298511 0.6626686263907234 0.4047922409210802
13304862 0.6719501285661096 0.388762694874104
13311214 0.6816190826555887 0.3726586649494265
13317565 0.6908685050855135 0.3559471986124972
13323916 0.6995129934776351 0.33910367569690647
13330268 0.7076064606737673 0.3224160391355634
13336619 0.7155928575954167 0.3052833349082971
13342970 0.7230331753334515 0.28813469841939476
13349322 0.7304641067217916 0.2710934815297088
13355673 0.7374655195270342 0.2534214640838984
13362024 0.7430710206159576 0.23556867050795643
13368375 0.7488846934350092 0.2180023620583753
13374727 0.7544697811292127 0.19988322384593402
13381078 0.7595534933179888 0.1818480687937892
13387429 0.7646064246036522 0.1631630309691736
13393781 0.7681230977641714 0.1448586595170169
13400132 0.7718451229121255 0.1267545235892467
13406483 0.7751114677367564 0.10795307642882163
13412835 0.7774060088173874 0.08924665584968984
13419186 0.7800209571654743 0.0708930625697233
13425537 0.7820953463570867 0.05187182794550556
13431889 0.7834244719988307 0.03346910330330111
13438240 0.7842967506456335 0.014381174633861144
13444591 0.7851721429482981 -0.004298473676307382
13450943 0.7847646613185791 -0.023655986638431492
13457294 0.784138242477227 -0.042163266418699163
13463645 0.7836438228206964 -0.060788754891340405
13469996 0.7819291340075891 -0.08015168114979296
13476348 0.7797290317439997 -0.09892903325462522
13482699 0.7776820248015475 -0.11785909597652108
13489050 0.7752740223122249 -0.13656724076548984
13495402 0.7726791458739731 -0.15528963614869282
13501753 0.7686500554639917 -0.17383988067643155
13508104 0.7643564269479517 -0.19257612387533335
13514456 0.7595479305233451 -0.2109761099637682
13520807 0.7547074455724538 -0.2285662723099662
13527158 0.7494296675034058 -0.24674383527449129
13533510 0.7434871579688088 -0.2654538648733174
13539861 0.736831305443384 -0.2833613642090116
13546212 0.7301748760662429 -0.3007301832962261
13552563 0.7230280054444669 -0.31898269661452494
13558915 0.7147976092599174 -0.3357935510896992
13565266 0.7069304094386099 -0.35329430080979257
13571617 0.6980211791660368 -0.3705952011875572
13577969 0.6888362071102179 -0.3879327046157593
13584320 0.6792035262672089 -0.4044729649281898
13590671 0.6693638589249065 -0.42066764561586817
13597023 0.6583944826487897 -0.43743332770284404
13603374 0.6474884211057536 -0.4534217448892651
13609725 0.6362679008707897 -0.46918476933881936
13616077 0.6244219504539572 -0.485507893166627
13622428 0.6121362876730578 -0.500561707368241
13628779 0.5988242453643464 -0.5153120161468574
13635131 0.5864508603861294 -0.5307878137292714
13635131 0.5858246844113799 -0.5310954827176774
13641792 0.5709388006352816 -0.5460826578397265
13648454 0.556042118472667 -0.5603034794420281
13655115 0.5404387094188893 -0.5746528635634565
13661777 0.5245205530786421 -0.5894342933928519
13668439 0.5081148377415722 -0.6032302802336177
13675100 0.4903200269354903 -0.6165314175404255
13681762 0.47283646676099056 -0.6296643493589573
13688423 0.45435791993473035 -0.642115433110228
13695085 0.43528264801973066 -0.654050941535401
13701747 0.4150163463880056 -0.6660220413406699
13708408 0.3954441837264583 -0.6771956511529114
13715070 0.3749571659249901 -0.6868553711169202
13721732 0.35379557962016894 -0.696408817928682
13728393 0.3311137519421302 -0.705600182309434
13735055 0.30829207153256377 -0.713910051446139
13741716 0.28450324605700517 -0.7214272654934808
13748378 0.260139888892468 -0.7279306331681114
13755040 0.235196332569741 -0.7342530348311651
13761701 0.2088826683560937 -0.7392637927145843
13768363 0.18183645218167738 -0.7433538620777095
13775025 0.1538502884175508 -0.744625145649292
13781686 0.12513756130223186 -0.7457923393334183
13788348 0.0953428187022586 -0.7455144326218662
13795009 0.06451610908356674 -0.7429460539744251
13801671 0.03303208308004363 -0.7390243549624791
13808333 0.0007575445427157117 -0.7320932909696594
13814994 -0.032304621004633965 -0.7227569445115067
13821656 -0.06693511442600278 -0.7099622916233391
13828317 -0.1022636192695465 -0.6936929879240484
13834979 -0.13737236431277194 -0.6733722527494849
13841641 -0.17254614292757034 -0.6484824313081438
13848302 -0.20681600363967612 -0.6178851926103709
13854964 -0.23955257796858034 -0.5803320689989533
13861626 -0.2701101026780343 -0.5363760844995782
13868287 -0.29564216147285405 -0.4850505777314498
13874949 -0.31433127478781114 -0.42543491256558297
13881610 -0.3231595826715262 -0.35788370341875114
13888272 -0.31832993918677027 -0.28394024143366015
13894934 -0.2966294570220228 -0.2069489465720573
13901595 -0.25554620559524044 -0.13245655798712314
13908257 -0.1937009335354699 -0.06599121071508764
13914919 -0.11363362358499124 -0.015685289824308283
13921580 -0.02077593220415657 0.01200197357660093
13928242 0.07641618424291313 0.014137705929413807
13934903 0.16830531570280405 -0.0094237736890214
13941565 0.2484193647988524 -0.05409185699745716
13948227 0.31057217725407676 -0.1134591612235168
13954888 0.3542813215755973 -0.1810674878339196
13961550 0.3806191413070554 -0.2503052106403866
13968212 0.3922025720482533 -0.3180506009082192
13974873 0.3919761461105717 -0.3812613118142287
13981535 0.3821334989623035 -0.4390077146588815
13988196 0.3646953345578808 -0.4900151406053812
13994858 0.34348929507571635 -0.5351149633189671
14001520 0.3192406585332696 -0.5739459898008369
14008181 0.2914746852503027 -0.6090231912790166
14014843 0.2626596703194281 -0.6376465661199301
14021504 0.23324140388042922 -0.6624945955262497
14028166 0.2034689211748659 -0.6840896304621604
14034828 0.1745814844574266 -0.7017817137398211
14041489 0.14469760665989456 -0.7172129240680458
14048151 0.11535308640107826 -0.7297159484663419
14054813 0.08683384580638093 -0.7403363435408383
14061474 0.05823521216089646 -0.7486464878048056
14068136 0.030540662645560834 -0.7541852189836549
14074797 0.003187750933449175 -0.7594557381195501
14081459 -0.023807807372707802 -0.7632851336968602
14088121 -0.05084209656569146 -0.7654621693107001
14094782 -0.07596916859196007 -0.7656935538766507
14101444 -0.10024387778106876 -0.7656696643816226
14108106 -0.12478244682158188 -0.7648788246213317
14114767 -0.14969124082476304 -0.7625438652382032
14121429 -0.17391124132478833 -0.7599057479537913
14128090 -0.1954573873753431 -0.7558275141262232
14134752 -0.2175915278368845 -0.750998940769964
14141414 -0.23959597080630635 -0.7458378169417498
14148075 -0.2619612218770472 -0.7394750802775918
14154737 -0.2832877246836265 -0.7329015208261328
14161398 -0.3044172942807891 -0.7257432304272428
14168060 -0.32422502811095794 -0.7183942452786433
14174722 -0.3446742820931473 -0.7093673460582466
14181383 -0.3633084789680996 -0.700391044239601
14188045 -0.3815040284539363 -0.6910637281518208
14194707 -0.4000390111869982 -0.6813423556237487
14201368 -0.41799545235548147 -0.6709903687669219
14208030 -0.4365608199642168 -0.6600711217645213
14214691 -0.4532735493500585 -0.6481509564394198
14221353 -0.46990108672803954 -0.6369462339478296
14228015 -0.4863014822276783 -0.6252187627345386
14234676 -0.5024173054755043 -0.6124383062957669
14241338 -0.5175469747027732 -0.5994717667937594
14248000 -0.5332148155723709 -0.5862358242329296
14254661 -0.5475960172862436 -0.5726395577432544
14261323 -0.5610398086852438 -0.5590052620709521
14267984 -0.5746317264944631 -0.5451370300403815
14274646 -0.5886708297303473 -0.5293830932464533
14281308 -0.6016700294897644 -0.5149599740815645
14287969 -0.6135754184202991 -0.500702961238357
14294631 -0.6258075136694162 -0.48499486918044854
14301293 -0.6375315528545007 -0.46898442026690995
14301293 -0.6377505577362618 -0.46904933480419087
14308280 -0.6490372300305411 -0.453124195134394
14315267 -0.6605146170336498 -0.43594430387845884
14322254 -0.6712634936020105 -0.41774757957915937
14329241 -0.6811982913593869 -0.4009796925729046
14336228 -0.6913162326245185 -0.3832827049179997
14343215 -0.700902519706333 -0.3645620415172418
14350202 -0.7097235198325751 -0.3471298124825727
14357189 -0.7179346599059803 -0.32835084138691284
14364176 -0.7259200602253572 -0.31085649917686087
14371163 -0.7328589527372826 -0.2917475983244654
14378150 -0.739652843351741 -0.27170519803333143
14385137 -0.746303336031038 -0.2534571121651382
14392124 -0.7516910522790977 -0.2344691900598515
14399111 -0.7575187769788977 -0.21494064373062555
14406099 -0.7626678850715057 -0.1959333548649391
14413086 -0.7655645293453764 -0.17583607306226398
14420073 -0.7702385898168704 -0.1556013798192367
14427060 -0.7732679018177169 -0.13638327643306156
14434047 -0.7760183317236543 -0.1163676989992766
14441034 -0.7781989029395471 -0.0955085053168023
14448021 -0.7796251814760391 -0.07624664981119209
14455008 -0.7813398498535493 -0.05516976324595645
14461995 -0.7816207079952877 -0.03559219752418221
14468982 -0.7814604925714465 -0.016386116364824635
14475969 -0.7812108365476053 0.004724091565271018
14482956 -0.7807541311243817 0.024055529691102962
14489943 -0.7787595585701488 0.04496661839472742
14496930 -0.7768841667694287 0.06518224503153859
14503918 -0.7746855348609705 0.0849885717795427
14510905 -0.7711383789463575 0.10574349854393623
14517892 -0.7677866311842859 0.12543695705055968
14524879 -0.7639270198191052 0.14475753329971075
14531866 -0.7589211849761591 0.1647750519634432
14538853 -0.7543449169165575 0.18379021284661154
14545840 -0.7485851971693944 0.20383481779512605
14552827 -0.7425680569452086 0.22379288550965248
14559814 -0.7357314773516602 0.24173029773833984
14566801 -0.7284479722813952 0.26130364257645927
14573788 -0.7211484148991931 0.28081375591131824
14580775 -0.7129810607323573 0.2988840012699469
14587762 -0.7042523976319814 0.317035647667201
14594749 -0.695438653826636 0.3353106059008103
14601737 -0.6857256779269026 0.3532701447916505
14608724 -0.675085681127418 0.3714592723045352
14615711 -0.6651823469260613 0.38906108339829576
14622698 -0.6532916388137254 0.4063006947783245
14629685 -0.642194864928612 0.42356811537355404
14636672 -0.6301231752210755 0.4392494453532163
14643659 -0.6179983281164599 0.45598013870662
14650646 -0.6048212909350114 0.47138207135854876
14657633 -0.5908903679861172 0.4879184532206747
14664620 -0.5777094152180416 0.502956030898234
14671607 -0.5634688835430721 0.5179755085492631
14678594 -0.5491768998245392 0.5320162158881693
14685581 -0.5342521989511 0.5466860313937535
14692568 -0.5193775698124388 0.5601429617234353
14699555 -0.5037445231274751 0.5744463510520131
14706543 -0.4881274928636567 0.5872032502472654
14713530 -0.47153453869056944 0.5995078514112703
14720517 -0.4548471774490452 0.612353131409051
14727504 -0.43772017616149855 0.6236295031549519
14734491 -0.4206010883893931 0.6351801607255911
14741478 -0.4030642163345306 0.6451989675611862
14748465 -0.3848697953446488 0.6562175629493675
14755452 -0.36744980722731885 0.6655673249385697
14762439 -0.3486633058712644 0.675225763720587
14769426 -0.3298816410857673 0.6838333797420861
14776413 -0.3107324004111715 0.6923719379672445
14783400 -0.29193183445547094 0.7005900685713541
14790387 -0.27239165850322605 0.7079816649838012
14797374 -0.25315769657801623 0.714572119544601
14804362 -0.23337865935651944 0.7204275268259727
14811349 -0.21371426460820683 0.7270828138080588
14818336 -0.1932361065150794 0.7320145051962508
14825323 -0.17329747511770294 0.7370477188430071
14832310 -0.15304016556048222 0.7412826019255024
14839297 -0.13267438516196609 0.7450764225122961
14846284 -0.11236775656552558 0.7480430724867341
14853271 -0.09129223035907663 0.7509089008197339
14860258 -0.07057018258900931 0.7534803842480842
14867245 -0.04927237706120588 0.7550171629219968
14874232 -0.02961572402102333 0.7559879618979972
14881219 -0.008366392541492034 0.7561273436162613
14888206 0.012154181197597497 0.7559036354867403
14895193 0.033913041895586596 0.7545229485627097
14902181 0.053619426924027665 0.7537276994824024
14909168 0.07416758590789717 0.7519220811177707
14916155 0.09461941737443139 0.7497464149912915
14923142 0.11539852654517248 0.7465817214247429
14930129 0.13513826649659944 0.7435461875316051
14937116 0.1563293724464407 0.7394444541075316
14944103 0.17539446433648748 0.7353854019329689
14951090 0.19600697832934078 0.7301718298247136
14958077 0.2157594939512248 0.7246435034245359
14965064 0.2358802520368138 0.7185180727395166
14972051 0.25470924325802663 0.7119548723575101
14979038 0.2740923321499962 0.7047216671632193
14986025 0.2933881245682557 0.6971795103449823
14993012 0.31204496444092467 0.6885430134047329
15000000 0.3310668548524653 0.6806922038975944
